% n100w120.005    19.67 959
n = 101;
duration = [|0, 10, 21, 45, 19, 29, 13, 29, 30, 4, 43, 13, 19, 16, 9, 15, 31, 50, 30, 19, 29, 16, 36, 35, 25, 46, 31, 27, 41, 38, 48, 9, 27, 23, 30, 28, 31, 26, 37, 38, 18, 7, 53, 41, 38, 30, 10, 30, 22, 12, 12, 42, 33, 36, 26, 24, 24, 14, 40, 41, 50, 18, 21, 25, 11, 30, 24, 50, 31, 28, 23, 35, 25, 36, 42, 37, 38, 31, 19, 38, 43, 33, 24, 28, 28, 12, 40, 20, 22, 41, 33, 31, 44, 41, 44, 21, 42, 37, 19, 30, 29
            |10, 0, 26, 51, 17, 30, 23, 30, 40, 12, 42, 4, 27, 25, 19, 15, 41, 57, 29, 29, 38, 25, 46, 34, 33, 53, 38, 29, 40, 37, 55, 1, 36, 30, 27, 38, 40, 34, 44, 45, 27, 8, 59, 49, 48, 39, 19, 29, 23, 20, 17, 46, 43, 34, 36, 29, 34, 14, 47, 50, 57, 20, 25, 35, 1, 29, 33, 58, 40, 34, 33, 44, 29, 37, 41, 43, 45, 37, 26, 42, 51, 40, 34, 27, 34, 22, 47, 21, 32, 41, 42, 41, 47, 43, 47, 31, 49, 44, 26, 39, 28
            |21, 26, 0, 25, 15, 13, 21, 14, 34, 17, 26, 26, 8, 15, 17, 13, 30, 30, 17, 18, 19, 25, 30, 21, 13, 27, 14, 9, 26, 22, 29, 26, 17, 9, 20, 27, 22, 13, 19, 22, 15, 18, 33, 25, 30, 21, 14, 17, 9, 11, 9, 21, 32, 24, 25, 3, 25, 13, 23, 29, 31, 8, 4, 24, 27, 17, 22, 32, 24, 8, 19, 30, 6, 18, 27, 17, 19, 11, 6, 17, 27, 16, 25, 17, 8, 18, 21, 10, 22, 24, 24, 29, 23, 22, 23, 27, 24, 18, 6, 26, 18
            |45, 51, 25, 0, 38, 28, 40, 29, 43, 41, 31, 51, 26, 33, 38, 37, 37, 6, 33, 33, 23, 43, 31, 32, 23, 7, 15, 25, 33, 31, 7, 51, 23, 23, 38, 35, 24, 21, 10, 14, 31, 43, 9, 13, 29, 25, 36, 33, 31, 33, 34, 9, 38, 36, 34, 22, 36, 38, 12, 22, 8, 32, 27, 34, 52, 33, 33, 11, 28, 17, 30, 34, 24, 25, 34, 8, 9, 14, 26, 12, 13, 14, 37, 35, 17, 37, 4, 32, 34, 29, 26, 36, 13, 22, 13, 41, 9, 8, 26, 32, 34
            |19, 17, 15, 38, 0, 13, 27, 13, 44, 16, 25, 15, 21, 24, 22, 5, 42, 44, 12, 28, 33, 31, 44, 17, 27, 42, 29, 13, 23, 20, 43, 18, 31, 23, 11, 39, 36, 28, 34, 37, 26, 12, 48, 40, 44, 35, 19, 12, 8, 18, 11, 32, 44, 17, 36, 18, 35, 6, 38, 44, 45, 7, 12, 35, 17, 12, 33, 47, 38, 22, 31, 43, 14, 20, 24, 31, 34, 26, 19, 28, 42, 31, 36, 10, 22, 24, 34, 6, 33, 24, 38, 41, 32, 26, 32, 35, 39, 32, 19, 39, 11
            |29, 30, 13, 28, 13, 0, 33, 2, 47, 25, 14, 28, 21, 27, 28, 15, 43, 34, 6, 30, 30, 37, 42, 8, 25, 33, 23, 4, 13, 9, 34, 31, 29, 21, 10, 40, 34, 25, 26, 30, 28, 23, 37, 33, 42, 33, 25, 6, 7, 22, 17, 20, 45, 11, 38, 13, 37, 16, 31, 39, 35, 11, 9, 37, 30, 6, 35, 38, 36, 16, 32, 43, 7, 7, 14, 21, 26, 18, 19, 16, 35, 25, 38, 7, 16, 30, 25, 9, 35, 12, 36, 42, 19, 13, 19, 39, 31, 23, 18, 39, 7
            |13, 23, 21, 40, 27, 33, 0, 34, 18, 13, 47, 26, 14, 7, 5, 22, 18, 43, 36, 8, 19, 4, 24, 40, 17, 39, 25, 30, 46, 42, 40, 22, 18, 17, 37, 15, 21, 18, 30, 29, 9, 18, 46, 32, 26, 19, 8, 36, 27, 10, 16, 39, 20, 42, 14, 22, 11, 21, 31, 30, 42, 23, 23, 13, 24, 36, 11, 42, 19, 25, 12, 22, 27, 39, 47, 33, 31, 26, 15, 36, 34, 26, 11, 35, 25, 3, 35, 26, 10, 45, 21, 18, 42, 42, 42, 9, 34, 32, 16, 17, 36
            |29, 30, 14, 29, 13, 2, 34, 0, 48, 25, 13, 28, 23, 28, 29, 15, 44, 36, 4, 32, 32, 38, 44, 6, 26, 35, 25, 5, 12, 9, 36, 30, 30, 22, 8, 41, 35, 27, 28, 32, 29, 23, 39, 35, 43, 35, 26, 4, 7, 23, 18, 21, 46, 9, 39, 15, 39, 16, 33, 41, 37, 11, 11, 38, 30, 4, 36, 40, 38, 17, 33, 44, 9, 8, 13, 23, 28, 20, 21, 17, 37, 26, 40, 5, 17, 31, 26, 9, 36, 12, 38, 44, 21, 13, 21, 41, 33, 25, 20, 40, 5
            |30, 40, 34, 43, 44, 47, 18, 48, 0, 30, 60, 44, 25, 20, 22, 39, 7, 45, 51, 16, 21, 15, 15, 54, 24, 40, 31, 43, 60, 56, 41, 39, 21, 27, 53, 8, 19, 24, 34, 30, 19, 36, 46, 32, 18, 18, 25, 51, 42, 26, 33, 46, 7, 57, 10, 34, 9, 38, 32, 25, 43, 39, 37, 10, 41, 51, 12, 41, 15, 34, 15, 12, 40, 51, 61, 39, 35, 34, 28, 45, 33, 30, 8, 50, 34, 20, 40, 41, 12, 58, 18, 8, 50, 54, 50, 9, 35, 37, 28, 11, 51
            |4, 12, 17, 41, 16, 25, 13, 25, 30, 0, 39, 14, 16, 13, 8, 11, 30, 46, 27, 17, 26, 16, 34, 31, 22, 42, 28, 23, 37, 34, 44, 11, 25, 19, 26, 27, 29, 23, 33, 34, 16, 5, 49, 38, 36, 28, 7, 27, 18, 9, 8, 38, 32, 33, 25, 20, 23, 10, 36, 38, 46, 14, 17, 24, 13, 27, 22, 47, 29, 24, 21, 33, 21, 32, 39, 33, 34, 27, 15, 34, 40, 29, 23, 25, 24, 11, 37, 16, 21, 37, 30, 30, 40, 37, 40, 21, 38, 34, 16, 28, 26
            |43, 42, 26, 31, 25, 14, 47, 13, 60, 39, 0, 39, 34, 41, 42, 28, 55, 37, 13, 44, 42, 51, 53, 8, 37, 38, 32, 17, 3, 5, 38, 43, 40, 33, 16, 52, 45, 37, 34, 39, 41, 36, 40, 41, 52, 45, 39, 13, 21, 36, 31, 22, 57, 9, 50, 26, 51, 29, 39, 49, 39, 25, 23, 50, 42, 13, 48, 42, 48, 26, 45, 55, 20, 8, 3, 28, 34, 28, 32, 20, 42, 34, 51, 15, 26, 43, 30, 22, 48, 2, 47, 54, 19, 9, 19, 53, 38, 30, 32, 51, 14
            |13, 4, 26, 51, 15, 28, 26, 28, 44, 14, 39, 0, 28, 27, 22, 14, 44, 57, 26, 31, 40, 29, 48, 31, 35, 54, 39, 28, 37, 35, 55, 6, 38, 31, 24, 41, 42, 36, 45, 47, 29, 9, 60, 50, 50, 41, 21, 26, 22, 22, 17, 46, 46, 31, 39, 29, 37, 13, 48, 52, 57, 19, 24, 38, 4, 26, 36, 58, 43, 34, 35, 47, 28, 35, 38, 43, 45, 37, 27, 41, 52, 41, 37, 24, 34, 25, 47, 20, 35, 39, 44, 44, 46, 41, 46, 35, 50, 44, 27, 42, 25
            |19, 27, 8, 26, 21, 21, 14, 23, 25, 16, 34, 28, 0, 7, 12, 17, 22, 31, 26, 9, 12, 18, 23, 29, 6, 27, 12, 18, 34, 30, 28, 27, 10, 4, 28, 19, 15, 8, 18, 19, 7, 19, 34, 22, 23, 14, 9, 26, 17, 7, 11, 25, 24, 32, 16, 9, 16, 17, 21, 24, 31, 15, 12, 16, 28, 26, 13, 31, 16, 11, 11, 22, 14, 26, 35, 19, 19, 12, 2, 22, 24, 13, 17, 26, 11, 11, 22, 17, 13, 32, 17, 21, 28, 29, 28, 19, 23, 19, 3, 18, 26
            |16, 25, 15, 33, 24, 27, 7, 28, 20, 13, 41, 27, 7, 0, 6, 19, 18, 37, 31, 4, 14, 11, 21, 35, 10, 32, 18, 24, 40, 37, 34, 24, 12, 10, 33, 15, 16, 12, 23, 23, 2, 18, 39, 26, 23, 14, 6, 31, 22, 6, 13, 32, 20, 37, 12, 16, 11, 19, 25, 25, 36, 19, 18, 11, 26, 31, 9, 36, 15, 18, 8, 20, 21, 33, 42, 25, 24, 19, 9, 29, 28, 19, 12, 30, 18, 4, 28, 21, 9, 39, 17, 17, 35, 36, 35, 12, 27, 25, 9, 15, 31
            |9, 19, 17, 38, 22, 28, 5, 29, 22, 8, 42, 22, 12, 6, 0, 17, 22, 43, 31, 9, 20, 9, 27, 35, 16, 38, 24, 25, 41, 38, 40, 18, 18, 15, 32, 19, 22, 18, 29, 29, 9, 13, 45, 33, 28, 21, 3, 31, 22, 6, 11, 36, 24, 37, 17, 19, 15, 16, 31, 31, 42, 18, 19, 16, 20, 31, 14, 42, 21, 22, 14, 25, 23, 34, 42, 31, 30, 24, 12, 33, 35, 25, 15, 30, 22, 3, 34, 21, 13, 40, 23, 22, 39, 39, 39, 13, 34, 30, 13, 20, 31
            |15, 15, 13, 37, 5, 15, 22, 15, 39, 11, 28, 14, 17, 19, 17, 0, 37, 43, 16, 23, 29, 26, 39, 20, 23, 40, 26, 14, 26, 23, 41, 16, 27, 19, 15, 34, 32, 24, 31, 34, 21, 8, 46, 37, 40, 31, 14, 16, 8, 13, 6, 31, 39, 22, 32, 15, 30, 1, 35, 40, 43, 5, 10, 31, 16, 16, 28, 45, 33, 20, 27, 39, 14, 22, 28, 29, 32, 23, 15, 27, 40, 28, 31, 14, 20, 19, 33, 6, 28, 27, 34, 37, 32, 28, 32, 30, 37, 30, 15, 34, 15
            |31, 41, 30, 37, 42, 43, 18, 44, 7, 30, 55, 44, 22, 18, 22, 37, 0, 38, 47, 14, 14, 17, 8, 50, 18, 33, 25, 39, 55, 52, 34, 40, 15, 22, 50, 3, 12, 19, 27, 23, 16, 35, 39, 25, 11, 12, 23, 47, 39, 24, 31, 40, 2, 54, 5, 30, 7, 37, 25, 18, 36, 36, 34, 6, 42, 47, 9, 34, 8, 29, 11, 5, 35, 47, 57, 32, 28, 28, 24, 39, 26, 24, 7, 47, 29, 19, 33, 38, 9, 53, 11, 1, 44, 49, 44, 11, 28, 31, 24, 4, 48
            |50, 57, 30, 6, 44, 34, 43, 36, 45, 46, 37, 57, 31, 37, 43, 43, 38, 0, 40, 36, 25, 46, 31, 38, 26, 5, 19, 32, 39, 37, 4, 57, 26, 27, 44, 37, 26, 25, 13, 15, 35, 48, 3, 13, 29, 27, 40, 40, 37, 38, 40, 15, 39, 42, 36, 28, 38, 43, 13, 22, 3, 38, 33, 36, 57, 40, 36, 6, 30, 23, 33, 34, 30, 31, 40, 14, 13, 20, 31, 18, 12, 18, 39, 41, 23, 41, 10, 39, 37, 35, 27, 37, 18, 28, 18, 44, 10, 13, 31, 34, 41
            |30, 29, 17, 33, 12, 6, 36, 4, 51, 27, 13, 26, 26, 31, 31, 16, 47, 40, 0, 35, 36, 40, 47, 5, 30, 38, 28, 9, 11, 8, 40, 30, 34, 26, 4, 44, 39, 30, 32, 36, 32, 23, 43, 39, 47, 38, 28, 0, 9, 26, 20, 25, 50, 6, 42, 18, 42, 16, 37, 45, 41, 13, 14, 41, 29, 0, 39, 44, 42, 21, 37, 48, 13, 10, 12, 27, 32, 24, 24, 21, 41, 30, 43, 2, 21, 33, 30, 10, 39, 12, 41, 47, 24, 16, 24, 43, 37, 29, 23, 44, 1
            |19, 29, 18, 33, 28, 30, 8, 32, 16, 17, 44, 31, 9, 4, 9, 23, 14, 36, 35, 0, 11, 10, 17, 38, 10, 31, 18, 27, 43, 40, 33, 28, 10, 11, 37, 10, 13, 11, 23, 21, 3, 22, 38, 25, 19, 11, 10, 35, 26, 10, 17, 33, 16, 41, 8, 18, 7, 23, 24, 22, 35, 22, 21, 7, 30, 35, 5, 34, 12, 20, 4, 16, 24, 36, 45, 26, 24, 20, 11, 31, 27, 18, 8, 34, 20, 7, 28, 25, 4, 42, 14, 13, 36, 38, 36, 9, 26, 25, 12, 11, 35
            |29, 38, 19, 23, 33, 30, 19, 32, 21, 26, 42, 40, 12, 14, 20, 29, 14, 25, 36, 11, 0, 21, 12, 38, 6, 21, 10, 27, 42, 39, 22, 38, 2, 10, 39, 12, 3, 5, 13, 10, 11, 30, 27, 13, 11, 3, 19, 36, 28, 18, 23, 26, 16, 42, 11, 17, 13, 29, 13, 12, 24, 26, 23, 11, 39, 36, 10, 23, 6, 16, 8, 13, 23, 33, 44, 18, 14, 14, 14, 25, 15, 9, 14, 36, 16, 18, 19, 28, 11, 40, 5, 13, 30, 35, 30, 18, 16, 16, 14, 10, 36
            |16, 25, 25, 43, 31, 37, 4, 38, 15, 16, 51, 29, 18, 11, 9, 26, 17, 46, 40, 10, 21, 0, 24, 44, 20, 42, 28, 34, 50, 47, 43, 24, 21, 21, 41, 15, 22, 22, 33, 32, 12, 21, 48, 35, 26, 21, 12, 40, 31, 15, 21, 43, 19, 47, 14, 27, 11, 25, 34, 31, 45, 27, 28, 13, 26, 40, 12, 45, 20, 29, 14, 21, 31, 43, 51, 36, 34, 30, 19, 40, 37, 29, 10, 39, 29, 8, 39, 30, 11, 49, 23, 17, 46, 47, 46, 6, 37, 36, 20, 17, 40
            |36, 46, 30, 31, 44, 42, 24, 44, 15, 34, 53, 48, 23, 21, 27, 39, 8, 31, 47, 17, 12, 24, 0, 50, 17, 26, 21, 38, 54, 50, 27, 45, 13, 22, 50, 9, 9, 17, 22, 17, 19, 39, 32, 18, 3, 9, 27, 47, 39, 27, 33, 36, 8, 53, 10, 29, 13, 39, 19, 10, 29, 37, 34, 11, 47, 47, 13, 27, 6, 27, 13, 3, 35, 45, 55, 28, 23, 25, 25, 35, 19, 20, 14, 48, 27, 24, 28, 40, 14, 51, 6, 7, 40, 46, 40, 18, 22, 26, 25, 7, 48
            |35, 34, 21, 32, 17, 8, 40, 6, 54, 31, 8, 31, 29, 35, 35, 20, 50, 38, 5, 38, 38, 44, 50, 0, 32, 38, 30, 11, 6, 3, 39, 35, 36, 29, 8, 48, 41, 33, 33, 37, 35, 28, 42, 40, 49, 41, 32, 5, 13, 30, 24, 24, 53, 4, 45, 21, 45, 21, 38, 46, 40, 17, 17, 45, 34, 5, 42, 43, 44, 23, 40, 50, 15, 7, 7, 27, 32, 25, 27, 20, 41, 32, 46, 7, 23, 37, 30, 15, 42, 8, 43, 50, 22, 12, 22, 47, 37, 29, 26, 46, 6
            |25, 33, 13, 23, 27, 25, 17, 26, 24, 22, 37, 35, 6, 10, 16, 23, 18, 26, 30, 10, 6, 20, 17, 32, 0, 22, 8, 21, 37, 33, 23, 33, 4, 4, 33, 16, 9, 1, 13, 13, 9, 25, 29, 16, 17, 9, 15, 30, 22, 13, 17, 23, 21, 36, 14, 12, 15, 23, 15, 17, 26, 20, 17, 13, 34, 30, 12, 26, 12, 11, 9, 18, 17, 28, 38, 16, 14, 10, 8, 21, 18, 9, 16, 30, 11, 15, 18, 22, 12, 35, 11, 18, 27, 30, 27, 19, 17, 15, 8, 14, 30
            |46, 53, 27, 7, 42, 33, 39, 35, 40, 42, 38, 54, 27, 32, 38, 40, 33, 5, 38, 31, 21, 42, 26, 38, 22, 0, 15, 30, 39, 37, 1, 53, 21, 23, 43, 32, 21, 21, 9, 10, 30, 45, 7, 8, 24, 22, 36, 38, 35, 34, 36, 16, 34, 42, 31, 25, 34, 40, 8, 17, 4, 35, 30, 31, 54, 38, 31, 5, 25, 20, 28, 29, 28, 31, 40, 11, 8, 17, 28, 18, 8, 14, 35, 40, 20, 37, 8, 36, 32, 36, 22, 32, 19, 29, 19, 39, 5, 10, 27, 29, 40
            |31, 38, 14, 15, 29, 23, 25, 25, 31, 28, 32, 39, 12, 18, 24, 26, 25, 19, 28, 18, 10, 28, 21, 30, 8, 15, 0, 19, 33, 30, 16, 38, 9, 9, 32, 22, 13, 7, 6, 8, 16, 30, 21, 11, 20, 13, 22, 28, 22, 19, 22, 16, 26, 34, 21, 11, 22, 26, 9, 17, 18, 22, 17, 21, 39, 28, 19, 19, 17, 7, 16, 23, 16, 24, 34, 8, 6, 4, 13, 14, 14, 2, 23, 29, 7, 22, 10, 23, 20, 30, 15, 24, 20, 25, 20, 27, 11, 7, 12, 20, 29
            |27, 29, 9, 25, 13, 4, 30, 5, 43, 23, 17, 28, 18, 24, 25, 14, 39, 32, 9, 27, 27, 34, 38, 11, 21, 30, 19, 0, 16, 13, 31, 30, 25, 17, 13, 36, 30, 21, 23, 27, 24, 22, 35, 30, 38, 30, 22, 9, 6, 19, 15, 18, 41, 15, 34, 9, 34, 15, 28, 36, 33, 9, 6, 33, 30, 9, 31, 35, 33, 12, 28, 39, 4, 9, 18, 19, 23, 15, 16, 14, 32, 21, 35, 10, 12, 26, 22, 8, 31, 15, 32, 38, 19, 14, 19, 36, 28, 20, 15, 35, 10
            |41, 40, 26, 33, 23, 13, 46, 12, 60, 37, 3, 37, 34, 40, 41, 26, 55, 39, 11, 43, 42, 50, 54, 6, 37, 39, 33, 16, 0, 4, 40, 41, 41, 33, 13, 52, 45, 37, 35, 40, 41, 34, 42, 42, 53, 45, 38, 11, 19, 35, 30, 24, 57, 7, 50, 25, 50, 27, 40, 50, 41, 23, 22, 50, 40, 11, 47, 44, 48, 27, 45, 55, 20, 9, 1, 29, 35, 29, 32, 21, 44, 35, 51, 13, 27, 43, 32, 21, 48, 4, 47, 54, 21, 11, 21, 52, 39, 31, 31, 51, 12
            |38, 37, 22, 31, 20, 9, 42, 9, 56, 34, 5, 35, 30, 37, 38, 23, 52, 37, 8, 40, 39, 47, 50, 3, 33, 37, 30, 13, 4, 0, 38, 38, 37, 30, 11, 49, 42, 34, 32, 37, 37, 31, 40, 39, 50, 42, 34, 8, 16, 32, 27, 22, 54, 6, 47, 22, 47, 24, 37, 47, 39, 20, 19, 46, 37, 8, 44, 42, 45, 23, 41, 51, 16, 6, 5, 26, 32, 25, 28, 19, 41, 32, 48, 10, 23, 39, 29, 17, 44, 4, 44, 51, 20, 10, 20, 49, 37, 29, 28, 48, 9
            |48, 55, 29, 7, 43, 34, 40, 36, 41, 44, 38, 55, 28, 34, 40, 41, 34, 4, 40, 33, 22, 43, 27, 39, 23, 1, 16, 31, 40, 38, 0, 54, 22, 25, 44, 33, 22, 22, 11, 11, 32, 46, 5, 9, 25, 23, 38, 40, 36, 35, 38, 16, 35, 43, 32, 26, 35, 42, 9, 18, 2, 37, 32, 33, 55, 40, 32, 4, 26, 21, 29, 30, 29, 32, 41, 13, 10, 18, 29, 19, 8, 15, 36, 41, 21, 38, 9, 38, 33, 36, 23, 33, 20, 29, 20, 40, 6, 11, 28, 30, 41
            |9, 1, 26, 51, 18, 31, 22, 30, 39, 11, 43, 6, 27, 24, 18, 16, 40, 57, 30, 28, 38, 24, 45, 35, 33, 53, 38, 30, 41, 38, 54, 0, 36, 30, 28, 37, 40, 34, 44, 45, 27, 9, 59, 49, 47, 39, 18, 30, 24, 20, 17, 47, 42, 35, 35, 29, 33, 15, 47, 49, 57, 21, 25, 34, 2, 30, 33, 57, 40, 34, 32, 44, 29, 38, 42, 43, 45, 37, 26, 43, 51, 40, 33, 28, 34, 21, 47, 22, 31, 42, 41, 40, 48, 43, 48, 30, 49, 44, 26, 39, 29
            |27, 36, 17, 23, 31, 29, 18, 30, 21, 25, 40, 38, 10, 12, 18, 27, 15, 26, 34, 10, 2, 21, 13, 36, 4, 21, 9, 25, 41, 37, 22, 36, 0, 8, 37, 13, 5, 4, 13, 11, 10, 28, 28, 14, 13, 4, 17, 34, 26, 16, 21, 25, 17, 40, 11, 16, 13, 27, 13, 14, 25, 24, 21, 11, 37, 34, 10, 24, 8, 14, 7, 14, 21, 32, 42, 17, 14, 13, 12, 24, 16, 9, 14, 34, 14, 16, 19, 26, 11, 38, 7, 14, 29, 33, 29, 18, 16, 16, 12, 11, 35
            |23, 30, 9, 23, 23, 21, 17, 22, 27, 19, 33, 31, 4, 10, 15, 19, 22, 27, 26, 11, 10, 21, 22, 29, 4, 23, 9, 17, 33, 30, 25, 30, 8, 0, 29, 19, 13, 5, 14, 15, 9, 22, 30, 19, 22, 13, 13, 26, 18, 11, 14, 22, 24, 32, 17, 8, 17, 19, 17, 21, 27, 16, 13, 16, 31, 26, 14, 28, 16, 8, 11, 22, 14, 25, 35, 16, 15, 9, 4, 19, 21, 10, 18, 26, 8, 14, 18, 18, 15, 31, 16, 21, 25, 27, 25, 21, 19, 15, 4, 18, 26
            |30, 27, 20, 38, 11, 10, 37, 8, 53, 26, 16, 24, 28, 33, 32, 15, 50, 44, 4, 37, 39, 41, 50, 8, 33, 43, 32, 13, 13, 11, 44, 28, 37, 29, 0, 47, 42, 34, 36, 40, 34, 22, 47, 43, 50, 41, 29, 4, 11, 27, 21, 30, 52, 7, 44, 22, 44, 16, 41, 49, 45, 14, 16, 44, 27, 4, 41, 48, 44, 25, 39, 51, 16, 14, 14, 31, 36, 28, 26, 26, 45, 34, 44, 3, 25, 34, 35, 11, 41, 16, 44, 49, 28, 20, 28, 45, 41, 33, 25, 46, 3
            |28, 38, 27, 35, 39, 40, 15, 41, 8, 27, 52, 41, 19, 15, 19, 34, 3, 37, 44, 10, 12, 15, 9, 48, 16, 32, 22, 36, 52, 49, 33, 37, 13, 19, 47, 0, 11, 16, 25, 22, 13, 32, 38, 24, 12, 10, 20, 44, 36, 21, 28, 38, 5, 51, 2, 27, 4, 34, 24, 18, 35, 33, 31, 3, 39, 44, 5, 34, 7, 27, 8, 7, 33, 44, 54, 30, 26, 26, 21, 37, 25, 22, 4, 44, 27, 16, 32, 35, 6, 50, 10, 3, 42, 46, 42, 9, 27, 29, 21, 3, 45
            |31, 40, 22, 24, 36, 34, 21, 35, 19, 29, 45, 42, 15, 16, 22, 32, 12, 26, 39, 13, 3, 22, 9, 41, 9, 21, 13, 30, 45, 42, 22, 40, 5, 13, 42, 11, 0, 9, 15, 11, 13, 33, 27, 13, 8, 1, 22, 39, 31, 21, 26, 28, 14, 45, 10, 21, 13, 32, 13, 9, 24, 29, 26, 10, 41, 39, 10, 23, 4, 19, 8, 10, 26, 36, 47, 20, 16, 17, 17, 27, 15, 12, 14, 39, 19, 19, 21, 32, 12, 43, 2, 11, 32, 37, 32, 18, 16, 18, 17, 8, 40
            |26, 34, 13, 21, 28, 25, 18, 27, 24, 23, 37, 36, 8, 12, 18, 24, 19, 25, 30, 11, 5, 22, 17, 33, 1, 21, 7, 21, 37, 34, 22, 34, 4, 5, 34, 16, 9, 0, 12, 11, 10, 26, 27, 15, 17, 8, 16, 30, 23, 14, 19, 23, 21, 36, 14, 12, 16, 24, 13, 16, 24, 21, 17, 14, 35, 30, 12, 24, 11, 11, 9, 18, 18, 28, 38, 15, 13, 10, 9, 21, 17, 7, 16, 31, 11, 16, 17, 23, 13, 35, 11, 18, 26, 30, 26, 20, 16, 14, 9, 14, 31
            |37, 44, 19, 10, 34, 26, 30, 28, 34, 33, 34, 45, 18, 23, 29, 31, 27, 13, 32, 23, 13, 33, 22, 33, 13, 9, 6, 23, 35, 32, 11, 44, 13, 14, 36, 25, 15, 12, 0, 5, 22, 36, 16, 7, 20, 15, 27, 32, 27, 25, 27, 14, 28, 36, 24, 16, 26, 32, 5, 15, 13, 27, 22, 24, 45, 32, 23, 14, 19, 11, 20, 24, 20, 26, 36, 6, 1, 8, 18, 14, 9, 4, 27, 33, 11, 28, 6, 28, 24, 32, 16, 26, 18, 26, 18, 31, 5, 4, 18, 23, 33
            |38, 45, 22, 14, 37, 30, 29, 32, 30, 34, 39, 47, 19, 23, 29, 34, 23, 15, 36, 21, 10, 32, 17, 37, 13, 10, 8, 27, 40, 37, 11, 45, 11, 15, 40, 22, 11, 11, 5, 0, 21, 37, 17, 4, 15, 12, 28, 36, 30, 26, 29, 19, 25, 41, 21, 19, 23, 34, 2, 10, 14, 30, 25, 21, 46, 36, 21, 13, 15, 15, 18, 20, 24, 31, 41, 11, 6, 12, 20, 19, 6, 6, 24, 37, 15, 27, 11, 31, 22, 37, 12, 22, 23, 31, 23, 29, 5, 9, 19, 19, 37
            |18, 27, 15, 31, 26, 28, 9, 29, 19, 16, 41, 29, 7, 2, 9, 21, 16, 35, 32, 3, 11, 12, 19, 35, 9, 30, 16, 24, 41, 37, 32, 27, 10, 9, 34, 13, 13, 10, 22, 21, 0, 20, 37, 24, 20, 12, 8, 32, 23, 8, 15, 31, 18, 38, 11, 16, 10, 21, 23, 23, 34, 20, 18, 10, 28, 32, 8, 34, 13, 17, 6, 18, 21, 33, 42, 24, 22, 18, 9, 28, 26, 17, 11, 31, 17, 6, 27, 22, 7, 39, 15, 16, 34, 36, 34, 12, 26, 24, 9, 13, 32
            |7, 8, 18, 43, 12, 23, 18, 23, 36, 5, 36, 9, 19, 18, 13, 8, 35, 48, 23, 22, 30, 21, 39, 28, 25, 45, 30, 22, 34, 31, 46, 9, 28, 22, 22, 32, 33, 26, 36, 37, 20, 0, 51, 41, 40, 32, 12, 23, 16, 12, 8, 38, 37, 29, 30, 21, 28, 7, 39, 42, 48, 12, 17, 29, 9, 23, 27, 49, 33, 25, 26, 38, 21, 30, 36, 35, 36, 28, 17, 34, 43, 32, 28, 22, 25, 16, 38, 14, 26, 35, 35, 35, 39, 36, 39, 27, 41, 35, 18, 33, 23
            |53, 59, 33, 9, 48, 37, 46, 39, 46, 49, 40, 60, 34, 39, 45, 46, 39, 3, 43, 38, 27, 48, 32, 42, 29, 7, 21, 35, 42, 40, 5, 59, 28, 30, 47, 38, 27, 27, 16, 17, 37, 51, 0, 14, 29, 29, 43, 43, 40, 41, 42, 18, 40, 46, 38, 31, 40, 46, 15, 22, 3, 41, 36, 38, 60, 43, 37, 5, 31, 26, 35, 35, 33, 34, 43, 17, 15, 23, 34, 22, 13, 20, 41, 44, 26, 43, 13, 42, 39, 38, 28, 38, 21, 31, 21, 46, 12, 16, 33, 35, 44
            |41, 49, 25, 13, 40, 33, 32, 35, 32, 38, 41, 50, 22, 26, 33, 37, 25, 13, 39, 25, 13, 35, 18, 40, 16, 8, 11, 30, 42, 39, 9, 49, 14, 19, 43, 24, 13, 15, 7, 4, 24, 41, 14, 0, 16, 15, 31, 39, 33, 29, 33, 20, 26, 44, 24, 23, 26, 38, 2, 9, 11, 33, 29, 24, 50, 39, 23, 10, 17, 18, 21, 21, 27, 33, 43, 13, 7, 15, 23, 21, 2, 9, 27, 40, 18, 31, 11, 35, 25, 39, 14, 24, 24, 32, 24, 32, 4, 11, 23, 21, 40
            |38, 48, 30, 29, 44, 42, 26, 43, 18, 36, 52, 50, 23, 23, 28, 40, 11, 29, 47, 19, 11, 26, 3, 49, 17, 24, 20, 38, 53, 50, 25, 47, 13, 22, 50, 12, 8, 17, 20, 15, 20, 40, 29, 16, 0, 9, 29, 47, 39, 28, 34, 34, 11, 53, 13, 29, 16, 40, 17, 7, 26, 37, 34, 14, 49, 47, 15, 24, 7, 26, 15, 6, 35, 44, 54, 26, 21, 24, 25, 34, 16, 18, 16, 47, 26, 26, 26, 40, 16, 50, 6, 10, 38, 45, 38, 21, 19, 24, 25, 9, 48
            |30, 39, 21, 25, 35, 33, 19, 35, 18, 28, 45, 41, 14, 14, 21, 31, 12, 27, 38, 11, 3, 21, 9, 41, 9, 22, 13, 30, 45, 42, 23, 39, 4, 13, 41, 10, 1, 8, 15, 12, 12, 32, 29, 15, 9, 0, 20, 38, 30, 19, 25, 29, 13, 44, 9, 20, 11, 31, 14, 11, 25, 28, 25, 9, 40, 38, 9, 24, 4, 18, 7, 10, 26, 36, 46, 21, 16, 17, 16, 27, 16, 12, 12, 39, 18, 18, 22, 31, 10, 43, 3, 11, 33, 38, 33, 17, 17, 19, 16, 7, 39
            |10, 19, 14, 36, 19, 25, 8, 26, 25, 7, 39, 21, 9, 6, 3, 14, 23, 40, 28, 10, 19, 12, 27, 32, 15, 36, 22, 22, 38, 34, 38, 18, 17, 13, 29, 20, 22, 16, 27, 28, 8, 12, 43, 31, 29, 20, 0, 28, 19, 3, 8, 34, 25, 34, 18, 16, 16, 14, 30, 31, 40, 15, 16, 17, 20, 28, 15, 40, 21, 20, 14, 26, 19, 31, 39, 28, 28, 22, 9, 30, 33, 23, 17, 27, 20, 5, 31, 18, 14, 37, 23, 23, 36, 36, 36, 16, 32, 28, 10, 21, 28
            |30, 29, 17, 33, 12, 6, 36, 4, 51, 27, 13, 26, 26, 31, 31, 16, 47, 40, 0, 35, 36, 40, 47, 5, 30, 38, 28, 9, 11, 8, 40, 30, 34, 26, 4, 44, 39, 30, 32, 36, 32, 23, 43, 39, 47, 38, 28, 0, 9, 26, 20, 25, 50, 6, 42, 18, 42, 16, 37, 45, 41, 13, 14, 41, 29, 0, 39, 44, 42, 21, 37, 48, 13, 10, 12, 27, 32, 24, 24, 21, 41, 30, 43, 2, 21, 33, 30, 10, 39, 12, 41, 47, 24, 16, 24, 43, 37, 29, 23, 44, 1
            |22, 23, 9, 31, 8, 7, 27, 7, 42, 18, 21, 22, 17, 22, 22, 8, 39, 37, 9, 26, 28, 31, 39, 13, 22, 35, 22, 6, 19, 16, 36, 24, 26, 18, 11, 36, 31, 23, 27, 30, 23, 16, 40, 33, 39, 30, 19, 9, 0, 16, 11, 24, 41, 16, 33, 11, 33, 9, 31, 38, 38, 4, 5, 32, 24, 9, 30, 40, 33, 15, 28, 39, 7, 14, 21, 23, 27, 18, 15, 20, 36, 24, 33, 9, 15, 24, 27, 2, 30, 19, 33, 38, 24, 19, 24, 34, 32, 25, 14, 35, 9
            |12, 20, 11, 33, 18, 22, 10, 23, 26, 9, 36, 22, 7, 6, 6, 13, 24, 38, 26, 10, 18, 15, 27, 30, 13, 34, 19, 19, 35, 32, 35, 20, 16, 11, 27, 21, 21, 14, 25, 26, 8, 12, 41, 29, 28, 19, 3, 26, 16, 0, 7, 31, 26, 32, 19, 13, 17, 13, 28, 30, 38, 13, 13, 18, 21, 26, 16, 38, 21, 17, 14, 26, 16, 28, 37, 25, 26, 19, 7, 27, 31, 21, 18, 25, 17, 7, 29, 16, 15, 35, 22, 24, 33, 33, 33, 18, 30, 26, 8, 21, 25
            |12, 17, 9, 34, 11, 17, 16, 18, 33, 8, 31, 17, 11, 13, 11, 6, 31, 40, 20, 17, 23, 21, 33, 24, 17, 36, 22, 15, 30, 27, 38, 17, 21, 14, 21, 28, 26, 19, 27, 29, 15, 8, 42, 33, 34, 25, 8, 20, 11, 7, 0, 30, 33, 26, 25, 12, 24, 6, 31, 35, 40, 7, 9, 24, 18, 20, 22, 41, 27, 17, 20, 33, 13, 24, 31, 26, 28, 20, 9, 26, 35, 23, 25, 19, 17, 13, 30, 9, 22, 30, 28, 30, 32, 29, 32, 24, 32, 27, 10, 28, 19
            |42, 46, 21, 9, 32, 20, 39, 21, 46, 38, 22, 46, 25, 32, 36, 31, 40, 15, 25, 33, 26, 43, 36, 24, 23, 16, 16, 18, 24, 22, 16, 47, 25, 22, 30, 38, 28, 23, 14, 19, 31, 38, 18, 20, 34, 29, 34, 25, 24, 31, 30, 0, 42, 27, 37, 18, 38, 32, 18, 29, 17, 26, 22, 36, 47, 25, 35, 20, 32, 14, 32, 38, 18, 16, 25, 8, 13, 13, 24, 4, 21, 17, 39, 27, 14, 36, 9, 26, 36, 20, 30, 39, 4, 13, 4, 42, 17, 10, 23, 36, 26
            |33, 43, 32, 38, 44, 45, 20, 46, 7, 32, 57, 46, 24, 20, 24, 39, 2, 39, 50, 16, 16, 19, 8, 53, 21, 34, 26, 41, 57, 54, 35, 42, 17, 24, 52, 5, 14, 21, 28, 25, 18, 37, 40, 26, 11, 13, 25, 50, 41, 26, 33, 42, 0, 56, 8, 32, 9, 39, 26, 18, 37, 38, 36, 9, 44, 50, 11, 35, 10, 31, 13, 5, 38, 49, 59, 34, 29, 30, 26, 41, 27, 25, 9, 49, 31, 21, 35, 41, 11, 55, 12, 3, 46, 51, 46, 13, 29, 32, 27, 6, 50
            |36, 34, 24, 36, 17, 11, 42, 9, 57, 33, 9, 31, 32, 37, 37, 22, 54, 42, 6, 41, 42, 47, 53, 4, 36, 42, 34, 15, 7, 6, 43, 35, 40, 32, 7, 51, 45, 36, 36, 41, 38, 29, 46, 44, 53, 44, 34, 6, 16, 32, 26, 27, 56, 0, 48, 24, 48, 22, 42, 50, 44, 19, 20, 48, 34, 6, 45, 47, 48, 27, 43, 54, 18, 11, 7, 31, 36, 29, 30, 24, 45, 35, 49, 8, 27, 39, 34, 17, 45, 10, 47, 53, 25, 16, 25, 50, 41, 33, 29, 50, 7
            |26, 36, 25, 34, 36, 38, 14, 39, 10, 25, 50, 39, 16, 12, 17, 32, 5, 36, 42, 8, 11, 14, 10, 45, 14, 31, 21, 34, 50, 47, 32, 35, 11, 17, 44, 2, 10, 14, 24, 21, 11, 30, 38, 24, 13, 9, 18, 42, 33, 19, 25, 37, 8, 48, 0, 25, 3, 31, 23, 18, 35, 30, 29, 1, 37, 42, 3, 33, 7, 25, 6, 8, 30, 42, 52, 29, 25, 24, 19, 35, 25, 20, 4, 42, 25, 14, 30, 33, 4, 48, 10, 5, 40, 44, 40, 9, 26, 27, 19, 4, 42
            |24, 29, 3, 22, 18, 13, 22, 15, 34, 20, 26, 29, 9, 16, 19, 15, 30, 28, 18, 18, 17, 27, 29, 21, 12, 25, 11, 9, 25, 22, 26, 29, 16, 8, 22, 27, 21, 12, 16, 19, 16, 21, 31, 23, 29, 20, 16, 18, 11, 13, 12, 18, 32, 24, 25, 0, 25, 16, 21, 27, 28, 11, 6, 24, 30, 18, 22, 30, 23, 5, 19, 30, 6, 17, 27, 14, 17, 8, 7, 14, 25, 13, 26, 19, 5, 19, 18, 12, 22, 24, 23, 29, 20, 20, 20, 28, 22, 15, 6, 26, 19
            |24, 34, 25, 36, 35, 37, 11, 39, 9, 23, 51, 37, 16, 11, 15, 30, 7, 38, 42, 7, 13, 11, 13, 45, 15, 34, 22, 34, 50, 47, 35, 33, 13, 17, 44, 4, 13, 16, 26, 23, 10, 28, 40, 26, 16, 11, 16, 42, 33, 17, 24, 38, 9, 48, 3, 25, 0, 30, 25, 21, 37, 30, 28, 2, 35, 42, 3, 36, 9, 25, 6, 11, 30, 42, 52, 30, 27, 25, 18, 36, 28, 22, 1, 41, 25, 12, 32, 32, 3, 49, 13, 7, 42, 45, 42, 6, 28, 29, 19, 6, 42
            |14, 14, 13, 38, 6, 16, 21, 16, 38, 10, 29, 13, 17, 19, 16, 1, 37, 43, 16, 23, 29, 25, 39, 21, 23, 40, 26, 15, 27, 24, 42, 15, 27, 19, 16, 34, 32, 24, 32, 34, 21, 7, 46, 38, 40, 31, 14, 16, 9, 13, 6, 32, 39, 22, 31, 16, 30, 0, 36, 40, 44, 6, 11, 30, 15, 16, 28, 45, 33, 21, 26, 39, 14, 23, 29, 30, 32, 24, 15, 28, 40, 28, 30, 15, 21, 19, 33, 7, 28, 28, 34, 36, 33, 29, 33, 30, 37, 31, 15, 34, 16
            |40, 47, 23, 12, 38, 31, 31, 33, 32, 36, 39, 48, 21, 25, 31, 35, 25, 13, 37, 24, 13, 34, 19, 38, 15, 8, 9, 28, 40, 37, 9, 47, 13, 17, 41, 24, 13, 13, 5, 2, 23, 39, 15, 2, 17, 14, 30, 37, 31, 28, 31, 18, 26, 42, 23, 21, 25, 36, 0, 11, 11, 31, 27, 23, 48, 37, 23, 11, 17, 16, 20, 22, 25, 31, 41, 11, 5, 13, 22, 19, 4, 8, 26, 38, 16, 29, 10, 33, 24, 37, 14, 24, 23, 30, 23, 31, 3, 9, 21, 21, 38
            |41, 50, 29, 22, 44, 39, 30, 41, 25, 38, 49, 52, 24, 25, 31, 40, 18, 22, 45, 22, 12, 31, 10, 46, 17, 17, 17, 36, 50, 47, 18, 49, 14, 21, 49, 18, 9, 16, 15, 10, 23, 42, 22, 9, 7, 11, 31, 45, 38, 30, 35, 29, 18, 50, 18, 27, 21, 40, 11, 0, 19, 37, 33, 19, 51, 45, 19, 17, 11, 24, 18, 13, 33, 41, 51, 21, 16, 21, 25, 29, 9, 15, 22, 46, 24, 29, 21, 39, 21, 47, 8, 17, 33, 40, 33, 27, 13, 19, 25, 15, 46
            |50, 57, 31, 8, 45, 35, 42, 37, 43, 46, 39, 57, 31, 36, 42, 43, 36, 3, 41, 35, 24, 45, 29, 40, 26, 4, 18, 33, 41, 39, 2, 57, 25, 27, 45, 35, 24, 24, 13, 14, 34, 48, 3, 11, 26, 25, 40, 41, 38, 38, 40, 17, 37, 44, 35, 28, 37, 44, 11, 19, 0, 39, 34, 35, 57, 41, 34, 4, 28, 23, 32, 32, 31, 33, 42, 14, 12, 20, 31, 20, 10, 17, 38, 42, 23, 40, 11, 39, 35, 37, 25, 35, 20, 30, 20, 42, 9, 13, 30, 32, 42
            |18, 20, 8, 32, 7, 11, 23, 11, 39, 14, 25, 19, 15, 19, 18, 5, 36, 38, 13, 22, 26, 27, 37, 17, 20, 35, 22, 9, 23, 20, 37, 21, 24, 16, 14, 33, 29, 21, 27, 30, 20, 12, 41, 33, 37, 28, 15, 13, 4, 13, 7, 26, 38, 19, 30, 11, 30, 6, 31, 37, 39, 0, 5, 30, 21, 13, 27, 40, 31, 16, 25, 37, 9, 18, 25, 24, 27, 19, 12, 22, 35, 24, 30, 12, 16, 20, 28, 3, 27, 23, 31, 35, 27, 23, 27, 30, 32, 26, 12, 32, 13
            |21, 25, 4, 27, 12, 9, 23, 11, 37, 17, 23, 24, 12, 18, 19, 10, 34, 33, 14, 21, 23, 28, 34, 17, 17, 30, 17, 6, 22, 19, 32, 25, 21, 13, 16, 31, 26, 17, 22, 25, 18, 17, 36, 29, 34, 25, 16, 14, 5, 13, 9, 22, 36, 20, 29, 6, 28, 11, 27, 33, 34, 5, 0, 28, 25, 14, 26, 35, 28, 11, 23, 34, 4, 16, 24, 19, 22, 14, 10, 17, 31, 19, 29, 13, 11, 20, 23, 6, 25, 22, 28, 33, 23, 20, 23, 30, 28, 21, 9, 30, 14
            |25, 35, 24, 34, 35, 37, 13, 38, 10, 24, 50, 38, 16, 11, 16, 31, 6, 36, 41, 7, 11, 13, 11, 45, 13, 31, 21, 33, 50, 46, 33, 34, 11, 16, 44, 3, 10, 14, 24, 21, 10, 29, 38, 24, 14, 9, 17, 41, 32, 18, 24, 36, 9, 48, 1, 24, 2, 30, 23, 19, 35, 30, 28, 0, 36, 41, 2, 34, 7, 24, 5, 9, 30, 41, 51, 29, 25, 24, 18, 35, 25, 20, 3, 41, 24, 13, 30, 32, 3, 48, 10, 6, 40, 44, 40, 8, 26, 27, 18, 4, 42
            |11, 1, 27, 52, 17, 30, 24, 30, 41, 13, 42, 4, 28, 26, 20, 16, 42, 57, 29, 30, 39, 26, 47, 34, 34, 54, 39, 30, 40, 37, 55, 2, 37, 31, 27, 39, 41, 35, 45, 46, 28, 9, 60, 50, 49, 40, 20, 29, 24, 21, 18, 47, 44, 34, 37, 30, 35, 15, 48, 51, 57, 21, 25, 36, 0, 29, 34, 58, 41, 35, 34, 45, 29, 37, 41, 44, 45, 37, 27, 43, 52, 41, 35, 27, 35, 23, 47, 22, 33, 41, 43, 42, 48, 43, 48, 32, 50, 45, 27, 40, 28
            |30, 29, 17, 33, 12, 6, 36, 4, 51, 27, 13, 26, 26, 31, 31, 16, 47, 40, 0, 35, 36, 40, 47, 5, 30, 38, 28, 9, 11, 8, 40, 30, 34, 26, 4, 44, 39, 30, 32, 36, 32, 23, 43, 39, 47, 38, 28, 0, 9, 26, 20, 25, 50, 6, 42, 18, 42, 16, 37, 45, 41, 13, 14, 41, 29, 0, 39, 44, 42, 21, 37, 48, 13, 10, 12, 27, 32, 24, 24, 21, 41, 30, 43, 2, 21, 33, 30, 10, 39, 12, 41, 47, 24, 16, 24, 43, 37, 29, 23, 44, 1
            |24, 33, 22, 33, 33, 35, 11, 36, 12, 22, 48, 36, 13, 9, 14, 28, 9, 36, 39, 5, 10, 12, 13, 42, 12, 31, 19, 31, 47, 44, 32, 33, 10, 14, 41, 5, 10, 12, 23, 21, 8, 27, 37, 23, 15, 9, 15, 39, 30, 16, 22, 35, 11, 45, 3, 22, 3, 28, 23, 19, 34, 27, 26, 2, 34, 39, 0, 33, 8, 22, 3, 11, 28, 39, 49, 27, 24, 22, 16, 33, 25, 19, 4, 39, 22, 11, 29, 30, 1, 46, 11, 8, 39, 42, 39, 8, 26, 26, 16, 6, 39
            |50, 58, 32, 11, 47, 38, 42, 40, 41, 47, 42, 58, 31, 36, 42, 45, 34, 6, 44, 34, 23, 45, 27, 43, 26, 5, 19, 35, 44, 42, 4, 57, 24, 28, 48, 34, 23, 24, 14, 13, 34, 49, 5, 10, 24, 24, 40, 44, 40, 38, 41, 20, 35, 47, 33, 30, 36, 45, 11, 17, 4, 40, 35, 34, 58, 44, 33, 0, 27, 25, 31, 30, 33, 36, 45, 16, 13, 21, 32, 23, 8, 18, 37, 45, 25, 40, 13, 41, 35, 40, 24, 33, 24, 33, 24, 41, 8, 15, 31, 31, 45
            |31, 40, 24, 28, 38, 36, 19, 38, 15, 29, 48, 43, 16, 15, 21, 33, 8, 30, 42, 12, 6, 20, 6, 44, 12, 25, 17, 33, 48, 45, 26, 40, 8, 16, 44, 7, 4, 11, 19, 15, 13, 33, 31, 17, 7, 4, 21, 42, 33, 21, 27, 32, 10, 48, 7, 23, 9, 33, 17, 11, 28, 31, 28, 7, 41, 42, 8, 27, 0, 22, 7, 6, 29, 40, 50, 24, 20, 21, 19, 31, 18, 16, 10, 42, 22, 18, 25, 34, 9, 46, 3, 7, 36, 41, 36, 15, 20, 22, 19, 4, 42
            |28, 34, 8, 17, 22, 16, 25, 17, 34, 24, 26, 34, 11, 18, 22, 20, 29, 23, 21, 20, 16, 29, 27, 23, 11, 20, 7, 12, 27, 23, 21, 34, 14, 8, 25, 27, 19, 11, 11, 15, 17, 25, 26, 18, 26, 18, 20, 21, 15, 17, 17, 14, 31, 27, 25, 5, 25, 21, 16, 24, 23, 16, 11, 24, 35, 21, 22, 25, 22, 0, 19, 28, 9, 18, 28, 9, 12, 3, 10, 11, 20, 9, 26, 22, 0, 22, 13, 17, 23, 24, 21, 28, 17, 19, 17, 29, 17, 10, 9, 25, 22
            |23, 33, 19, 30, 31, 32, 12, 33, 15, 21, 45, 35, 11, 8, 14, 27, 11, 33, 37, 4, 8, 14, 13, 40, 9, 28, 16, 28, 45, 41, 29, 32, 7, 11, 39, 8, 8, 9, 20, 18, 6, 26, 35, 21, 15, 7, 14, 37, 28, 14, 20, 32, 13, 43, 6, 19, 6, 26, 20, 18, 32, 25, 23, 5, 34, 37, 3, 31, 7, 19, 0, 12, 25, 36, 46, 24, 21, 19, 13, 30, 23, 16, 7, 36, 19, 11, 26, 28, 4, 43, 9, 10, 35, 39, 35, 11, 23, 23, 14, 7, 37
            |35, 44, 30, 34, 43, 43, 22, 44, 12, 33, 55, 47, 22, 20, 25, 39, 5, 34, 48, 16, 13, 21, 3, 50, 18, 29, 23, 39, 55, 51, 30, 44, 14, 22, 51, 7, 10, 18, 24, 20, 18, 38, 35, 21, 6, 10, 26, 48, 39, 26, 33, 38, 5, 54, 8, 30, 11, 39, 22, 13, 32, 37, 34, 9, 45, 48, 11, 30, 6, 28, 12, 0, 36, 46, 56, 30, 25, 27, 25, 37, 22, 22, 11, 48, 28, 22, 30, 40, 12, 52, 8, 4, 42, 47, 42, 16, 25, 28, 25, 5, 48
            |25, 29, 6, 24, 14, 7, 27, 9, 40, 21, 20, 28, 14, 21, 23, 14, 35, 30, 13, 24, 23, 31, 35, 15, 17, 28, 16, 4, 20, 16, 29, 29, 21, 14, 16, 33, 26, 18, 20, 24, 21, 21, 33, 27, 35, 26, 19, 13, 7, 16, 13, 18, 38, 18, 30, 6, 30, 14, 25, 33, 31, 9, 4, 30, 29, 13, 28, 33, 29, 9, 25, 36, 0, 12, 21, 17, 20, 12, 12, 14, 29, 18, 31, 13, 9, 23, 20, 9, 28, 18, 29, 35, 19, 16, 19, 33, 25, 18, 11, 31, 13
            |36, 37, 18, 25, 20, 7, 39, 8, 51, 32, 8, 35, 26, 33, 34, 22, 47, 31, 10, 36, 33, 43, 45, 7, 28, 31, 24, 9, 9, 6, 32, 38, 32, 25, 14, 44, 36, 28, 26, 31, 33, 30, 34, 33, 44, 36, 31, 10, 14, 28, 24, 16, 49, 11, 42, 17, 42, 23, 31, 41, 33, 18, 16, 41, 37, 10, 39, 36, 40, 18, 36, 46, 12, 0, 10, 20, 26, 20, 24, 13, 35, 26, 43, 12, 18, 35, 23, 16, 39, 6, 39, 46, 14, 6, 14, 45, 31, 23, 23, 42, 11
            |42, 41, 27, 34, 24, 14, 47, 13, 61, 39, 3, 38, 35, 42, 42, 28, 57, 40, 12, 45, 44, 51, 55, 7, 38, 40, 34, 18, 1, 5, 41, 42, 42, 35, 14, 54, 47, 38, 36, 41, 42, 36, 43, 43, 54, 46, 39, 12, 21, 37, 31, 25, 59, 7, 52, 27, 52, 29, 41, 51, 42, 25, 24, 51, 41, 12, 49, 45, 50, 28, 46, 56, 21, 10, 0, 30, 36, 30, 33, 23, 45, 36, 52, 14, 28, 44, 33, 22, 49, 5, 49, 56, 22, 12, 22, 54, 41, 33, 33, 52, 13
            |37, 43, 17, 8, 31, 21, 33, 23, 39, 33, 28, 43, 19, 25, 31, 29, 32, 14, 27, 26, 18, 36, 28, 27, 16, 11, 8, 19, 29, 26, 13, 43, 17, 16, 31, 30, 20, 15, 6, 11, 24, 35, 17, 13, 26, 21, 28, 27, 23, 25, 26, 8, 34, 31, 29, 14, 30, 30, 11, 21, 14, 24, 19, 29, 44, 27, 27, 16, 24, 9, 24, 30, 17, 20, 30, 0, 6, 7, 19, 8, 15, 9, 31, 28, 9, 30, 4, 25, 28, 26, 22, 31, 12, 19, 12, 35, 10, 2, 18, 28, 28
            |38, 45, 19, 9, 34, 26, 31, 28, 35, 34, 34, 45, 19, 24, 30, 32, 28, 13, 32, 24, 14, 34, 23, 32, 14, 8, 6, 23, 35, 32, 10, 45, 14, 15, 36, 26, 16, 13, 1, 6, 22, 36, 15, 7, 21, 16, 28, 32, 27, 26, 28, 13, 29, 36, 25, 17, 27, 32, 5, 16, 12, 27, 22, 25, 45, 32, 24, 13, 20, 12, 21, 25, 20, 26, 36, 6, 0, 9, 19, 14, 9, 5, 28, 33, 12, 29, 5, 28, 25, 31, 17, 27, 18, 25, 18, 32, 5, 4, 18, 24, 33
            |31, 37, 11, 14, 26, 18, 26, 20, 34, 27, 28, 37, 12, 19, 24, 23, 28, 20, 24, 20, 14, 30, 25, 25, 10, 17, 4, 15, 29, 25, 18, 37, 13, 9, 28, 26, 17, 10, 8, 12, 18, 28, 23, 15, 24, 17, 22, 24, 18, 19, 20, 13, 30, 29, 24, 8, 25, 24, 13, 21, 20, 19, 14, 24, 37, 24, 22, 21, 21, 3, 19, 27, 12, 20, 30, 7, 9, 0, 12, 11, 17, 6, 26, 25, 3, 23, 10, 20, 23, 26, 19, 27, 16, 21, 16, 29, 14, 7, 11, 24, 25
            |19, 26, 6, 26, 19, 19, 15, 21, 28, 15, 32, 27, 2, 9, 12, 15, 24, 31, 24, 11, 14, 19, 25, 27, 8, 28, 13, 16, 32, 28, 29, 26, 12, 4, 26, 21, 17, 9, 18, 20, 9, 17, 34, 23, 25, 16, 9, 24, 15, 7, 9, 24, 26, 30, 19, 7, 18, 15, 22, 25, 31, 12, 10, 18, 27, 24, 16, 32, 19, 10, 13, 25, 12, 24, 33, 19, 19, 12, 0, 21, 26, 14, 19, 23, 10, 12, 22, 15, 16, 31, 19, 23, 27, 28, 27, 21, 23, 19, 1, 20, 24
            |38, 42, 17, 12, 28, 16, 36, 17, 45, 34, 20, 41, 22, 29, 33, 27, 39, 18, 21, 31, 25, 40, 35, 20, 21, 18, 14, 14, 21, 19, 19, 43, 24, 19, 26, 37, 27, 21, 14, 19, 28, 34, 22, 21, 34, 27, 30, 21, 20, 27, 26, 4, 41, 24, 35, 14, 36, 28, 19, 29, 20, 22, 17, 35, 43, 21, 33, 23, 31, 11, 30, 37, 14, 13, 23, 8, 14, 11, 21, 0, 22, 16, 37, 23, 11, 33, 10, 22, 34, 18, 29, 38, 6, 11, 6, 40, 18, 10, 20, 34, 22
            |43, 51, 27, 13, 42, 35, 34, 37, 33, 40, 42, 52, 24, 28, 35, 40, 26, 12, 41, 27, 15, 37, 19, 41, 18, 8, 14, 32, 44, 41, 8, 51, 16, 21, 45, 25, 15, 17, 9, 6, 26, 43, 13, 2, 16, 16, 33, 41, 36, 31, 35, 21, 27, 45, 25, 25, 28, 40, 4, 9, 10, 35, 31, 25, 52, 41, 25, 8, 18, 20, 23, 22, 29, 35, 45, 15, 9, 17, 26, 22, 0, 12, 28, 42, 20, 33, 13, 37, 26, 40, 15, 25, 25, 34, 25, 33, 4, 12, 25, 22, 42
            |33, 40, 16, 14, 31, 25, 26, 26, 30, 29, 34, 41, 13, 19, 25, 28, 24, 18, 30, 18, 9, 29, 20, 32, 9, 14, 2, 21, 35, 32, 15, 40, 9, 10, 34, 22, 12, 7, 4, 6, 17, 32, 20, 9, 18, 12, 23, 30, 24, 21, 23, 17, 25, 35, 20, 13, 22, 28, 8, 15, 17, 24, 19, 20, 41, 30, 19, 18, 16, 9, 16, 22, 18, 26, 36, 9, 5, 6, 14, 16, 12, 0, 23, 31, 9, 23, 10, 25, 20, 32, 14, 23, 21, 26, 21, 27, 9, 7, 14, 19, 31
            |24, 34, 25, 37, 36, 38, 11, 40, 8, 23, 51, 37, 17, 12, 15, 31, 7, 39, 43, 8, 14, 10, 14, 46, 16, 35, 23, 35, 51, 48, 36, 33, 14, 18, 44, 4, 14, 16, 27, 24, 11, 28, 41, 27, 16, 12, 17, 43, 33, 18, 25, 39, 9, 49, 4, 26, 1, 30, 26, 22, 38, 30, 29, 3, 35, 43, 4, 37, 10, 26, 7, 11, 31, 43, 52, 31, 28, 26, 19, 37, 28, 23, 0, 42, 26, 12, 33, 33, 4, 49, 13, 7, 43, 46, 43, 5, 29, 30, 20, 7, 43
            |28, 27, 17, 35, 10, 7, 35, 5, 50, 25, 15, 24, 26, 30, 30, 14, 47, 41, 2, 34, 36, 39, 48, 7, 30, 40, 29, 10, 13, 10, 41, 28, 34, 26, 3, 44, 39, 31, 33, 37, 31, 22, 44, 40, 47, 39, 27, 2, 9, 25, 19, 27, 49, 8, 42, 19, 41, 15, 38, 46, 42, 12, 13, 41, 27, 2, 39, 45, 42, 22, 36, 48, 13, 12, 14, 28, 33, 25, 23, 23, 42, 31, 42, 0, 22, 32, 32, 9, 39, 15, 41, 47, 26, 18, 26, 42, 38, 30, 23, 43, 1
            |28, 34, 8, 17, 22, 16, 25, 17, 34, 24, 26, 34, 11, 18, 22, 20, 29, 23, 21, 20, 16, 29, 27, 23, 11, 20, 7, 12, 27, 23, 21, 34, 14, 8, 25, 27, 19, 11, 11, 15, 17, 25, 26, 18, 26, 18, 20, 21, 15, 17, 17, 14, 31, 27, 25, 5, 25, 21, 16, 24, 23, 16, 11, 24, 35, 21, 22, 25, 22, 0, 19, 28, 9, 18, 28, 9, 12, 3, 10, 11, 20, 9, 26, 22, 0, 22, 13, 17, 23, 24, 21, 28, 17, 19, 17, 29, 17, 10, 9, 25, 22
            |12, 22, 18, 37, 24, 30, 3, 31, 20, 11, 43, 25, 11, 4, 3, 19, 19, 41, 33, 7, 18, 8, 24, 37, 15, 37, 22, 26, 43, 39, 38, 21, 16, 14, 34, 16, 19, 16, 28, 27, 6, 16, 43, 31, 26, 18, 5, 33, 24, 7, 13, 36, 21, 39, 14, 19, 12, 19, 29, 29, 40, 20, 20, 13, 23, 33, 11, 40, 18, 22, 11, 22, 23, 35, 44, 30, 29, 23, 12, 33, 33, 23, 12, 32, 22, 0, 33, 23, 10, 42, 21, 19, 39, 39, 39, 11, 32, 29, 13, 17, 33
            |40, 47, 21, 4, 34, 25, 35, 26, 40, 37, 30, 47, 22, 28, 34, 33, 33, 10, 30, 28, 19, 39, 28, 30, 18, 8, 10, 22, 32, 29, 9, 47, 19, 18, 35, 32, 21, 17, 6, 11, 27, 38, 13, 11, 26, 22, 31, 30, 27, 29, 30, 9, 35, 34, 30, 18, 32, 33, 10, 21, 11, 28, 23, 30, 47, 30, 29, 13, 25, 13, 26, 30, 20, 23, 33, 4, 5, 10, 22, 10, 13, 10, 33, 32, 13, 33, 0, 29, 30, 28, 22, 32, 13, 21, 13, 37, 8, 3, 21, 29, 32
            |20, 21, 10, 32, 6, 9, 26, 9, 41, 16, 22, 20, 17, 21, 21, 6, 38, 39, 10, 25, 28, 30, 40, 15, 22, 36, 23, 8, 21, 17, 38, 22, 26, 18, 11, 35, 32, 23, 28, 31, 22, 14, 42, 35, 40, 31, 18, 10, 2, 16, 9, 26, 41, 17, 33, 12, 32, 7, 33, 39, 39, 3, 6, 32, 22, 10, 30, 41, 34, 17, 28, 40, 9, 16, 22, 25, 28, 20, 15, 22, 37, 25, 33, 9, 17, 23, 29, 0, 30, 21, 34, 38, 27, 22, 27, 33, 34, 26, 15, 35, 10
            |22, 32, 22, 34, 33, 35, 10, 36, 12, 21, 48, 35, 13, 9, 13, 28, 9, 37, 39, 4, 11, 11, 14, 42, 12, 32, 20, 31, 48, 44, 33, 31, 11, 15, 41, 6, 12, 13, 24, 22, 7, 26, 39, 25, 16, 10, 14, 39, 30, 15, 22, 36, 11, 45, 4, 22, 3, 28, 24, 21, 35, 27, 25, 3, 33, 39, 1, 35, 9, 23, 4, 12, 28, 39, 49, 28, 25, 23, 16, 34, 26, 20, 4, 39, 23, 10, 30, 30, 0, 46, 12, 9, 39, 42, 39, 7, 27, 27, 16, 7, 39
            |41, 41, 24, 29, 24, 12, 45, 12, 58, 37, 2, 39, 32, 39, 40, 27, 53, 35, 12, 42, 40, 49, 51, 8, 35, 36, 30, 15, 4, 4, 36, 42, 38, 31, 16, 50, 43, 35, 32, 37, 39, 35, 38, 39, 50, 43, 37, 12, 19, 35, 30, 20, 55, 10, 48, 24, 49, 28, 37, 47, 37, 23, 22, 48, 41, 12, 46, 40, 46, 24, 43, 52, 18, 6, 5, 26, 31, 26, 31, 18, 40, 32, 49, 15, 24, 42, 28, 21, 46, 0, 45, 52, 17, 7, 17, 51, 36, 28, 30, 49, 14
            |33, 42, 24, 26, 38, 36, 21, 38, 18, 30, 47, 44, 17, 17, 23, 34, 11, 27, 41, 14, 5, 23, 6, 43, 11, 22, 15, 32, 47, 44, 23, 41, 7, 16, 44, 10, 2, 11, 16, 12, 15, 35, 28, 14, 6, 3, 23, 41, 33, 22, 28, 30, 12, 47, 10, 23, 13, 34, 14, 8, 25, 31, 28, 10, 43, 41, 11, 24, 3, 21, 9, 8, 29, 39, 49, 22, 17, 19, 19, 29, 15, 14, 13, 41, 21, 21, 22, 34, 12, 45, 0, 10, 34, 40, 34, 18, 17, 20, 19, 7, 42
            |31, 41, 29, 36, 41, 42, 18, 44, 8, 30, 54, 44, 21, 17, 22, 37, 1, 37, 47, 13, 13, 17, 7, 50, 18, 32, 24, 38, 54, 51, 33, 40, 14, 21, 49, 3, 11, 18, 26, 22, 16, 35, 38, 24, 10, 11, 23, 47, 38, 24, 30, 39, 3, 53, 5, 29, 7, 36, 24, 17, 35, 35, 33, 6, 42, 47, 8, 33, 7, 28, 10, 4, 35, 46, 56, 31, 27, 27, 23, 38, 25, 23, 7, 47, 28, 19, 32, 38, 9, 52, 10, 0, 43, 48, 43, 12, 27, 30, 24, 4, 47
            |44, 47, 23, 13, 32, 19, 42, 21, 50, 40, 19, 46, 28, 35, 39, 32, 44, 18, 24, 36, 30, 46, 40, 22, 27, 19, 20, 19, 21, 20, 20, 48, 29, 25, 28, 42, 32, 26, 18, 23, 34, 39, 21, 24, 38, 33, 36, 24, 24, 33, 32, 4, 46, 25, 40, 20, 42, 33, 23, 33, 20, 27, 23, 40, 48, 24, 39, 24, 36, 17, 35, 42, 19, 14, 22, 12, 18, 16, 27, 6, 25, 21, 43, 26, 17, 39, 13, 27, 39, 17, 34, 43, 0, 10, 0, 46, 21, 14, 26, 40, 25
            |41, 43, 22, 22, 26, 13, 42, 13, 54, 37, 9, 41, 29, 36, 39, 28, 49, 28, 16, 38, 35, 47, 46, 12, 30, 29, 25, 14, 11, 10, 29, 43, 33, 27, 20, 46, 37, 30, 26, 31, 36, 36, 31, 32, 45, 38, 36, 16, 19, 33, 29, 13, 51, 16, 44, 20, 45, 29, 30, 40, 30, 23, 20, 44, 43, 16, 42, 33, 41, 19, 39, 47, 16, 6, 12, 19, 25, 21, 28, 11, 34, 26, 46, 18, 19, 39, 21, 22, 42, 7, 40, 48, 10, 0, 10, 48, 29, 21, 27, 44, 17
            |44, 47, 23, 13, 32, 19, 42, 21, 50, 40, 19, 46, 28, 35, 39, 32, 44, 18, 24, 36, 30, 46, 40, 22, 27, 19, 20, 19, 21, 20, 20, 48, 29, 25, 28, 42, 32, 26, 18, 23, 34, 39, 21, 24, 38, 33, 36, 24, 24, 33, 32, 4, 46, 25, 40, 20, 42, 33, 23, 33, 20, 27, 23, 40, 48, 24, 39, 24, 36, 17, 35, 42, 19, 14, 22, 12, 18, 16, 27, 6, 25, 21, 43, 26, 17, 39, 13, 27, 39, 17, 34, 43, 0, 10, 0, 46, 21, 14, 26, 40, 25
            |21, 31, 27, 41, 35, 39, 9, 41, 9, 21, 53, 35, 19, 12, 13, 30, 11, 44, 43, 9, 18, 6, 18, 47, 19, 39, 27, 36, 52, 49, 40, 30, 18, 21, 45, 9, 18, 20, 31, 29, 12, 27, 46, 32, 21, 17, 16, 43, 34, 18, 24, 42, 13, 50, 9, 28, 6, 30, 31, 27, 42, 30, 30, 8, 32, 43, 8, 41, 15, 29, 11, 16, 33, 45, 54, 35, 32, 29, 21, 40, 33, 27, 5, 42, 29, 11, 37, 33, 7, 51, 18, 12, 46, 48, 46, 0, 34, 34, 21, 12, 43
            |42, 49, 24, 9, 39, 31, 34, 33, 35, 38, 38, 50, 23, 27, 34, 37, 28, 10, 37, 26, 16, 37, 22, 37, 17, 5, 11, 28, 39, 37, 6, 49, 16, 19, 41, 27, 16, 16, 5, 5, 26, 41, 12, 4, 19, 17, 32, 37, 32, 30, 32, 17, 29, 41, 26, 22, 28, 37, 3, 13, 9, 32, 28, 26, 50, 37, 26, 8, 20, 17, 23, 25, 25, 31, 41, 10, 5, 14, 23, 18, 4, 9, 29, 38, 17, 32, 8, 34, 27, 36, 17, 27, 21, 29, 21, 34, 0, 8, 23, 24, 38
            |37, 44, 18, 8, 32, 23, 32, 25, 37, 34, 30, 44, 19, 25, 30, 30, 31, 13, 29, 25, 16, 36, 26, 29, 15, 10, 7, 20, 31, 29, 11, 44, 16, 15, 33, 29, 18, 14, 4, 9, 24, 35, 16, 11, 24, 19, 28, 29, 25, 26, 27, 10, 32, 33, 27, 15, 29, 31, 9, 19, 13, 26, 21, 27, 45, 29, 26, 15, 22, 10, 23, 28, 18, 23, 33, 2, 4, 7, 19, 10, 12, 7, 30, 30, 10, 29, 3, 26, 27, 28, 20, 30, 14, 21, 14, 34, 8, 0, 18, 26, 30
            |19, 26, 6, 26, 19, 18, 16, 20, 28, 16, 32, 27, 3, 9, 13, 15, 24, 31, 23, 12, 14, 20, 25, 26, 8, 27, 12, 15, 31, 28, 28, 26, 12, 4, 25, 21, 17, 9, 18, 19, 9, 18, 33, 23, 25, 16, 10, 23, 14, 8, 10, 23, 27, 29, 19, 6, 19, 15, 21, 25, 30, 12, 9, 18, 27, 23, 16, 31, 19, 9, 14, 25, 11, 23, 33, 18, 18, 11, 1, 20, 25, 14, 20, 23, 9, 13, 21, 15, 16, 30, 19, 24, 26, 27, 26, 21, 23, 18, 0, 21, 23
            |30, 39, 26, 32, 39, 39, 17, 40, 11, 28, 51, 42, 18, 15, 20, 34, 4, 34, 44, 11, 10, 17, 7, 46, 14, 29, 20, 35, 51, 48, 30, 39, 11, 18, 46, 3, 8, 14, 23, 19, 13, 33, 35, 21, 9, 7, 21, 44, 35, 21, 28, 36, 6, 50, 4, 26, 6, 34, 21, 15, 32, 32, 30, 4, 40, 44, 6, 31, 4, 25, 7, 5, 31, 42, 52, 28, 24, 24, 20, 34, 22, 19, 7, 43, 25, 17, 29, 35, 7, 49, 7, 4, 40, 44, 40, 12, 24, 26, 21, 0, 44
            |29, 28, 18, 34, 11, 7, 36, 5, 51, 26, 14, 25, 26, 31, 31, 15, 48, 41, 1, 35, 36, 40, 48, 6, 30, 40, 29, 10, 12, 9, 41, 29, 35, 26, 3, 45, 40, 31, 33, 37, 32, 23, 44, 40, 48, 39, 28, 1, 9, 25, 19, 26, 50, 7, 42, 19, 42, 16, 38, 46, 42, 13, 14, 42, 28, 1, 39, 45, 42, 22, 37, 48, 13, 11, 13, 28, 33, 25, 24, 22, 42, 31, 43, 1, 22, 33, 32, 10, 39, 14, 42, 47, 25, 17, 25, 43, 38, 30, 23, 44, 0|];
early = [0, 441, 131, 756, 0, 102, 399, 22, 359, 402, 62, 0, 150, 474, 390, 0, 350, 214, 31, 316, 267, 382, 287, 66, 147, 204, 155, 26, 60, 55, 203, 0, 844, 150, 26, 725, 271, 661, 163, 189, 318, 458, 628, 224, 243, 256, 394, 19, 504, 475, 409, 559, 291, 70, 334, 122, 310, 427, 182, 242, 200, 12, 13, 310, 0, 29, 311, 211, 269, 536, 322, 342, 16, 92, 62, 162, 179, 532, 495, 571, 204, 151, 309, 35, 537, 383, 166, 0, 666, 75, 262, 287, 556, 581, 574, 368, 192, 161, 146, 342, 31];
late = [1009, 570, 244, 890, 119, 234, 510, 149, 481, 528, 168, 78, 257, 602, 499, 111, 463, 330, 144, 439, 391, 491, 406, 191, 273, 338, 276, 135, 168, 170, 319, 76, 963, 273, 147, 851, 390, 784, 276, 314, 452, 568, 743, 355, 378, 384, 519, 155, 640, 591, 545, 677, 419, 183, 445, 246, 439, 545, 298, 354, 323, 122, 135, 438, 81, 151, 442, 332, 377, 640, 447, 467, 128, 225, 186, 290, 289, 659, 622, 693, 312, 287, 424, 155, 668, 513, 289, 116, 786, 207, 380, 407, 681, 718, 692, 489, 309, 283, 259, 450, 139];