% n100w160.004    57.79 1003
n = 101;
duration = [|0, 23, 44, 14, 11, 5, 35, 43, 45, 40, 34, 29, 41, 50, 52, 30, 23, 40, 21, 20, 36, 34, 35, 24, 26, 38, 19, 46, 31, 46, 18, 6, 42, 16, 16, 42, 21, 24, 42, 3, 32, 39, 34, 34, 6, 16, 30, 30, 32, 20, 55, 31, 20, 19, 32, 28, 36, 30, 50, 36, 42, 25, 39, 42, 21, 37, 42, 24, 46, 38, 31, 48, 24, 22, 28, 39, 38, 20, 40, 22, 29, 42, 45, 42, 39, 43, 24, 36, 29, 37, 26, 38, 13, 44, 30, 30, 50, 54, 28, 47, 24
            |23, 0, 42, 22, 13, 20, 12, 30, 37, 17, 45, 31, 32, 41, 40, 19, 24, 18, 36, 6, 48, 37, 42, 11, 4, 19, 27, 36, 22, 42, 7, 20, 36, 8, 19, 35, 36, 36, 32, 25, 16, 38, 28, 36, 24, 28, 29, 18, 35, 27, 43, 42, 5, 4, 12, 33, 13, 8, 42, 29, 20, 6, 30, 20, 16, 15, 36, 13, 23, 24, 37, 31, 38, 22, 26, 26, 27, 26, 21, 13, 33, 33, 22, 35, 24, 38, 9, 31, 41, 17, 39, 15, 18, 24, 13, 13, 40, 45, 32, 37, 16
            |44, 42, 0, 29, 38, 47, 45, 23, 11, 49, 24, 15, 15, 16, 20, 24, 21, 46, 31, 36, 25, 11, 17, 31, 44, 34, 25, 17, 21, 6, 36, 38, 9, 38, 29, 11, 31, 26, 16, 43, 30, 4, 14, 10, 50, 28, 14, 25, 12, 24, 23, 24, 45, 40, 36, 17, 45, 42, 13, 15, 43, 48, 15, 50, 26, 42, 10, 29, 51, 25, 16, 30, 29, 22, 17, 23, 19, 24, 35, 29, 16, 15, 50, 11, 26, 6, 33, 11, 25, 38, 27, 50, 31, 39, 33, 33, 17, 16, 16, 16, 26
            |14, 22, 29, 0, 11, 18, 32, 31, 31, 37, 24, 14, 27, 37, 38, 19, 9, 37, 14, 16, 26, 20, 22, 16, 25, 31, 6, 33, 19, 32, 15, 9, 28, 14, 3, 29, 14, 14, 29, 14, 23, 25, 20, 20, 21, 6, 16, 20, 18, 6, 42, 21, 22, 19, 26, 14, 32, 27, 36, 23, 37, 27, 26, 40, 10, 33, 28, 16, 43, 27, 18, 37, 16, 8, 13, 27, 25, 6, 33, 13, 15, 29, 41, 28, 28, 28, 18, 22, 19, 31, 17, 36, 4, 37, 23, 23, 36, 40, 14, 34, 13
            |11, 13, 38, 11, 0, 11, 24, 33, 37, 30, 35, 24, 32, 42, 42, 20, 17, 30, 24, 9, 37, 30, 33, 13, 16, 27, 17, 37, 22, 39, 7, 8, 34, 5, 10, 34, 24, 25, 33, 13, 21, 34, 26, 29, 15, 17, 24, 20, 28, 17, 45, 32, 11, 9, 21, 25, 25, 20, 42, 28, 31, 17, 30, 32, 12, 26, 35, 14, 35, 28, 29, 37, 27, 16, 21, 29, 28, 17, 29, 11, 25, 33, 34, 34, 28, 36, 13, 29, 30, 26, 28, 28, 8, 33, 19, 19, 41, 46, 24, 38, 14
            |5, 20, 47, 18, 11, 0, 32, 44, 47, 37, 39, 32, 42, 52, 53, 31, 26, 38, 26, 19, 41, 38, 39, 24, 23, 38, 24, 48, 33, 49, 17, 9, 44, 15, 18, 45, 26, 29, 44, 8, 32, 42, 36, 38, 4, 21, 33, 31, 36, 24, 56, 36, 16, 17, 31, 32, 33, 28, 52, 38, 40, 22, 41, 39, 23, 35, 45, 25, 43, 39, 36, 48, 29, 25, 31, 40, 39, 24, 40, 22, 33, 44, 42, 44, 39, 45, 24, 39, 34, 36, 31, 35, 16, 43, 30, 30, 52, 56, 32, 49, 25
            |35, 12, 45, 32, 24, 32, 0, 27, 38, 5, 54, 38, 32, 40, 38, 21, 31, 6, 46, 16, 56, 43, 50, 17, 9, 14, 37, 35, 24, 43, 18, 32, 37, 19, 29, 36, 46, 45, 32, 37, 15, 42, 31, 41, 36, 38, 35, 20, 41, 36, 40, 51, 16, 16, 9, 41, 1, 5, 42, 31, 9, 12, 31, 8, 24, 5, 37, 19, 11, 22, 45, 25, 48, 30, 32, 24, 27, 35, 14, 21, 40, 33, 10, 36, 21, 41, 15, 34, 50, 9, 49, 4, 29, 15, 13, 13, 38, 44, 39, 36, 22
            |43, 30, 23, 31, 33, 44, 27, 0, 13, 29, 41, 25, 8, 13, 11, 13, 23, 26, 41, 26, 43, 26, 35, 21, 30, 14, 31, 8, 12, 18, 28, 38, 13, 30, 28, 11, 41, 37, 6, 44, 14, 21, 13, 24, 48, 34, 20, 13, 26, 30, 13, 40, 34, 30, 19, 29, 26, 25, 15, 10, 22, 34, 8, 30, 22, 23, 13, 19, 30, 6, 31, 8, 41, 23, 20, 4, 6, 29, 14, 22, 27, 8, 29, 12, 6, 17, 21, 14, 40, 18, 40, 31, 30, 17, 17, 17, 11, 17, 26, 9, 19
            |45, 37, 11, 31, 37, 47, 38, 13, 0, 41, 33, 19, 6, 6, 10, 19, 21, 38, 36, 32, 34, 18, 26, 27, 39, 26, 28, 6, 16, 6, 33, 39, 3, 35, 29, 2, 36, 32, 6, 45, 23, 11, 11, 16, 50, 32, 16, 19, 18, 27, 13, 32, 41, 36, 29, 23, 37, 35, 6, 9, 34, 43, 7, 42, 24, 34, 2, 25, 42, 16, 23, 20, 36, 23, 17, 14, 11, 26, 26, 26, 21, 5, 41, 3, 17, 5, 28, 9, 33, 29, 34, 42, 31, 30, 26, 26, 7, 9, 21, 5, 23
            |40, 17, 49, 37, 30, 37, 5, 29, 41, 0, 59, 42, 35, 42, 39, 25, 36, 3, 52, 21, 61, 47, 54, 22, 14, 15, 42, 37, 28, 46, 23, 37, 40, 25, 34, 39, 52, 50, 34, 42, 19, 46, 35, 45, 41, 43, 39, 24, 45, 41, 40, 56, 21, 21, 13, 45, 5, 10, 44, 34, 8, 16, 34, 2, 29, 6, 40, 23, 6, 24, 49, 26, 53, 35, 37, 26, 30, 40, 15, 25, 44, 36, 5, 39, 23, 44, 20, 38, 55, 11, 54, 4, 34, 14, 17, 17, 40, 46, 43, 38, 27
            |34, 45, 24, 24, 35, 39, 54, 41, 33, 59, 0, 17, 34, 39, 43, 35, 23, 57, 13, 39, 2, 15, 7, 37, 49, 48, 18, 38, 33, 30, 38, 30, 30, 38, 26, 32, 13, 10, 36, 32, 41, 22, 28, 17, 40, 19, 21, 36, 16, 18, 46, 3, 46, 42, 46, 14, 54, 49, 37, 31, 56, 51, 34, 61, 30, 53, 31, 35, 63, 41, 11, 49, 10, 24, 23, 40, 36, 19, 50, 33, 15, 35, 62, 31, 42, 28, 39, 27, 5, 50, 8, 58, 27, 54, 42, 42, 40, 40, 16, 38, 32
            |29, 31, 15, 14, 24, 32, 38, 25, 19, 42, 17, 0, 18, 25, 28, 18, 7, 40, 17, 25, 19, 6, 12, 21, 34, 31, 10, 23, 16, 19, 24, 23, 16, 25, 14, 17, 17, 13, 20, 28, 24, 11, 11, 5, 35, 13, 4, 19, 4, 9, 32, 15, 33, 28, 29, 4, 37, 33, 24, 14, 39, 37, 17, 44, 15, 36, 17, 19, 46, 23, 7, 32, 17, 9, 6, 22, 19, 9, 32, 18, 2, 19, 45, 16, 25, 15, 23, 11, 16, 33, 16, 42, 16, 37, 26, 26, 26, 28, 2, 23, 16
            |41, 32, 15, 27, 32, 42, 32, 8, 6, 35, 34, 18, 0, 10, 11, 13, 18, 32, 35, 27, 36, 19, 28, 21, 33, 20, 26, 6, 10, 11, 28, 35, 6, 30, 25, 4, 35, 31, 2, 41, 17, 14, 7, 17, 46, 29, 14, 14, 18, 25, 14, 33, 36, 31, 23, 22, 31, 29, 11, 4, 29, 37, 1, 36, 20, 28, 5, 19, 36, 10, 24, 16, 35, 19, 15, 9, 5, 24, 21, 21, 20, 1, 35, 4, 12, 9, 22, 7, 33, 24, 34, 36, 27, 24, 20, 20, 9, 14, 20, 6, 18
            |50, 41, 16, 37, 42, 52, 40, 13, 6, 42, 39, 25, 10, 0, 5, 23, 27, 39, 43, 37, 40, 24, 32, 31, 42, 27, 34, 5, 20, 9, 38, 45, 9, 40, 35, 8, 43, 38, 9, 51, 26, 17, 16, 22, 56, 38, 22, 23, 24, 34, 7, 38, 46, 41, 32, 29, 39, 38, 3, 14, 35, 46, 11, 43, 30, 36, 9, 29, 43, 18, 29, 18, 42, 29, 23, 16, 14, 33, 27, 31, 27, 9, 41, 9, 19, 11, 32, 15, 39, 31, 41, 44, 37, 30, 29, 29, 2, 4, 27, 4, 28
            |52, 40, 20, 38, 42, 53, 38, 11, 10, 39, 43, 28, 11, 5, 0, 23, 30, 36, 46, 36, 44, 28, 36, 31, 41, 24, 37, 5, 21, 14, 38, 46, 13, 40, 36, 11, 46, 41, 9, 52, 25, 21, 18, 26, 57, 40, 25, 23, 28, 36, 3, 42, 45, 40, 30, 32, 37, 36, 8, 16, 32, 45, 13, 40, 31, 33, 12, 29, 39, 17, 33, 14, 45, 30, 26, 15, 14, 35, 24, 31, 30, 10, 38, 12, 17, 15, 32, 17, 43, 28, 44, 41, 38, 26, 28, 28, 3, 8, 30, 5, 28
            |30, 19, 24, 19, 20, 31, 21, 13, 19, 25, 35, 18, 13, 23, 23, 0, 13, 23, 31, 14, 37, 22, 30, 8, 20, 13, 21, 18, 3, 23, 15, 25, 17, 17, 16, 16, 31, 28, 14, 31, 6, 21, 10, 20, 35, 23, 14, 1, 21, 20, 25, 32, 23, 18, 12, 21, 21, 17, 24, 10, 21, 24, 12, 27, 9, 19, 17, 6, 28, 8, 25, 18, 32, 12, 12, 9, 9, 19, 15, 9, 20, 14, 27, 16, 9, 20, 9, 13, 32, 15, 32, 26, 17, 19, 9, 9, 22, 27, 19, 19, 6
            |23, 24, 21, 9, 17, 26, 31, 23, 21, 36, 23, 7, 18, 27, 30, 13, 0, 35, 18, 18, 25, 13, 18, 14, 27, 26, 8, 24, 12, 23, 17, 18, 18, 18, 8, 19, 18, 15, 20, 23, 19, 16, 11, 12, 29, 11, 7, 14, 11, 7, 33, 20, 26, 21, 23, 9, 31, 27, 27, 14, 34, 30, 17, 38, 8, 30, 19, 13, 40, 20, 13, 30, 19, 2, 4, 20, 17, 6, 28, 11, 9, 20, 39, 19, 21, 19, 17, 13, 19, 27, 19, 36, 10, 32, 20, 20, 27, 31, 8, 25, 9
            |40, 18, 46, 37, 30, 38, 6, 26, 38, 3, 57, 40, 32, 39, 36, 23, 35, 0, 51, 21, 59, 45, 52, 21, 15, 12, 41, 34, 26, 43, 23, 37, 38, 25, 34, 36, 51, 49, 32, 43, 17, 43, 33, 43, 42, 42, 37, 22, 44, 40, 37, 54, 22, 21, 11, 44, 5, 10, 41, 31, 4, 18, 31, 4, 28, 4, 37, 22, 6, 22, 48, 23, 52, 33, 35, 24, 27, 39, 12, 24, 43, 33, 4, 36, 20, 41, 19, 35, 54, 9, 53, 6, 34, 11, 15, 15, 37, 43, 42, 35, 25
            |21, 36, 31, 14, 24, 26, 46, 41, 36, 52, 13, 17, 35, 43, 46, 31, 18, 51, 0, 30, 15, 20, 16, 30, 40, 44, 10, 41, 30, 35, 29, 18, 33, 28, 17, 35, 0, 5, 37, 19, 36, 27, 28, 21, 27, 9, 21, 32, 19, 11, 49, 10, 36, 33, 40, 14, 47, 41, 41, 31, 51, 41, 34, 54, 23, 47, 34, 29, 57, 38, 15, 48, 3, 19, 21, 38, 35, 12, 46, 26, 16, 36, 55, 34, 40, 32, 32, 28, 8, 44, 5, 50, 18, 50, 37, 37, 43, 45, 16, 41, 26
            |20, 6, 36, 16, 9, 19, 16, 26, 32, 21, 39, 25, 27, 37, 36, 14, 18, 21, 30, 0, 41, 31, 36, 6, 9, 19, 21, 32, 17, 36, 2, 16, 30, 4, 13, 30, 30, 30, 28, 22, 13, 32, 23, 29, 23, 22, 23, 14, 29, 21, 39, 36, 9, 4, 12, 27, 17, 11, 38, 23, 22, 12, 25, 24, 10, 17, 31, 8, 27, 21, 31, 29, 33, 16, 20, 22, 22, 20, 21, 7, 26, 28, 26, 30, 21, 33, 5, 25, 35, 17, 33, 20, 13, 24, 11, 11, 36, 41, 25, 33, 10
            |36, 48, 25, 26, 37, 41, 56, 43, 34, 61, 2, 19, 36, 40, 44, 37, 25, 59, 15, 41, 0, 17, 8, 39, 51, 50, 20, 40, 35, 31, 40, 33, 32, 40, 28, 34, 15, 12, 38, 34, 43, 23, 30, 19, 42, 21, 23, 38, 17, 21, 47, 5, 48, 44, 48, 16, 56, 51, 38, 33, 58, 53, 35, 63, 32, 55, 33, 38, 65, 43, 13, 51, 12, 26, 25, 42, 38, 21, 52, 36, 17, 36, 64, 33, 44, 29, 41, 29, 7, 52, 10, 60, 30, 56, 45, 45, 41, 41, 18, 40, 34
            |34, 37, 11, 20, 30, 38, 43, 26, 18, 47, 15, 6, 19, 24, 28, 22, 13, 45, 20, 31, 17, 0, 9, 27, 40, 35, 15, 23, 20, 16, 30, 29, 15, 31, 20, 17, 20, 15, 21, 33, 29, 7, 14, 2, 40, 18, 8, 24, 2, 14, 31, 14, 39, 34, 34, 6, 43, 38, 22, 16, 43, 43, 18, 49, 20, 41, 16, 25, 51, 26, 5, 34, 18, 15, 11, 25, 21, 14, 36, 24, 5, 20, 49, 16, 28, 13, 29, 12, 15, 37, 17, 47, 22, 40, 31, 31, 25, 26, 6, 23, 21
            |35, 42, 17, 22, 33, 39, 50, 35, 26, 54, 7, 12, 28, 32, 36, 30, 18, 52, 16, 36, 8, 9, 0, 33, 45, 43, 16, 32, 28, 23, 35, 30, 23, 35, 24, 25, 16, 11, 29, 33, 36, 15, 22, 11, 41, 18, 16, 31, 9, 16, 39, 7, 44, 39, 41, 9, 49, 45, 30, 25, 51, 48, 27, 56, 26, 48, 24, 31, 58, 35, 5, 43, 13, 20, 18, 34, 30, 16, 44, 30, 10, 28, 57, 25, 36, 21, 35, 21, 9, 45, 11, 54, 25, 48, 38, 38, 33, 33, 11, 31, 27
            |24, 11, 31, 16, 13, 24, 17, 21, 27, 22, 37, 21, 21, 31, 31, 8, 14, 21, 30, 6, 39, 27, 33, 0, 13, 15, 20, 26, 11, 31, 7, 19, 25, 9, 13, 24, 30, 28, 22, 25, 8, 27, 17, 25, 28, 21, 19, 8, 25, 19, 33, 34, 15, 10, 10, 24, 17, 12, 32, 18, 21, 17, 20, 24, 7, 17, 25, 2, 27, 15, 28, 24, 32, 13, 16, 16, 17, 18, 17, 4, 23, 22, 25, 24, 15, 27, 2, 20, 33, 15, 32, 21, 13, 21, 7, 7, 30, 35, 22, 27, 5
            |26, 4, 44, 25, 16, 23, 9, 30, 39, 14, 49, 34, 33, 42, 41, 20, 27, 15, 40, 9, 51, 40, 45, 13, 0, 18, 31, 37, 23, 43, 11, 24, 37, 11, 23, 36, 40, 39, 33, 28, 16, 40, 30, 38, 27, 31, 32, 19, 38, 30, 43, 45, 7, 7, 11, 36, 10, 6, 43, 30, 18, 4, 32, 16, 19, 13, 37, 15, 20, 24, 40, 30, 42, 25, 29, 26, 28, 30, 20, 16, 35, 34, 19, 36, 24, 40, 11, 33, 44, 15, 43, 12, 22, 22, 13, 13, 40, 46, 35, 38, 18
            |38, 19, 34, 31, 27, 38, 14, 14, 26, 15, 48, 31, 20, 27, 24, 13, 26, 12, 44, 19, 50, 35, 43, 15, 18, 0, 33, 22, 15, 31, 21, 34, 26, 23, 27, 24, 44, 41, 19, 40, 7, 32, 21, 33, 42, 35, 27, 12, 33, 32, 26, 45, 24, 21, 7, 34, 12, 13, 29, 20, 9, 23, 19, 16, 21, 9, 25, 15, 17, 9, 38, 12, 45, 25, 25, 11, 15, 31, 2, 18, 33, 21, 15, 24, 8, 29, 14, 24, 45, 4, 45, 17, 28, 6, 8, 8, 25, 31, 32, 23, 18
            |19, 27, 25, 6, 17, 24, 37, 31, 28, 42, 18, 10, 26, 34, 37, 21, 8, 41, 10, 21, 20, 15, 16, 20, 31, 33, 0, 32, 20, 28, 20, 14, 25, 20, 8, 26, 10, 8, 28, 18, 26, 21, 19, 15, 26, 4, 13, 22, 13, 1, 40, 15, 28, 24, 30, 9, 37, 32, 34, 22, 40, 33, 25, 44, 13, 37, 26, 19, 47, 28, 12, 38, 12, 8, 11, 28, 25, 2, 35, 16, 9, 27, 45, 25, 29, 25, 22, 20, 14, 34, 12, 41, 9, 40, 26, 26, 35, 37, 9, 32, 16
            |46, 36, 17, 33, 37, 48, 35, 8, 6, 37, 38, 23, 6, 5, 5, 18, 24, 34, 41, 32, 40, 23, 32, 26, 37, 22, 32, 0, 16, 11, 33, 41, 8, 35, 31, 6, 41, 36, 4, 47, 21, 17, 13, 21, 52, 35, 19, 18, 23, 31, 9, 37, 41, 36, 26, 27, 34, 33, 7, 10, 30, 41, 7, 38, 25, 31, 7, 24, 38, 13, 28, 14, 40, 25, 20, 11, 9, 30, 22, 26, 25, 4, 37, 7, 14, 11, 27, 12, 38, 26, 39, 39, 33, 25, 24, 24, 4, 9, 25, 1, 23
            |31, 22, 21, 19, 22, 33, 24, 12, 16, 28, 33, 16, 10, 20, 21, 3, 12, 26, 30, 17, 35, 20, 28, 11, 23, 15, 20, 16, 0, 20, 17, 26, 14, 19, 17, 14, 30, 27, 11, 32, 9, 18, 7, 18, 36, 23, 12, 4, 18, 19, 23, 31, 26, 21, 15, 20, 23, 20, 21, 7, 23, 27, 9, 30, 10, 21, 14, 9, 31, 8, 23, 18, 31, 12, 10, 8, 6, 18, 16, 11, 18, 12, 29, 13, 9, 17, 12, 10, 31, 17, 31, 28, 18, 21, 11, 11, 19, 24, 17, 16, 8
            |46, 42, 6, 32, 39, 49, 43, 18, 6, 46, 30, 19, 11, 9, 14, 23, 23, 43, 35, 36, 31, 16, 23, 31, 43, 31, 28, 11, 20, 0, 37, 41, 6, 38, 31, 7, 35, 30, 12, 46, 28, 9, 14, 14, 52, 32, 16, 24, 17, 28, 17, 29, 45, 40, 34, 21, 42, 40, 7, 13, 40, 47, 12, 48, 27, 40, 6, 29, 48, 22, 21, 26, 34, 24, 19, 20, 16, 27, 32, 29, 20, 11, 46, 7, 23, 4, 32, 11, 31, 35, 33, 48, 33, 35, 31, 31, 11, 10, 20, 11, 26
            |18, 7, 36, 15, 7, 17, 18, 28, 33, 23, 38, 24, 28, 38, 38, 15, 17, 23, 29, 2, 40, 30, 35, 7, 11, 21, 20, 33, 17, 37, 0, 14, 31, 2, 12, 31, 29, 29, 29, 20, 15, 32, 23, 29, 21, 21, 23, 15, 28, 20, 40, 35, 9, 4, 14, 26, 18, 13, 38, 24, 24, 13, 26, 25, 10, 19, 31, 9, 29, 22, 30, 31, 31, 15, 20, 23, 24, 19, 23, 7, 26, 29, 28, 30, 22, 33, 7, 26, 34, 19, 32, 22, 11, 26, 13, 13, 37, 42, 25, 34, 10
            |6, 20, 38, 9, 8, 9, 32, 38, 39, 37, 30, 23, 35, 45, 46, 25, 18, 37, 18, 16, 33, 29, 30, 19, 24, 34, 14, 41, 26, 41, 14, 0, 36, 13, 10, 37, 18, 20, 37, 6, 27, 34, 28, 29, 12, 12, 24, 25, 27, 15, 49, 27, 18, 17, 28, 23, 33, 27, 45, 31, 38, 24, 34, 40, 16, 34, 37, 19, 43, 33, 26, 43, 21, 16, 22, 34, 32, 15, 36, 16, 23, 36, 42, 36, 34, 37, 20, 30, 25, 33, 23, 35, 8, 40, 26, 26, 44, 48, 22, 41, 18
            |42, 36, 9, 28, 34, 44, 37, 13, 3, 40, 30, 16, 6, 9, 13, 17, 18, 38, 33, 30, 32, 15, 23, 25, 37, 26, 25, 8, 14, 6, 31, 36, 0, 33, 26, 2, 33, 29, 7, 42, 22, 9, 8, 13, 48, 29, 13, 18, 15, 24, 16, 29, 40, 34, 28, 19, 36, 34, 9, 7, 35, 41, 6, 42, 22, 34, 1, 23, 42, 16, 20, 21, 33, 20, 14, 14, 10, 23, 26, 24, 17, 6, 41, 1, 17, 4, 26, 6, 30, 29, 31, 42, 28, 30, 25, 25, 10, 12, 18, 8, 21
            |16, 8, 38, 14, 5, 15, 19, 30, 35, 25, 38, 25, 30, 40, 40, 17, 18, 25, 28, 4, 40, 31, 35, 9, 11, 23, 20, 35, 19, 38, 2, 13, 33, 0, 12, 33, 28, 28, 31, 18, 17, 33, 25, 30, 19, 20, 24, 17, 29, 20, 42, 35, 8, 4, 16, 27, 20, 15, 40, 26, 26, 13, 28, 27, 11, 21, 33, 11, 30, 24, 31, 33, 31, 16, 21, 25, 26, 19, 25, 9, 26, 31, 29, 32, 24, 35, 9, 28, 34, 21, 32, 23, 11, 28, 15, 15, 39, 44, 25, 36, 12
            |16, 19, 29, 3, 10, 18, 29, 28, 29, 34, 26, 14, 25, 35, 36, 16, 8, 34, 17, 13, 28, 20, 24, 13, 23, 27, 8, 31, 17, 31, 12, 10, 26, 12, 0, 27, 17, 16, 27, 16, 20, 24, 18, 20, 21, 9, 15, 17, 18, 8, 39, 23, 20, 16, 23, 15, 29, 24, 35, 21, 34, 25, 24, 37, 7, 30, 27, 12, 39, 24, 19, 34, 19, 6, 12, 25, 23, 7, 29, 9, 15, 27, 38, 26, 25, 27, 15, 21, 22, 28, 20, 33, 2, 34, 20, 20, 34, 38, 14, 32, 10
            |42, 35, 11, 29, 34, 45, 36, 11, 2, 39, 32, 17, 4, 8, 11, 16, 19, 36, 35, 30, 34, 17, 25, 24, 36, 24, 26, 6, 14, 7, 31, 37, 2, 33, 27, 0, 35, 30, 5, 43, 21, 11, 8, 15, 48, 30, 14, 17, 17, 25, 14, 31, 39, 34, 27, 21, 35, 33, 8, 7, 33, 41, 5, 40, 22, 33, 1, 22, 40, 15, 22, 19, 34, 21, 15, 13, 9, 25, 25, 24, 19, 4, 39, 1, 16, 6, 26, 7, 32, 28, 33, 40, 29, 28, 24, 24, 8, 11, 19, 6, 21
            |21, 36, 31, 14, 24, 26, 46, 41, 36, 52, 13, 17, 35, 43, 46, 31, 18, 51, 0, 30, 15, 20, 16, 30, 40, 44, 10, 41, 30, 35, 29, 18, 33, 28, 17, 35, 0, 5, 37, 19, 36, 27, 28, 21, 27, 9, 21, 32, 19, 11, 49, 10, 36, 33, 40, 14, 47, 41, 41, 31, 51, 41, 34, 54, 23, 47, 34, 29, 57, 38, 15, 48, 3, 19, 21, 38, 35, 12, 46, 26, 16, 36, 55, 34, 40, 32, 32, 28, 8, 44, 5, 50, 18, 50, 37, 37, 43, 45, 16, 41, 26
            |24, 36, 26, 14, 25, 29, 45, 37, 32, 50, 10, 13, 31, 38, 41, 28, 15, 49, 5, 30, 12, 15, 11, 28, 39, 41, 8, 36, 27, 30, 29, 20, 29, 28, 16, 30, 5, 0, 33, 22, 34, 22, 24, 16, 30, 9, 17, 30, 14, 9, 45, 7, 36, 32, 38, 9, 45, 40, 37, 27, 49, 41, 30, 52, 21, 45, 30, 27, 55, 35, 10, 45, 4, 16, 17, 35, 31, 10, 43, 25, 11, 32, 54, 29, 36, 28, 30, 24, 5, 42, 4, 49, 17, 47, 35, 35, 39, 40, 11, 36, 24
            |42, 32, 16, 29, 33, 44, 32, 6, 6, 34, 36, 20, 2, 9, 9, 14, 20, 32, 37, 28, 38, 21, 29, 22, 33, 19, 28, 4, 11, 12, 29, 37, 7, 31, 27, 5, 37, 33, 0, 43, 17, 15, 9, 19, 48, 31, 16, 14, 20, 27, 13, 35, 37, 32, 23, 24, 31, 29, 10, 6, 28, 38, 3, 36, 21, 28, 6, 20, 36, 10, 25, 14, 37, 21, 16, 8, 5, 26, 20, 22, 22, 1, 34, 6, 11, 11, 23, 9, 35, 23, 36, 36, 29, 23, 20, 20, 8, 13, 22, 5, 19
            |3, 25, 43, 14, 13, 8, 37, 44, 45, 42, 32, 28, 41, 51, 52, 31, 23, 43, 19, 22, 34, 33, 33, 25, 28, 40, 18, 47, 32, 46, 20, 6, 42, 18, 16, 43, 19, 22, 43, 0, 34, 39, 34, 33, 8, 15, 30, 32, 31, 19, 55, 29, 22, 22, 34, 27, 38, 33, 50, 37, 44, 28, 40, 45, 22, 39, 43, 26, 48, 39, 30, 49, 22, 22, 28, 40, 38, 19, 42, 23, 28, 42, 47, 42, 40, 42, 26, 36, 27, 39, 24, 40, 14, 46, 32, 32, 50, 54, 27, 47, 25
            |32, 16, 30, 23, 21, 32, 15, 14, 23, 19, 41, 24, 17, 26, 25, 6, 19, 17, 36, 13, 43, 29, 36, 8, 16, 7, 26, 21, 9, 28, 15, 27, 22, 17, 20, 21, 36, 34, 17, 34, 0, 27, 16, 27, 36, 28, 21, 5, 27, 25, 27, 39, 21, 16, 6, 28, 15, 12, 27, 15, 15, 21, 16, 21, 13, 13, 22, 8, 22, 8, 31, 16, 38, 18, 18, 10, 12, 24, 9, 11, 26, 18, 21, 21, 8, 25, 8, 19, 38, 8, 38, 20, 21, 14, 3, 3, 24, 30, 25, 22, 10
            |39, 38, 4, 25, 34, 42, 42, 21, 11, 46, 22, 11, 14, 17, 21, 21, 16, 43, 27, 32, 23, 7, 15, 27, 40, 32, 21, 17, 18, 9, 32, 34, 9, 33, 24, 11, 27, 22, 15, 39, 27, 0, 11, 6, 45, 24, 9, 22, 8, 20, 24, 21, 41, 36, 33, 13, 41, 38, 15, 12, 41, 44, 13, 47, 22, 39, 9, 25, 48, 23, 12, 29, 26, 18, 12, 21, 17, 19, 33, 25, 11, 14, 47, 10, 24, 6, 29, 8, 22, 35, 24, 46, 26, 37, 29, 29, 18, 18, 12, 16, 22
            |34, 28, 14, 20, 26, 36, 31, 13, 11, 35, 28, 11, 7, 16, 18, 10, 11, 33, 28, 23, 30, 14, 22, 17, 30, 21, 19, 13, 7, 14, 23, 28, 8, 25, 18, 8, 28, 24, 9, 34, 16, 11, 0, 11, 40, 22, 7, 11, 13, 18, 22, 26, 32, 27, 22, 15, 31, 27, 16, 3, 30, 34, 6, 37, 14, 29, 9, 15, 38, 13, 17, 21, 28, 12, 7, 12, 8, 17, 23, 16, 13, 9, 36, 8, 14, 10, 19, 3, 27, 24, 27, 36, 21, 27, 19, 19, 16, 20, 13, 13, 13
            |34, 36, 10, 20, 29, 38, 41, 24, 16, 45, 17, 5, 17, 22, 26, 20, 12, 43, 21, 29, 19, 2, 11, 25, 38, 33, 15, 21, 18, 14, 29, 29, 13, 30, 20, 15, 21, 16, 19, 33, 27, 6, 11, 0, 40, 18, 6, 22, 2, 14, 29, 16, 38, 33, 32, 7, 41, 37, 21, 14, 41, 42, 16, 47, 19, 39, 14, 23, 49, 24, 7, 32, 20, 14, 9, 23, 19, 14, 34, 22, 6, 17, 47, 14, 26, 11, 27, 10, 17, 35, 18, 46, 22, 38, 29, 29, 23, 24, 6, 21, 20
            |6, 24, 50, 21, 15, 4, 36, 48, 50, 41, 40, 35, 46, 56, 57, 35, 29, 42, 27, 23, 42, 40, 41, 28, 27, 42, 26, 52, 36, 52, 21, 12, 48, 19, 21, 48, 27, 30, 48, 8, 36, 45, 40, 40, 0, 23, 36, 35, 38, 26, 60, 37, 20, 21, 35, 34, 37, 32, 56, 42, 44, 25, 45, 43, 26, 39, 48, 29, 47, 43, 38, 52, 30, 28, 34, 44, 43, 26, 44, 26, 35, 47, 46, 47, 43, 49, 28, 42, 35, 40, 32, 38, 19, 47, 34, 34, 55, 59, 34, 52, 29
            |16, 28, 28, 6, 17, 21, 38, 34, 32, 43, 19, 13, 29, 38, 40, 23, 11, 42, 9, 22, 21, 18, 18, 21, 31, 35, 4, 35, 23, 32, 21, 12, 29, 20, 9, 30, 9, 9, 31, 15, 28, 24, 22, 18, 23, 0, 16, 24, 16, 4, 44, 16, 28, 24, 31, 12, 38, 33, 37, 25, 42, 33, 28, 45, 15, 38, 30, 21, 48, 31, 15, 41, 11, 11, 15, 31, 28, 5, 37, 18, 13, 31, 47, 29, 32, 29, 23, 23, 14, 36, 12, 42, 9, 42, 28, 28, 38, 41, 12, 35, 18
            |30, 29, 14, 16, 24, 33, 35, 20, 16, 39, 21, 4, 14, 22, 25, 14, 7, 37, 21, 23, 23, 8, 16, 19, 32, 27, 13, 19, 12, 16, 23, 24, 13, 24, 15, 14, 21, 17, 16, 30, 21, 9, 7, 6, 36, 16, 0, 16, 6, 12, 28, 19, 32, 27, 26, 8, 34, 30, 21, 10, 35, 35, 13, 41, 13, 33, 13, 17, 43, 19, 11, 28, 21, 9, 3, 18, 15, 11, 28, 16, 6, 15, 41, 13, 21, 13, 21, 7, 20, 29, 20, 39, 17, 33, 22, 22, 22, 25, 6, 20, 13
            |30, 18, 25, 20, 20, 31, 20, 13, 19, 24, 36, 19, 14, 23, 23, 1, 14, 22, 32, 14, 38, 24, 31, 8, 19, 12, 22, 18, 4, 24, 15, 25, 18, 17, 17, 17, 32, 30, 14, 32, 5, 22, 11, 22, 35, 24, 16, 0, 22, 21, 25, 34, 22, 17, 11, 23, 19, 16, 24, 11, 20, 24, 12, 26, 10, 17, 18, 6, 27, 8, 26, 17, 33, 14, 13, 9, 9, 20, 13, 9, 21, 15, 26, 17, 8, 21, 9, 14, 34, 13, 33, 24, 18, 18, 7, 7, 22, 27, 21, 19, 7
            |32, 35, 12, 18, 28, 36, 41, 26, 18, 45, 16, 4, 18, 24, 28, 21, 11, 44, 19, 29, 17, 2, 9, 25, 38, 33, 13, 23, 18, 17, 28, 27, 15, 29, 18, 17, 19, 14, 20, 31, 27, 8, 13, 2, 38, 16, 6, 22, 0, 13, 31, 14, 37, 32, 32, 5, 41, 37, 23, 15, 42, 41, 18, 47, 18, 39, 16, 23, 49, 25, 5, 34, 18, 13, 9, 24, 20, 12, 35, 22, 4, 19, 48, 16, 27, 14, 27, 11, 15, 35, 16, 46, 20, 39, 29, 29, 25, 26, 4, 23, 19
            |20, 27, 24, 6, 17, 24, 36, 30, 27, 41, 18, 9, 25, 34, 36, 20, 7, 40, 11, 21, 21, 14, 16, 19, 30, 32, 1, 31, 19, 28, 20, 15, 24, 20, 8, 25, 11, 9, 27, 19, 25, 20, 18, 14, 26, 4, 12, 21, 13, 0, 39, 15, 28, 24, 29, 8, 36, 31, 33, 21, 39, 33, 24, 43, 12, 36, 25, 18, 46, 27, 12, 37, 13, 7, 10, 27, 24, 1, 34, 16, 9, 26, 44, 25, 28, 24, 21, 19, 14, 33, 13, 40, 9, 39, 26, 26, 34, 36, 8, 31, 15
            |55, 43, 23, 42, 45, 56, 40, 13, 13, 40, 46, 32, 14, 7, 3, 25, 33, 37, 49, 39, 47, 31, 39, 33, 43, 26, 40, 9, 23, 17, 40, 49, 16, 42, 39, 14, 49, 45, 13, 55, 27, 24, 22, 29, 60, 44, 28, 25, 31, 39, 0, 45, 47, 43, 32, 35, 38, 38, 10, 19, 33, 47, 16, 41, 34, 35, 15, 32, 40, 19, 36, 15, 49, 34, 29, 17, 17, 38, 25, 34, 33, 13, 39, 15, 19, 18, 34, 21, 46, 30, 47, 43, 41, 27, 30, 30, 6, 8, 34, 8, 31
            |31, 42, 24, 21, 32, 36, 51, 40, 32, 56, 3, 15, 33, 38, 42, 32, 20, 54, 10, 36, 5, 14, 7, 34, 45, 45, 15, 37, 31, 29, 35, 27, 29, 35, 23, 31, 10, 7, 35, 29, 39, 21, 26, 16, 37, 16, 19, 34, 14, 15, 45, 0, 43, 39, 43, 11, 51, 46, 36, 29, 53, 48, 32, 58, 27, 50, 30, 33, 60, 38, 9, 47, 8, 21, 21, 38, 34, 16, 47, 30, 13, 33, 59, 30, 40, 27, 36, 25, 2, 47, 5, 55, 24, 52, 40, 40, 39, 39, 13, 37, 29
            |20, 5, 45, 22, 11, 16, 16, 34, 41, 21, 46, 33, 36, 46, 45, 23, 26, 22, 36, 9, 48, 39, 44, 15, 7, 24, 28, 41, 26, 45, 9, 18, 40, 8, 20, 39, 36, 36, 37, 22, 21, 41, 32, 38, 20, 28, 32, 22, 37, 28, 47, 43, 0, 5, 17, 35, 17, 13, 47, 33, 25, 6, 35, 23, 19, 20, 40, 17, 27, 29, 39, 36, 38, 24, 29, 30, 31, 28, 26, 16, 35, 37, 26, 39, 28, 42, 13, 35, 42, 21, 39, 18, 19, 29, 18, 18, 44, 50, 34, 42, 19
            |19, 4, 40, 19, 9, 17, 16, 30, 36, 21, 42, 28, 31, 41, 40, 18, 21, 21, 33, 4, 44, 34, 39, 10, 7, 21, 24, 36, 21, 40, 4, 17, 34, 4, 16, 34, 33, 32, 32, 22, 16, 36, 27, 33, 21, 24, 27, 17, 32, 24, 43, 39, 5, 0, 14, 30, 16, 11, 42, 28, 23, 9, 30, 23, 14, 18, 35, 12, 27, 24, 34, 32, 35, 19, 24, 26, 26, 23, 23, 11, 30, 32, 25, 34, 24, 37, 9, 30, 38, 19, 36, 19, 15, 26, 14, 14, 39, 45, 29, 37, 14
            |32, 12, 36, 26, 21, 31, 9, 19, 29, 13, 46, 29, 23, 32, 30, 12, 23, 11, 40, 12, 48, 34, 41, 10, 11, 7, 30, 26, 15, 34, 14, 28, 28, 16, 23, 27, 40, 38, 23, 34, 6, 33, 22, 32, 35, 31, 26, 11, 32, 29, 32, 43, 17, 14, 0, 33, 9, 6, 33, 21, 11, 16, 22, 15, 17, 7, 28, 11, 17, 13, 36, 19, 41, 22, 24, 15, 18, 28, 9, 13, 31, 24, 16, 27, 13, 31, 8, 25, 43, 5, 42, 14, 23, 12, 4, 4, 30, 36, 30, 27, 14
            |28, 33, 17, 14, 25, 32, 41, 29, 23, 45, 14, 4, 22, 29, 32, 21, 9, 44, 14, 27, 16, 6, 9, 24, 36, 34, 9, 27, 20, 21, 26, 23, 19, 27, 15, 21, 14, 9, 24, 27, 28, 13, 15, 7, 34, 12, 8, 23, 5, 8, 35, 11, 35, 30, 33, 0, 41, 36, 28, 18, 43, 39, 21, 48, 17, 40, 20, 22, 49, 27, 4, 36, 13, 11, 9, 27, 23, 8, 36, 21, 2, 23, 48, 20, 29, 18, 26, 15, 11, 36, 12, 45, 17, 40, 29, 29, 29, 31, 2, 27, 19
            |36, 13, 45, 32, 25, 33, 1, 26, 37, 5, 54, 37, 31, 39, 37, 21, 31, 5, 47, 17, 56, 43, 49, 17, 10, 12, 37, 34, 23, 42, 18, 33, 36, 20, 29, 35, 47, 45, 31, 38, 15, 41, 31, 41, 37, 38, 34, 19, 41, 36, 38, 51, 17, 16, 9, 41, 0, 5, 41, 30, 8, 13, 30, 7, 24, 4, 36, 18, 10, 21, 44, 24, 48, 30, 32, 23, 26, 35, 13, 21, 39, 32, 9, 35, 20, 40, 15, 34, 50, 8, 49, 5, 29, 13, 12, 12, 37, 43, 39, 35, 22
            |30, 8, 42, 27, 20, 28, 5, 25, 35, 10, 49, 33, 29, 38, 36, 17, 27, 10, 41, 11, 51, 38, 45, 12, 6, 13, 32, 33, 20, 40, 13, 27, 34, 15, 24, 33, 41, 40, 29, 33, 12, 38, 27, 37, 32, 33, 30, 16, 37, 31, 38, 46, 13, 11, 6, 36, 5, 0, 39, 27, 12, 10, 28, 13, 19, 7, 34, 14, 16, 20, 40, 25, 43, 25, 28, 22, 24, 30, 14, 16, 35, 30, 15, 33, 19, 37, 10, 30, 45, 9, 44, 9, 24, 16, 9, 9, 36, 42, 34, 34, 17
            |50, 42, 13, 36, 42, 52, 42, 15, 6, 44, 37, 24, 11, 3, 8, 24, 27, 41, 41, 38, 38, 22, 30, 32, 43, 29, 34, 7, 21, 7, 38, 45, 9, 40, 35, 8, 41, 37, 10, 50, 27, 15, 16, 21, 56, 37, 21, 24, 23, 33, 10, 36, 47, 42, 33, 28, 41, 39, 0, 14, 37, 48, 12, 45, 30, 38, 8, 30, 45, 20, 27, 21, 41, 28, 23, 18, 16, 32, 29, 31, 26, 9, 44, 8, 21, 9, 33, 14, 37, 33, 39, 46, 37, 32, 31, 31, 5, 4, 26, 6, 28
            |36, 29, 15, 23, 28, 38, 31, 10, 9, 34, 31, 14, 4, 14, 16, 10, 14, 31, 31, 23, 33, 16, 25, 18, 30, 20, 22, 10, 7, 13, 24, 31, 7, 26, 21, 7, 31, 27, 6, 37, 15, 12, 3, 14, 42, 25, 10, 11, 15, 21, 19, 29, 33, 28, 21, 18, 30, 27, 14, 0, 29, 34, 3, 35, 16, 28, 7, 16, 36, 11, 20, 18, 31, 15, 10, 9, 5, 20, 21, 17, 16, 6, 35, 6, 12, 10, 19, 4, 30, 23, 30, 35, 23, 25, 18, 18, 14, 18, 16, 11, 14
            |42, 20, 43, 37, 31, 40, 9, 22, 34, 8, 56, 39, 29, 35, 32, 21, 34, 4, 51, 22, 58, 43, 51, 21, 18, 9, 40, 30, 23, 40, 24, 38, 35, 26, 34, 33, 51, 49, 28, 44, 15, 41, 30, 41, 44, 42, 35, 20, 42, 39, 33, 53, 25, 23, 11, 43, 8, 12, 37, 29, 0, 21, 28, 8, 27, 5, 34, 21, 8, 18, 46, 18, 52, 32, 33, 20, 24, 39, 8, 24, 41, 29, 6, 33, 17, 38, 19, 33, 53, 6, 52, 11, 34, 6, 14, 14, 33, 39, 40, 31, 25
            |25, 6, 48, 27, 17, 22, 12, 34, 43, 16, 51, 37, 37, 46, 45, 24, 30, 18, 41, 12, 53, 43, 48, 17, 4, 23, 33, 41, 27, 47, 13, 24, 41, 13, 25, 41, 41, 41, 38, 28, 21, 44, 34, 42, 25, 33, 35, 24, 41, 33, 47, 48, 6, 9, 16, 39, 13, 10, 48, 34, 21, 0, 36, 18, 23, 16, 42, 19, 22, 29, 43, 35, 44, 28, 32, 30, 32, 32, 24, 19, 39, 38, 21, 41, 28, 44, 15, 37, 47, 19, 45, 13, 24, 26, 17, 17, 45, 51, 38, 42, 22
            |39, 30, 15, 26, 30, 41, 31, 8, 7, 34, 34, 17, 1, 11, 13, 12, 17, 31, 34, 25, 35, 18, 27, 20, 32, 19, 25, 7, 9, 12, 26, 34, 6, 28, 24, 5, 34, 30, 3, 40, 16, 13, 6, 16, 45, 28, 13, 12, 18, 24, 16, 32, 35, 30, 22, 21, 30, 28, 12, 3, 28, 36, 0, 35, 18, 28, 6, 18, 36, 10, 23, 16, 34, 18, 13, 8, 4, 23, 20, 19, 19, 3, 35, 5, 11, 10, 21, 6, 32, 23, 33, 35, 26, 24, 19, 19, 11, 15, 19, 8, 16
            |42, 20, 50, 40, 32, 39, 8, 30, 42, 2, 61, 44, 36, 43, 40, 27, 38, 4, 54, 24, 63, 49, 56, 24, 16, 16, 44, 38, 30, 48, 25, 40, 42, 27, 37, 40, 54, 52, 36, 45, 21, 47, 37, 47, 43, 45, 41, 26, 47, 43, 41, 58, 23, 23, 15, 48, 7, 13, 45, 35, 8, 18, 35, 0, 31, 8, 41, 25, 4, 26, 51, 26, 56, 37, 39, 28, 31, 43, 16, 28, 46, 37, 4, 41, 25, 45, 22, 39, 57, 13, 56, 5, 36, 14, 19, 19, 41, 47, 45, 39, 29
            |21, 16, 26, 10, 12, 23, 24, 22, 24, 29, 30, 15, 20, 30, 31, 9, 8, 28, 23, 10, 32, 20, 26, 7, 19, 21, 13, 25, 10, 27, 10, 16, 22, 11, 7, 22, 23, 21, 21, 22, 13, 22, 14, 19, 26, 15, 13, 10, 18, 12, 34, 27, 19, 14, 17, 17, 24, 19, 30, 16, 27, 23, 18, 31, 0, 24, 22, 6, 34, 17, 21, 27, 25, 6, 10, 18, 17, 11, 23, 4, 16, 21, 32, 22, 18, 24, 9, 17, 26, 21, 25, 28, 8, 27, 13, 13, 29, 33, 15, 26, 3
            |37, 15, 42, 33, 26, 35, 5, 23, 34, 6, 53, 36, 28, 36, 33, 19, 30, 4, 47, 17, 55, 41, 48, 17, 13, 9, 37, 31, 21, 40, 19, 34, 34, 21, 30, 33, 47, 45, 28, 39, 13, 39, 29, 39, 39, 38, 33, 17, 39, 36, 35, 50, 20, 18, 7, 40, 4, 7, 38, 28, 5, 16, 28, 8, 24, 0, 34, 18, 10, 18, 43, 21, 48, 29, 31, 20, 24, 35, 9, 20, 38, 29, 9, 33, 17, 37, 15, 31, 50, 5, 49, 8, 30, 10, 11, 11, 34, 40, 38, 32, 21
            |42, 36, 10, 28, 35, 45, 37, 13, 2, 40, 31, 17, 5, 9, 12, 17, 19, 37, 34, 31, 33, 16, 24, 25, 37, 25, 26, 7, 14, 6, 31, 37, 1, 33, 27, 1, 34, 30, 6, 43, 22, 9, 9, 14, 48, 30, 13, 18, 16, 25, 15, 30, 40, 35, 28, 20, 36, 34, 8, 7, 34, 42, 6, 41, 22, 34, 0, 23, 42, 16, 21, 21, 34, 21, 15, 14, 10, 24, 26, 24, 18, 5, 40, 1, 17, 4, 27, 6, 31, 29, 32, 41, 29, 30, 25, 25, 9, 11, 19, 7, 21
            |24, 13, 29, 16, 14, 25, 19, 19, 25, 23, 35, 19, 19, 29, 29, 6, 13, 22, 29, 8, 38, 25, 31, 2, 15, 15, 19, 24, 9, 29, 9, 19, 23, 11, 12, 22, 29, 27, 20, 26, 8, 25, 15, 23, 29, 21, 17, 6, 23, 18, 32, 33, 17, 12, 11, 22, 18, 14, 30, 16, 21, 19, 18, 25, 6, 18, 23, 0, 28, 14, 26, 23, 31, 11, 14, 15, 15, 17, 17, 3, 21, 21, 26, 22, 14, 25, 4, 18, 32, 15, 31, 23, 13, 21, 8, 8, 28, 33, 20, 25, 4
            |46, 23, 51, 43, 35, 43, 11, 30, 42, 6, 63, 46, 36, 43, 39, 28, 40, 6, 57, 27, 65, 51, 58, 27, 20, 17, 47, 38, 31, 48, 29, 43, 42, 30, 39, 40, 57, 55, 36, 48, 22, 48, 38, 49, 47, 48, 43, 27, 49, 46, 40, 60, 27, 27, 17, 49, 10, 16, 45, 36, 8, 22, 36, 4, 34, 10, 42, 28, 0, 26, 53, 25, 58, 39, 40, 28, 32, 45, 16, 30, 48, 37, 1, 41, 25, 46, 25, 40, 60, 14, 59, 9, 39, 13, 21, 21, 40, 46, 47, 39, 31
            |38, 24, 25, 27, 28, 39, 22, 6, 16, 24, 41, 23, 10, 18, 17, 8, 20, 22, 38, 21, 43, 26, 35, 15, 24, 9, 28, 13, 8, 22, 22, 33, 16, 24, 24, 15, 38, 35, 10, 39, 8, 23, 13, 24, 43, 31, 19, 8, 25, 27, 19, 38, 29, 24, 13, 27, 21, 20, 20, 11, 18, 29, 10, 26, 17, 18, 16, 14, 26, 0, 30, 10, 39, 20, 18, 2, 6, 26, 10, 17, 25, 11, 25, 15, 1, 20, 16, 15, 39, 13, 39, 26, 26, 14, 11, 11, 16, 22, 25, 14, 15
            |31, 37, 16, 18, 29, 36, 45, 31, 23, 49, 11, 7, 24, 29, 33, 25, 13, 48, 15, 31, 13, 5, 5, 28, 40, 38, 12, 28, 23, 21, 30, 26, 20, 31, 19, 22, 15, 10, 25, 30, 31, 12, 17, 7, 38, 15, 11, 26, 5, 12, 36, 9, 39, 34, 36, 4, 44, 40, 27, 20, 46, 43, 23, 51, 21, 43, 21, 26, 53, 30, 0, 39, 13, 15, 13, 29, 25, 12, 39, 25, 5, 24, 52, 21, 31, 18, 30, 16, 10, 40, 12, 49, 21, 44, 33, 33, 30, 31, 6, 28, 22
            |48, 31, 30, 37, 37, 48, 25, 8, 20, 26, 49, 32, 16, 18, 14, 18, 30, 23, 48, 29, 51, 34, 43, 24, 30, 12, 38, 14, 18, 26, 31, 43, 21, 33, 34, 19, 48, 45, 14, 49, 16, 29, 21, 32, 52, 41, 28, 17, 34, 37, 15, 47, 36, 32, 19, 36, 24, 25, 21, 18, 18, 35, 16, 26, 27, 21, 21, 23, 25, 10, 39, 0, 49, 30, 27, 10, 14, 36, 11, 26, 34, 16, 24, 20, 9, 25, 24, 22, 48, 16, 48, 28, 36, 12, 19, 19, 16, 22, 34, 15, 25
            |24, 38, 29, 16, 27, 29, 48, 41, 36, 53, 10, 17, 35, 42, 45, 32, 19, 52, 3, 33, 12, 18, 13, 32, 42, 45, 12, 40, 31, 34, 31, 21, 33, 31, 19, 34, 3, 4, 37, 22, 38, 26, 28, 20, 30, 11, 21, 33, 18, 13, 49, 8, 38, 35, 41, 13, 48, 43, 41, 31, 52, 44, 34, 56, 25, 48, 34, 31, 58, 39, 13, 49, 0, 20, 21, 39, 35, 13, 47, 28, 15, 36, 57, 33, 40, 31, 34, 28, 5, 46, 2, 52, 20, 51, 38, 38, 43, 44, 15, 40, 27
            |22, 22, 22, 8, 16, 25, 30, 23, 23, 35, 24, 9, 19, 29, 30, 12, 2, 33, 19, 16, 26, 15, 20, 13, 25, 25, 8, 25, 12, 24, 15, 16, 20, 16, 6, 21, 19, 16, 21, 22, 18, 18, 12, 14, 28, 11, 9, 14, 13, 7, 34, 21, 24, 19, 22, 11, 30, 25, 28, 15, 32, 28, 18, 37, 6, 29, 21, 11, 39, 20, 15, 30, 20, 0, 6, 20, 17, 6, 27, 9, 10, 21, 38, 20, 21, 21, 15, 14, 21, 26, 20, 34, 9, 31, 19, 19, 28, 32, 9, 26, 8
            |28, 26, 17, 13, 21, 31, 32, 20, 17, 37, 23, 6, 15, 23, 26, 12, 4, 35, 21, 20, 25, 11, 18, 16, 29, 25, 11, 20, 10, 19, 20, 22, 14, 21, 12, 15, 21, 17, 16, 28, 18, 12, 7, 9, 34, 15, 3, 13, 9, 10, 29, 21, 29, 24, 24, 9, 32, 28, 23, 10, 33, 32, 13, 39, 10, 31, 15, 14, 40, 18, 13, 27, 21, 6, 0, 17, 14, 9, 27, 13, 8, 16, 39, 14, 19, 15, 18, 9, 21, 27, 21, 37, 14, 31, 20, 20, 23, 26, 7, 21, 10
            |39, 26, 23, 27, 29, 40, 24, 4, 14, 26, 40, 22, 9, 16, 15, 9, 20, 24, 38, 22, 42, 25, 34, 16, 26, 11, 28, 11, 8, 20, 23, 34, 14, 25, 25, 13, 38, 35, 8, 40, 10, 21, 12, 23, 44, 31, 18, 9, 24, 27, 17, 38, 30, 26, 15, 27, 23, 22, 18, 9, 20, 30, 8, 28, 18, 20, 14, 15, 28, 2, 29, 10, 39, 20, 17, 0, 4, 26, 12, 17, 25, 9, 27, 13, 3, 18, 17, 13, 38, 15, 38, 28, 26, 16, 13, 13, 15, 20, 24, 12, 15
            |38, 27, 19, 25, 28, 39, 27, 6, 11, 30, 36, 19, 5, 14, 14, 9, 17, 27, 35, 22, 38, 21, 30, 17, 28, 15, 25, 9, 6, 16, 24, 32, 10, 26, 23, 9, 35, 31, 5, 38, 12, 17, 8, 19, 43, 28, 15, 9, 20, 24, 17, 34, 31, 26, 18, 23, 26, 24, 16, 5, 24, 32, 4, 31, 17, 24, 10, 15, 32, 6, 25, 14, 35, 17, 14, 4, 0, 23, 16, 17, 21, 6, 30, 9, 7, 14, 18, 9, 34, 19, 35, 31, 25, 20, 15, 15, 13, 18, 21, 10, 14
            |20, 26, 24, 6, 17, 24, 35, 29, 26, 40, 19, 9, 24, 33, 35, 19, 6, 39, 12, 20, 21, 14, 16, 18, 30, 31, 2, 30, 18, 27, 19, 15, 23, 19, 7, 25, 12, 10, 26, 19, 24, 19, 17, 14, 26, 5, 11, 20, 12, 1, 38, 16, 28, 23, 28, 8, 35, 30, 32, 20, 39, 32, 23, 43, 11, 35, 24, 17, 45, 26, 12, 36, 13, 6, 9, 26, 23, 0, 33, 15, 9, 25, 44, 24, 27, 23, 21, 18, 15, 32, 14, 40, 9, 38, 25, 25, 33, 36, 8, 30, 14
            |40, 21, 35, 33, 29, 40, 14, 14, 26, 15, 50, 32, 21, 27, 24, 15, 28, 12, 46, 21, 52, 36, 44, 17, 20, 2, 35, 22, 16, 32, 23, 36, 26, 25, 29, 25, 46, 43, 20, 42, 9, 33, 23, 34, 44, 37, 28, 13, 35, 34, 25, 47, 26, 23, 9, 36, 13, 14, 29, 21, 8, 24, 20, 16, 23, 9, 26, 17, 16, 10, 39, 11, 47, 27, 27, 12, 16, 33, 0, 20, 34, 21, 15, 25, 9, 30, 16, 25, 47, 5, 47, 17, 30, 4, 10, 10, 25, 31, 34, 23, 20
            |22, 13, 29, 13, 11, 22, 21, 22, 26, 25, 33, 18, 21, 31, 31, 9, 11, 24, 26, 7, 36, 24, 30, 4, 16, 18, 16, 26, 11, 29, 7, 16, 24, 9, 9, 24, 26, 25, 22, 23, 11, 25, 16, 22, 26, 18, 16, 9, 22, 16, 34, 30, 16, 11, 13, 21, 21, 16, 31, 17, 24, 19, 19, 28, 4, 20, 24, 3, 30, 17, 25, 26, 28, 9, 13, 17, 17, 15, 20, 0, 20, 22, 29, 23, 17, 26, 6, 19, 30, 18, 28, 25, 10, 24, 10, 10, 30, 35, 19, 27, 3
            |29, 33, 16, 15, 25, 33, 40, 27, 21, 44, 15, 2, 20, 27, 30, 20, 9, 43, 16, 26, 17, 5, 10, 23, 35, 33, 9, 25, 18, 20, 26, 23, 17, 26, 15, 19, 16, 11, 22, 28, 26, 11, 13, 6, 35, 13, 6, 21, 4, 9, 33, 13, 35, 30, 31, 2, 39, 35, 26, 16, 41, 39, 19, 46, 16, 38, 18, 21, 48, 25, 5, 34, 15, 10, 8, 25, 21, 9, 34, 20, 0, 21, 47, 18, 27, 17, 25, 13, 13, 35, 14, 44, 17, 39, 28, 28, 27, 29, 1, 25, 17
            |42, 33, 15, 29, 33, 44, 33, 8, 5, 36, 35, 19, 1, 9, 10, 14, 20, 33, 36, 28, 36, 20, 28, 22, 34, 21, 27, 4, 12, 11, 29, 36, 6, 31, 27, 4, 36, 32, 1, 42, 18, 14, 9, 17, 47, 31, 15, 15, 19, 26, 13, 33, 37, 32, 24, 23, 32, 30, 9, 6, 29, 38, 3, 37, 21, 29, 5, 21, 37, 11, 24, 16, 36, 21, 16, 9, 6, 25, 21, 22, 21, 0, 36, 4, 12, 9, 24, 8, 34, 24, 35, 37, 29, 25, 21, 21, 8, 13, 21, 5, 19
            |45, 22, 50, 41, 34, 42, 10, 29, 41, 5, 62, 45, 35, 41, 38, 27, 39, 4, 55, 26, 64, 49, 57, 25, 19, 15, 45, 37, 29, 46, 28, 42, 41, 29, 38, 39, 55, 54, 34, 47, 21, 47, 36, 47, 46, 47, 41, 26, 48, 44, 39, 59, 26, 25, 16, 48, 9, 15, 44, 35, 6, 21, 35, 4, 32, 9, 40, 26, 1, 25, 52, 24, 57, 38, 39, 27, 30, 44, 15, 29, 47, 36, 0, 40, 23, 44, 23, 39, 58, 12, 57, 9, 38, 12, 19, 19, 39, 45, 46, 38, 30
            |42, 35, 11, 28, 34, 44, 36, 12, 3, 39, 31, 16, 4, 9, 12, 16, 19, 36, 34, 30, 33, 16, 25, 24, 36, 24, 25, 7, 13, 7, 30, 36, 1, 32, 26, 1, 34, 29, 6, 42, 21, 10, 8, 14, 47, 29, 13, 17, 16, 25, 15, 30, 39, 34, 27, 20, 35, 33, 8, 6, 33, 41, 5, 41, 22, 33, 1, 22, 41, 15, 21, 20, 33, 20, 14, 13, 9, 24, 25, 23, 18, 4, 40, 0, 16, 5, 26, 6, 31, 28, 32, 40, 28, 29, 24, 24, 9, 12, 18, 7, 20
            |39, 24, 26, 28, 28, 39, 21, 6, 17, 23, 42, 25, 12, 19, 17, 9, 21, 20, 40, 21, 44, 28, 36, 15, 24, 8, 29, 14, 9, 23, 22, 34, 17, 24, 25, 16, 40, 36, 11, 40, 8, 24, 14, 26, 43, 32, 21, 8, 27, 28, 19, 40, 28, 24, 13, 29, 20, 19, 21, 12, 17, 28, 11, 25, 18, 17, 17, 14, 25, 1, 31, 9, 40, 21, 19, 3, 7, 27, 9, 17, 27, 12, 23, 16, 0, 21, 16, 16, 40, 12, 40, 25, 26, 13, 11, 11, 17, 23, 26, 15, 15
            |43, 38, 6, 28, 36, 45, 41, 17, 5, 44, 28, 15, 9, 11, 15, 20, 19, 41, 32, 33, 29, 13, 21, 27, 40, 29, 25, 11, 17, 4, 33, 37, 4, 35, 27, 6, 32, 28, 11, 42, 25, 6, 10, 11, 49, 29, 13, 21, 14, 24, 18, 27, 42, 37, 31, 18, 40, 37, 9, 10, 38, 44, 10, 45, 24, 37, 4, 25, 46, 20, 18, 25, 31, 21, 15, 18, 14, 23, 30, 26, 17, 9, 44, 5, 21, 0, 29, 7, 28, 33, 30, 45, 29, 34, 28, 28, 12, 13, 17, 11, 23
            |24, 9, 33, 18, 13, 24, 15, 21, 28, 20, 39, 23, 22, 32, 32, 9, 17, 19, 32, 5, 41, 29, 35, 2, 11, 14, 22, 27, 12, 32, 7, 20, 26, 9, 15, 26, 32, 30, 23, 26, 8, 29, 19, 27, 28, 23, 21, 9, 27, 21, 34, 36, 13, 9, 8, 26, 15, 10, 33, 19, 19, 15, 21, 22, 9, 15, 27, 4, 25, 16, 30, 24, 34, 15, 18, 17, 18, 21, 16, 6, 25, 24, 23, 26, 16, 29, 0, 22, 35, 13, 34, 19, 15, 20, 6, 6, 31, 36, 24, 28, 8
            |36, 31, 11, 22, 29, 39, 34, 14, 9, 38, 27, 11, 7, 15, 17, 13, 13, 35, 28, 25, 29, 12, 21, 20, 33, 24, 20, 12, 10, 11, 26, 30, 6, 28, 21, 7, 28, 24, 9, 36, 19, 8, 3, 10, 42, 23, 7, 14, 11, 19, 21, 25, 35, 30, 25, 15, 34, 30, 14, 4, 33, 37, 6, 39, 17, 31, 6, 18, 40, 15, 16, 22, 28, 14, 9, 13, 9, 18, 25, 19, 13, 8, 39, 6, 16, 7, 22, 0, 26, 27, 27, 39, 23, 29, 22, 22, 15, 18, 13, 12, 16
            |29, 41, 25, 19, 30, 34, 50, 40, 33, 55, 5, 16, 33, 39, 43, 32, 19, 54, 8, 35, 7, 15, 9, 33, 44, 45, 14, 38, 31, 31, 34, 25, 30, 34, 22, 32, 8, 5, 35, 27, 38, 22, 27, 17, 35, 14, 20, 34, 15, 14, 46, 2, 42, 38, 43, 11, 50, 45, 37, 30, 53, 47, 32, 57, 26, 50, 31, 32, 60, 39, 10, 48, 5, 21, 21, 38, 34, 15, 47, 30, 13, 34, 58, 31, 40, 28, 35, 26, 0, 47, 3, 54, 23, 51, 39, 39, 40, 41, 14, 38, 28
            |37, 17, 38, 31, 26, 36, 9, 18, 29, 11, 50, 33, 24, 31, 28, 15, 27, 9, 44, 17, 52, 37, 45, 15, 15, 4, 34, 26, 17, 35, 19, 33, 29, 21, 28, 28, 44, 42, 23, 39, 8, 35, 24, 35, 40, 36, 29, 13, 35, 33, 30, 47, 21, 19, 5, 36, 8, 9, 33, 23, 6, 19, 23, 13, 21, 5, 29, 15, 14, 13, 40, 16, 46, 26, 27, 15, 19, 32, 5, 18, 35, 24, 12, 28, 12, 33, 13, 27, 47, 0, 46, 13, 28, 7, 8, 8, 29, 35, 34, 27, 18
            |26, 39, 27, 17, 28, 31, 49, 40, 34, 54, 8, 16, 34, 41, 44, 32, 19, 53, 5, 33, 10, 17, 11, 32, 43, 45, 12, 39, 31, 33, 32, 23, 31, 32, 20, 33, 5, 4, 36, 24, 38, 24, 27, 18, 32, 12, 20, 33, 16, 13, 47, 5, 39, 36, 42, 12, 49, 44, 39, 30, 52, 45, 33, 56, 25, 49, 32, 31, 59, 39, 12, 48, 2, 20, 21, 38, 35, 14, 47, 28, 14, 35, 57, 32, 40, 30, 34, 27, 3, 46, 0, 53, 21, 51, 38, 38, 41, 42, 14, 39, 27
            |38, 15, 50, 36, 28, 35, 4, 31, 42, 4, 58, 42, 36, 44, 41, 26, 36, 6, 50, 20, 60, 47, 54, 21, 12, 17, 41, 39, 28, 48, 22, 35, 42, 23, 33, 40, 50, 49, 36, 40, 20, 46, 36, 46, 38, 42, 39, 24, 46, 40, 43, 55, 18, 19, 14, 45, 5, 9, 46, 35, 11, 13, 35, 5, 28, 8, 41, 23, 9, 26, 49, 28, 52, 34, 37, 28, 31, 40, 17, 25, 44, 37, 9, 40, 25, 45, 19, 39, 54, 13, 53, 0, 33, 17, 17, 17, 42, 48, 43, 40, 27
            |13, 18, 31, 4, 8, 16, 29, 30, 31, 34, 27, 16, 27, 37, 38, 17, 10, 34, 18, 13, 30, 22, 25, 13, 22, 28, 9, 33, 18, 33, 11, 8, 28, 11, 2, 29, 18, 17, 29, 14, 21, 26, 21, 22, 19, 9, 17, 18, 20, 9, 41, 24, 19, 15, 23, 17, 29, 24, 37, 23, 34, 24, 26, 36, 8, 30, 29, 13, 39, 26, 21, 36, 20, 9, 14, 26, 25, 9, 30, 10, 17, 29, 38, 28, 26, 29, 15, 23, 23, 28, 21, 33, 0, 34, 20, 20, 36, 40, 16, 34, 11
            |44, 24, 39, 37, 33, 43, 15, 17, 30, 14, 54, 37, 24, 30, 26, 19, 32, 11, 50, 24, 56, 40, 48, 21, 22, 6, 40, 25, 21, 35, 26, 40, 30, 28, 34, 28, 50, 47, 23, 46, 14, 37, 27, 38, 47, 42, 33, 18, 39, 39, 27, 52, 29, 26, 12, 40, 13, 16, 32, 25, 6, 26, 24, 14, 27, 10, 30, 21, 13, 14, 44, 12, 51, 31, 31, 16, 20, 38, 4, 24, 39, 25, 12, 29, 13, 34, 20, 29, 51, 7, 51, 17, 34, 0, 14, 14, 27, 33, 38, 26, 24
            |30, 13, 33, 23, 19, 30, 13, 17, 26, 17, 42, 26, 20, 29, 28, 9, 20, 15, 37, 11, 45, 31, 38, 7, 13, 8, 26, 24, 11, 31, 13, 26, 25, 15, 20, 24, 37, 35, 20, 32, 3, 29, 19, 29, 34, 28, 22, 7, 29, 26, 30, 40, 18, 14, 4, 29, 12, 9, 31, 18, 14, 17, 19, 19, 13, 11, 25, 8, 21, 11, 33, 19, 38, 19, 20, 13, 15, 25, 10, 10, 28, 21, 19, 24, 11, 28, 6, 22, 39, 8, 38, 17, 20, 14, 0, 0, 28, 33, 27, 25, 11
            |30, 13, 33, 23, 19, 30, 13, 17, 26, 17, 42, 26, 20, 29, 28, 9, 20, 15, 37, 11, 45, 31, 38, 7, 13, 8, 26, 24, 11, 31, 13, 26, 25, 15, 20, 24, 37, 35, 20, 32, 3, 29, 19, 29, 34, 28, 22, 7, 29, 26, 30, 40, 18, 14, 4, 29, 12, 9, 31, 18, 14, 17, 19, 19, 13, 11, 25, 8, 21, 11, 33, 19, 38, 19, 20, 13, 15, 25, 10, 10, 28, 21, 19, 24, 11, 28, 6, 22, 39, 8, 38, 17, 20, 14, 0, 0, 28, 33, 27, 25, 11
            |50, 40, 17, 36, 41, 52, 38, 11, 7, 40, 40, 26, 9, 2, 3, 22, 27, 37, 43, 36, 41, 25, 33, 30, 40, 25, 35, 4, 19, 11, 37, 44, 10, 39, 34, 8, 43, 39, 8, 50, 24, 18, 16, 23, 55, 38, 22, 22, 25, 34, 6, 39, 44, 39, 30, 29, 37, 36, 5, 14, 33, 45, 11, 41, 29, 34, 9, 28, 40, 16, 30, 16, 43, 28, 23, 15, 13, 33, 25, 30, 27, 8, 39, 9, 17, 12, 31, 15, 40, 29, 41, 42, 36, 27, 28, 28, 0, 6, 28, 3, 27
            |54, 45, 16, 40, 46, 56, 44, 17, 9, 46, 40, 28, 14, 4, 8, 27, 31, 43, 45, 41, 41, 26, 33, 35, 46, 31, 37, 9, 24, 10, 42, 48, 12, 44, 38, 11, 45, 40, 13, 54, 30, 18, 20, 24, 59, 41, 25, 27, 26, 36, 8, 39, 50, 45, 36, 31, 43, 42, 4, 18, 39, 51, 15, 47, 33, 40, 11, 33, 46, 22, 31, 22, 44, 32, 26, 20, 18, 36, 31, 35, 29, 13, 45, 12, 23, 13, 36, 18, 41, 35, 42, 48, 40, 33, 33, 33, 6, 0, 30, 8, 32
            |28, 32, 16, 14, 24, 32, 39, 26, 21, 43, 16, 2, 20, 27, 30, 19, 8, 42, 16, 25, 18, 6, 11, 22, 35, 32, 9, 25, 17, 20, 25, 22, 18, 25, 14, 19, 16, 11, 22, 27, 25, 12, 13, 6, 34, 12, 6, 21, 4, 8, 34, 13, 34, 29, 30, 2, 39, 34, 26, 16, 40, 38, 19, 45, 15, 38, 19, 20, 47, 25, 6, 34, 15, 9, 7, 24, 21, 8, 34, 19, 1, 21, 46, 18, 26, 17, 24, 13, 14, 34, 14, 43, 16, 38, 27, 27, 28, 30, 0, 25, 17
            |47, 37, 16, 34, 38, 49, 36, 9, 5, 38, 38, 23, 6, 4, 5, 19, 25, 35, 41, 33, 40, 23, 31, 27, 38, 23, 32, 1, 16, 11, 34, 41, 8, 36, 32, 6, 41, 36, 5, 47, 22, 16, 13, 21, 52, 35, 20, 19, 23, 31, 8, 37, 42, 37, 27, 27, 35, 34, 6, 11, 31, 42, 8, 39, 26, 32, 7, 25, 39, 14, 28, 15, 40, 26, 21, 12, 10, 30, 23, 27, 25, 5, 38, 7, 15, 11, 28, 12, 38, 27, 39, 40, 34, 26, 25, 25, 3, 8, 25, 0, 24
            |24, 16, 26, 13, 14, 25, 22, 19, 23, 27, 32, 16, 18, 28, 28, 6, 9, 25, 26, 10, 34, 21, 27, 5, 18, 18, 16, 23, 8, 26, 10, 18, 21, 12, 10, 21, 26, 24, 19, 25, 10, 22, 13, 20, 29, 18, 13, 7, 19, 15, 31, 29, 19, 14, 14, 19, 22, 17, 28, 14, 25, 22, 16, 29, 3, 21, 21, 4, 31, 15, 22, 25, 27, 8, 10, 15, 14, 14, 20, 3, 17, 19, 30, 20, 15, 23, 8, 16, 28, 18, 27, 27, 11, 24, 11, 11, 27, 32, 17, 24, 0|];
early = [0, 513, 447, 0, 0, 598, 293, 23, 70, 302, 641, 0, 38, 393, 399, 239, 136, 275, 110, 524, 669, 60, 653, 184, 491, 294, 0, 446, 230, 415, 540, 737, 31, 501, 196, 39, 95, 86, 11, 0, 494, 80, 1, 90, 0, 127, 0, 204, 110, 124, 436, 631, 491, 505, 277, 113, 294, 470, 391, 1, 340, 545, 10, 282, 202, 305, 56, 181, 326, 363, 112, 356, 134, 178, 152, 10, 0, 0, 383, 213, 692, 64, 769, 42, 47, 437, 269, 18, 665, 278, 665, 571, 0, 340, 273, 239, 375, 427, 0, 485, 188];
late = [1113, 649, 598, 127, 98, 744, 453, 179, 191, 481, 818, 149, 166, 527, 543, 385, 310, 469, 278, 701, 857, 248, 838, 345, 645, 460, 132, 557, 403, 618, 670, 898, 209, 669, 341, 193, 295, 250, 163, 85, 615, 216, 186, 257, 69, 293, 153, 384, 231, 301, 587, 821, 667, 694, 387, 246, 455, 646, 567, 160, 501, 717, 143, 495, 360, 465, 227, 342, 499, 510, 252, 539, 279, 317, 297, 158, 158, 128, 516, 369, 869, 185, 927, 171, 211, 597, 384, 155, 823, 459, 821, 705, 135, 490, 431, 387, 536, 554, 144, 644, 342];