% n100w120.002    18.93 969
n = 101;
duration = [|0, 12, 28, 38, 26, 30, 4, 19, 38, 21, 8, 30, 39, 34, 26, 30, 22, 39, 37, 28, 44, 18, 34, 47, 1, 20, 13, 22, 48, 30, 15, 24, 51, 34, 29, 47, 20, 4, 34, 35, 25, 3, 35, 4, 26, 15, 11, 28, 15, 17, 11, 9, 30, 8, 29, 29, 5, 12, 42, 44, 28, 39, 37, 44, 20, 12, 17, 43, 30, 35, 18, 38, 34, 41, 47, 18, 19, 20, 40, 19, 37, 27, 48, 39, 16, 31, 42, 19, 41, 20, 34, 22, 17, 19, 12, 32, 38, 43, 38, 42, 30
            |12, 0, 40, 48, 21, 29, 11, 16, 44, 32, 13, 38, 38, 42, 33, 40, 33, 47, 48, 39, 44, 27, 43, 56, 12, 32, 25, 34, 57, 28, 21, 35, 59, 46, 30, 57, 22, 15, 46, 33, 37, 15, 34, 9, 37, 3, 22, 24, 27, 29, 23, 13, 26, 4, 38, 36, 13, 21, 51, 50, 27, 40, 37, 52, 31, 11, 8, 49, 41, 44, 25, 49, 44, 51, 56, 19, 25, 32, 47, 25, 40, 33, 57, 49, 9, 40, 44, 27, 39, 32, 44, 31, 26, 22, 23, 33, 47, 53, 48, 42, 35
            |28, 40, 0, 30, 48, 48, 30, 43, 40, 14, 31, 28, 54, 34, 31, 20, 9, 31, 21, 9, 56, 25, 28, 33, 28, 11, 15, 6, 37, 49, 31, 7, 43, 11, 44, 33, 38, 26, 6, 54, 3, 25, 51, 31, 14, 43, 22, 50, 13, 13, 17, 32, 51, 36, 27, 31, 28, 25, 35, 44, 45, 52, 52, 38, 15, 37, 44, 43, 10, 25, 29, 22, 24, 25, 36, 37, 31, 9, 40, 29, 46, 31, 37, 23, 43, 27, 51, 28, 57, 8, 23, 24, 24, 37, 19, 46, 32, 27, 30, 54, 38
            |38, 48, 30, 0, 41, 35, 37, 39, 14, 21, 34, 9, 37, 9, 16, 11, 35, 1, 11, 21, 35, 21, 5, 9, 38, 37, 33, 32, 10, 37, 27, 35, 13, 22, 30, 10, 30, 34, 34, 39, 31, 37, 35, 39, 17, 50, 27, 41, 30, 25, 35, 34, 40, 45, 10, 13, 35, 27, 5, 16, 33, 31, 35, 8, 21, 38, 47, 15, 20, 5, 23, 11, 6, 11, 8, 32, 24, 27, 13, 22, 24, 16, 9, 10, 44, 8, 28, 21, 40, 28, 7, 17, 22, 30, 27, 30, 2, 9, 0, 33, 20
            |26, 21, 48, 41, 0, 9, 21, 6, 31, 35, 18, 32, 17, 33, 25, 39, 45, 41, 47, 43, 24, 25, 37, 51, 25, 44, 36, 44, 50, 8, 18, 46, 49, 50, 13, 51, 12, 24, 55, 12, 46, 28, 14, 22, 39, 21, 27, 3, 36, 35, 35, 17, 5, 22, 32, 29, 22, 23, 43, 37, 9, 21, 17, 43, 34, 14, 14, 37, 45, 40, 21, 47, 40, 49, 49, 11, 19, 40, 35, 21, 24, 25, 49, 47, 12, 34, 27, 23, 18, 40, 41, 28, 26, 12, 29, 15, 40, 49, 41, 23, 22
            |30, 29, 48, 35, 9, 0, 26, 13, 23, 34, 22, 27, 9, 26, 20, 35, 46, 34, 43, 42, 15, 23, 31, 44, 29, 46, 38, 45, 43, 2, 18, 47, 41, 48, 5, 45, 11, 27, 54, 6, 46, 31, 5, 27, 36, 29, 28, 7, 37, 35, 38, 21, 6, 29, 27, 23, 25, 23, 36, 29, 3, 12, 8, 35, 33, 19, 23, 28, 43, 35, 19, 42, 35, 44, 42, 13, 17, 40, 27, 19, 15, 20, 42, 42, 20, 29, 17, 21, 11, 40, 36, 25, 24, 11, 30, 6, 33, 44, 35, 14, 15
            |4, 11, 30, 37, 21, 26, 0, 15, 35, 21, 4, 28, 34, 32, 23, 29, 25, 37, 37, 28, 39, 16, 32, 45, 4, 24, 16, 25, 47, 25, 11, 27, 49, 36, 24, 46, 16, 4, 36, 31, 27, 6, 30, 2, 26, 14, 11, 24, 17, 18, 15, 5, 25, 8, 27, 26, 2, 10, 40, 41, 23, 35, 33, 42, 20, 8, 14, 40, 31, 33, 15, 38, 33, 40, 45, 13, 16, 22, 38, 16, 33, 24, 46, 38, 13, 29, 38, 17, 36, 22, 33, 20, 15, 15, 12, 27, 36, 42, 37, 37, 27
            |19, 16, 43, 39, 6, 13, 15, 0, 31, 30, 12, 30, 22, 31, 23, 35, 39, 38, 43, 38, 28, 21, 34, 48, 18, 38, 30, 38, 48, 12, 13, 40, 48, 45, 14, 49, 9, 18, 49, 17, 40, 21, 18, 16, 34, 16, 21, 9, 30, 29, 29, 11, 11, 16, 29, 26, 16, 17, 41, 37, 11, 25, 21, 42, 29, 7, 10, 37, 40, 37, 17, 44, 37, 46, 47, 7, 16, 34, 35, 17, 26, 23, 47, 44, 7, 32, 29, 19, 23, 35, 38, 24, 21, 9, 23, 17, 38, 47, 39, 26, 22
            |38, 44, 40, 14, 31, 23, 35, 31, 0, 27, 31, 12, 23, 6, 12, 21, 42, 13, 25, 31, 20, 20, 13, 22, 37, 44, 37, 40, 20, 26, 23, 43, 17, 34, 19, 23, 22, 33, 44, 26, 40, 37, 22, 37, 25, 45, 28, 30, 35, 30, 39, 30, 29, 42, 13, 10, 33, 26, 13, 7, 22, 17, 21, 12, 27, 33, 40, 6, 31, 17, 20, 24, 18, 25, 19, 25, 19, 34, 4, 19, 10, 11, 19, 24, 38, 13, 13, 18, 26, 35, 19, 18, 22, 23, 29, 18, 12, 24, 14, 19, 9
            |21, 32, 14, 21, 35, 34, 21, 30, 27, 0, 20, 15, 40, 21, 17, 10, 15, 22, 17, 8, 42, 11, 17, 27, 20, 17, 12, 13, 30, 35, 18, 16, 34, 15, 30, 27, 24, 17, 20, 40, 13, 18, 37, 22, 5, 35, 10, 36, 9, 4, 15, 21, 37, 28, 14, 17, 19, 13, 26, 32, 31, 38, 38, 28, 1, 26, 34, 31, 10, 16, 15, 18, 15, 21, 29, 24, 17, 7, 28, 15, 32, 17, 30, 18, 32, 15, 37, 14, 43, 8, 15, 10, 10, 24, 9, 32, 21, 23, 21, 40, 24
            |8, 13, 31, 34, 18, 22, 4, 12, 31, 20, 0, 25, 31, 29, 19, 27, 26, 34, 35, 28, 36, 14, 29, 43, 7, 26, 17, 26, 44, 22, 8, 28, 45, 35, 20, 43, 12, 6, 37, 27, 28, 9, 27, 6, 25, 16, 10, 21, 18, 18, 17, 1, 22, 11, 24, 23, 4, 8, 37, 38, 19, 31, 29, 39, 19, 6, 14, 37, 30, 31, 11, 36, 31, 38, 43, 9, 12, 23, 34, 12, 29, 20, 43, 36, 12, 26, 34, 13, 33, 23, 31, 17, 13, 11, 12, 23, 33, 40, 34, 33, 23
            |30, 38, 28, 9, 32, 27, 28, 30, 12, 15, 25, 0, 30, 6, 7, 9, 30, 9, 16, 19, 30, 11, 4, 19, 29, 32, 26, 28, 19, 29, 18, 31, 21, 23, 22, 19, 21, 25, 32, 32, 28, 28, 28, 30, 13, 40, 19, 32, 24, 19, 28, 25, 32, 35, 1, 4, 26, 18, 13, 17, 25, 26, 28, 15, 15, 29, 37, 16, 19, 8, 14, 15, 8, 17, 18, 22, 14, 22, 13, 13, 19, 7, 18, 15, 34, 2, 24, 11, 34, 23, 9, 8, 13, 21, 19, 23, 8, 17, 9, 28, 13
            |39, 38, 54, 37, 17, 9, 34, 22, 23, 40, 31, 30, 0, 28, 25, 39, 53, 36, 46, 47, 7, 30, 34, 45, 38, 54, 45, 52, 43, 10, 26, 55, 39, 52, 11, 46, 19, 36, 60, 6, 53, 40, 4, 36, 42, 38, 35, 15, 45, 42, 46, 29, 13, 38, 31, 26, 34, 31, 36, 26, 11, 6, 2, 35, 40, 28, 31, 26, 48, 38, 26, 46, 38, 47, 42, 21, 23, 47, 26, 25, 13, 24, 42, 45, 29, 32, 12, 27, 3, 47, 40, 31, 31, 20, 37, 8, 35, 46, 37, 6, 17
            |34, 42, 34, 9, 33, 26, 32, 31, 6, 21, 29, 6, 28, 0, 9, 14, 36, 8, 19, 25, 26, 16, 6, 18, 34, 38, 32, 34, 17, 28, 21, 37, 17, 28, 21, 19, 22, 30, 38, 30, 34, 33, 26, 34, 19, 44, 24, 32, 30, 25, 34, 28, 32, 39, 7, 6, 30, 22, 10, 11, 25, 22, 25, 11, 21, 32, 40, 10, 25, 11, 17, 18, 11, 19, 16, 24, 17, 28, 7, 16, 15, 8, 16, 18, 37, 7, 19, 15, 31, 29, 13, 13, 18, 22, 25, 21, 7, 18, 9, 24, 11
            |26, 33, 31, 16, 25, 20, 23, 23, 12, 17, 19, 7, 25, 9, 0, 15, 31, 16, 22, 23, 25, 8, 11, 26, 25, 33, 25, 29, 26, 22, 12, 32, 26, 28, 16, 26, 14, 21, 36, 25, 30, 25, 22, 25, 17, 35, 16, 25, 24, 19, 27, 19, 25, 30, 7, 4, 21, 14, 19, 19, 18, 21, 22, 20, 16, 23, 31, 18, 24, 15, 8, 22, 15, 24, 24, 16, 8, 24, 15, 7, 15, 1, 25, 22, 28, 9, 21, 6, 28, 25, 16, 7, 10, 14, 17, 17, 15, 24, 16, 23, 8
            |30, 40, 20, 11, 39, 35, 29, 35, 21, 10, 27, 9, 39, 14, 15, 0, 24, 12, 8, 10, 39, 14, 9, 17, 29, 26, 22, 21, 20, 37, 22, 24, 24, 13, 30, 17, 27, 26, 24, 40, 20, 28, 37, 31, 6, 43, 19, 39, 20, 15, 25, 28, 39, 37, 9, 13, 27, 20, 16, 25, 33, 35, 37, 19, 11, 33, 41, 24, 10, 6, 18, 9, 5, 11, 18, 28, 20, 16, 21, 18, 28, 15, 19, 9, 39, 8, 33, 16, 42, 17, 4, 11, 15, 27, 18, 31, 12, 13, 11, 37, 22
            |22, 33, 9, 35, 45, 46, 25, 39, 42, 15, 26, 30, 53, 36, 31, 24, 0, 36, 28, 15, 56, 24, 32, 40, 22, 3, 9, 3, 43, 47, 28, 2, 48, 19, 43, 39, 35, 21, 13, 52, 6, 19, 50, 25, 18, 36, 18, 46, 8, 12, 10, 28, 48, 29, 29, 32, 23, 23, 40, 48, 43, 52, 51, 43, 16, 32, 39, 47, 17, 30, 27, 29, 29, 31, 42, 34, 30, 8, 44, 28, 47, 32, 43, 30, 37, 30, 52, 27, 56, 7, 28, 25, 22, 35, 16, 45, 36, 34, 35, 54, 39
            |39, 47, 31, 1, 41, 34, 37, 38, 13, 22, 34, 9, 36, 8, 16, 12, 36, 0, 13, 22, 33, 21, 5, 10, 38, 38, 34, 33, 10, 36, 27, 36, 13, 23, 29, 11, 29, 34, 35, 38, 32, 37, 34, 39, 18, 50, 27, 40, 31, 26, 36, 34, 39, 45, 10, 12, 35, 27, 4, 14, 32, 30, 33, 7, 22, 38, 46, 13, 22, 6, 23, 12, 7, 12, 9, 31, 23, 28, 11, 22, 23, 15, 9, 11, 44, 8, 26, 21, 39, 29, 8, 17, 22, 30, 27, 29, 1, 11, 1, 32, 19
            |37, 48, 21, 11, 47, 43, 37, 43, 25, 17, 35, 16, 46, 19, 22, 8, 28, 13, 0, 13, 45, 23, 13, 12, 37, 30, 28, 25, 16, 44, 31, 27, 22, 11, 38, 11, 35, 34, 23, 47, 23, 35, 44, 39, 12, 51, 26, 47, 26, 21, 31, 36, 47, 45, 15, 20, 35, 28, 16, 27, 40, 41, 44, 19, 18, 41, 49, 26, 11, 8, 26, 1, 8, 4, 15, 36, 28, 21, 24, 26, 34, 22, 16, 2, 47, 14, 38, 24, 49, 22, 6, 19, 23, 35, 25, 38, 13, 6, 11, 43, 28
            |28, 39, 9, 21, 43, 42, 28, 38, 31, 8, 28, 19, 47, 25, 23, 10, 15, 22, 13, 0, 48, 18, 19, 25, 27, 17, 16, 12, 28, 43, 26, 14, 34, 7, 37, 24, 32, 25, 14, 47, 10, 25, 44, 30, 6, 42, 18, 44, 14, 10, 19, 29, 45, 35, 18, 22, 26, 21, 26, 35, 39, 44, 45, 29, 9, 34, 42, 34, 2, 16, 22, 14, 15, 17, 27, 32, 25, 8, 31, 23, 38, 23, 28, 15, 40, 18, 43, 21, 50, 9, 14, 17, 18, 32, 16, 39, 22, 19, 21, 46, 30
            |44, 44, 56, 35, 24, 15, 39, 28, 20, 42, 36, 30, 7, 26, 25, 39, 56, 33, 45, 48, 0, 32, 32, 42, 43, 57, 49, 54, 39, 17, 29, 57, 35, 53, 15, 43, 23, 40, 62, 13, 55, 44, 10, 41, 42, 45, 38, 22, 48, 44, 50, 34, 20, 44, 31, 26, 39, 35, 33, 22, 17, 4, 7, 31, 41, 34, 38, 22, 49, 37, 29, 44, 37, 45, 39, 26, 26, 49, 23, 28, 11, 25, 38, 44, 36, 32, 7, 29, 9, 50, 39, 32, 34, 24, 40, 12, 32, 44, 35, 2, 18
            |18, 27, 25, 21, 25, 23, 16, 21, 20, 11, 14, 11, 30, 16, 8, 14, 24, 21, 23, 18, 32, 0, 16, 29, 17, 25, 17, 22, 30, 25, 8, 25, 32, 25, 19, 30, 14, 14, 31, 29, 23, 17, 26, 18, 13, 29, 8, 26, 16, 12, 19, 14, 27, 24, 11, 10, 14, 6, 24, 26, 21, 27, 28, 26, 10, 18, 27, 25, 20, 17, 4, 23, 17, 25, 29, 14, 7, 17, 23, 4, 22, 9, 30, 23, 24, 13, 28, 3, 33, 18, 17, 4, 2, 13, 9, 21, 20, 26, 21, 30, 15
            |34, 43, 28, 5, 37, 31, 32, 34, 13, 17, 29, 4, 34, 6, 11, 9, 32, 5, 13, 19, 32, 16, 0, 14, 33, 34, 29, 29, 15, 33, 22, 32, 17, 21, 26, 15, 25, 29, 32, 35, 28, 32, 32, 34, 14, 45, 22, 36, 26, 21, 31, 29, 36, 40, 5, 8, 30, 22, 9, 16, 29, 29, 31, 11, 17, 33, 42, 15, 19, 4, 18, 12, 5, 13, 13, 27, 19, 24, 13, 17, 21, 11, 14, 12, 39, 3, 26, 16, 37, 25, 6, 12, 17, 25, 22, 26, 4, 13, 5, 30, 16
            |47, 56, 33, 9, 51, 44, 45, 48, 22, 27, 43, 19, 45, 18, 26, 17, 40, 10, 12, 25, 42, 29, 14, 0, 46, 42, 39, 37, 4, 46, 37, 39, 12, 23, 39, 1, 39, 42, 35, 48, 35, 45, 44, 48, 23, 59, 35, 50, 37, 32, 42, 43, 50, 53, 19, 22, 43, 36, 9, 21, 43, 39, 43, 11, 28, 48, 56, 21, 24, 12, 32, 11, 13, 9, 4, 41, 33, 33, 20, 32, 32, 25, 5, 10, 53, 17, 35, 30, 48, 34, 13, 26, 31, 40, 35, 39, 11, 6, 9, 41, 29
            |1, 12, 28, 38, 25, 29, 4, 18, 37, 20, 7, 29, 38, 34, 25, 29, 22, 38, 37, 27, 43, 17, 33, 46, 0, 21, 13, 22, 48, 29, 14, 24, 50, 34, 28, 46, 19, 4, 34, 34, 25, 3, 34, 3, 25, 15, 11, 27, 15, 17, 12, 9, 29, 8, 28, 28, 4, 11, 42, 43, 27, 38, 36, 44, 19, 11, 17, 42, 29, 34, 17, 37, 33, 40, 46, 17, 18, 20, 40, 18, 36, 26, 47, 38, 16, 30, 41, 18, 40, 20, 33, 21, 16, 18, 12, 31, 37, 42, 38, 41, 29
            |20, 32, 11, 37, 44, 46, 24, 38, 44, 17, 26, 32, 54, 38, 33, 26, 3, 38, 30, 17, 57, 25, 34, 42, 21, 0, 8, 6, 46, 47, 28, 4, 51, 22, 43, 42, 35, 20, 16, 52, 8, 17, 50, 24, 20, 35, 19, 46, 9, 13, 9, 27, 47, 28, 31, 34, 22, 23, 42, 49, 43, 52, 52, 45, 17, 31, 37, 48, 19, 32, 28, 31, 31, 34, 44, 34, 31, 10, 45, 29, 48, 34, 45, 32, 36, 32, 53, 28, 56, 9, 31, 26, 23, 35, 17, 45, 38, 37, 37, 55, 40
            |13, 25, 15, 33, 36, 38, 16, 30, 37, 12, 17, 26, 45, 32, 25, 22, 9, 34, 28, 16, 49, 17, 29, 39, 13, 8, 0, 9, 42, 38, 20, 11, 46, 23, 35, 39, 27, 12, 21, 43, 12, 10, 42, 16, 17, 28, 10, 38, 3, 8, 3, 19, 39, 21, 25, 27, 14, 14, 38, 43, 35, 44, 44, 40, 12, 23, 30, 42, 19, 28, 20, 29, 27, 32, 41, 25, 22, 8, 39, 21, 40, 26, 42, 30, 28, 26, 45, 20, 48, 8, 27, 19, 16, 26, 9, 37, 33, 34, 33, 47, 32
            |22, 34, 6, 32, 44, 45, 25, 38, 40, 13, 26, 28, 52, 34, 29, 21, 3, 33, 25, 12, 54, 22, 29, 37, 22, 6, 9, 0, 40, 45, 27, 3, 45, 16, 41, 36, 34, 21, 12, 50, 3, 19, 48, 25, 15, 37, 17, 45, 8, 10, 11, 27, 47, 30, 27, 30, 23, 21, 37, 45, 42, 50, 50, 40, 13, 32, 39, 44, 13, 27, 25, 26, 26, 28, 39, 33, 28, 5, 41, 26, 44, 30, 40, 27, 37, 27, 50, 25, 54, 4, 25, 22, 21, 33, 15, 43, 33, 31, 32, 52, 37
            |48, 57, 37, 10, 50, 43, 47, 48, 20, 30, 44, 19, 43, 17, 26, 20, 43, 10, 16, 28, 39, 30, 15, 4, 48, 46, 42, 40, 0, 45, 37, 43, 7, 27, 38, 6, 39, 44, 39, 46, 38, 46, 42, 49, 26, 60, 37, 49, 39, 34, 45, 44, 49, 54, 20, 22, 45, 37, 7, 18, 41, 37, 41, 8, 30, 48, 56, 17, 27, 14, 33, 15, 15, 13, 1, 41, 33, 36, 17, 32, 30, 25, 1, 14, 54, 18, 32, 31, 46, 37, 15, 27, 32, 39, 37, 37, 11, 10, 10, 38, 28
            |30, 28, 49, 37, 8, 2, 25, 12, 26, 35, 22, 29, 10, 28, 22, 37, 47, 36, 44, 43, 17, 25, 33, 46, 29, 47, 38, 45, 45, 0, 18, 48, 43, 49, 7, 47, 11, 27, 55, 5, 47, 31, 6, 27, 38, 28, 28, 5, 38, 36, 38, 21, 4, 28, 29, 25, 26, 24, 38, 31, 4, 14, 9, 38, 34, 19, 21, 30, 44, 37, 21, 44, 37, 46, 44, 13, 18, 41, 29, 20, 17, 22, 44, 44, 19, 31, 19, 22, 11, 41, 38, 27, 26, 12, 30, 8, 35, 46, 37, 15, 17
            |15, 21, 31, 27, 18, 18, 11, 13, 23, 18, 8, 18, 26, 21, 12, 22, 28, 27, 31, 26, 29, 8, 22, 37, 14, 28, 20, 27, 37, 18, 0, 30, 38, 32, 15, 37, 7, 11, 37, 23, 29, 15, 22, 14, 21, 23, 10, 19, 20, 17, 21, 7, 20, 18, 17, 16, 10, 6, 30, 30, 15, 25, 24, 32, 17, 11, 19, 29, 27, 25, 4, 31, 25, 33, 36, 6, 4, 22, 26, 5, 22, 13, 36, 31, 17, 20, 27, 7, 28, 23, 25, 11, 8, 6, 12, 17, 26, 34, 27, 27, 15
            |24, 35, 7, 35, 46, 47, 27, 40, 43, 16, 28, 31, 55, 37, 32, 24, 2, 36, 27, 14, 57, 25, 32, 39, 24, 4, 11, 3, 43, 48, 30, 0, 48, 18, 44, 39, 37, 23, 11, 53, 4, 21, 51, 27, 18, 38, 20, 48, 10, 13, 12, 30, 49, 31, 30, 33, 25, 24, 40, 48, 45, 53, 53, 43, 16, 34, 41, 47, 16, 30, 28, 28, 29, 31, 42, 36, 31, 9, 44, 29, 47, 33, 43, 29, 39, 30, 53, 28, 57, 8, 28, 25, 24, 36, 18, 46, 36, 34, 35, 55, 40
            |51, 59, 43, 13, 49, 41, 49, 48, 17, 34, 45, 21, 39, 17, 26, 24, 48, 13, 22, 34, 35, 32, 17, 12, 50, 51, 46, 45, 7, 43, 38, 48, 0, 34, 36, 13, 39, 46, 46, 43, 44, 49, 39, 51, 30, 61, 40, 47, 44, 39, 49, 45, 47, 56, 22, 23, 47, 39, 9, 13, 40, 33, 38, 6, 34, 49, 57, 13, 33, 18, 34, 21, 19, 20, 8, 41, 34, 41, 14, 33, 27, 25, 7, 20, 54, 20, 28, 32, 42, 42, 20, 29, 34, 39, 40, 35, 13, 17, 13, 34, 26
            |34, 46, 11, 22, 50, 48, 36, 45, 34, 15, 35, 23, 52, 28, 28, 13, 19, 23, 11, 7, 53, 25, 21, 23, 34, 22, 23, 16, 27, 49, 32, 18, 34, 0, 43, 22, 38, 32, 12, 53, 14, 32, 50, 37, 11, 49, 25, 51, 20, 17, 26, 36, 51, 42, 22, 26, 33, 28, 27, 37, 45, 49, 50, 30, 16, 41, 49, 36, 5, 17, 29, 12, 17, 14, 26, 39, 31, 15, 34, 29, 42, 28, 27, 13, 47, 21, 47, 27, 56, 15, 15, 22, 24, 38, 23, 44, 24, 17, 22, 51, 35
            |29, 30, 44, 30, 13, 5, 24, 14, 19, 30, 20, 22, 11, 21, 16, 30, 43, 29, 38, 37, 15, 19, 26, 39, 28, 43, 35, 41, 38, 7, 15, 44, 36, 43, 0, 40, 8, 25, 50, 10, 42, 29, 7, 26, 32, 30, 24, 11, 34, 31, 35, 19, 10, 29, 22, 18, 24, 20, 31, 24, 4, 11, 9, 31, 29, 19, 24, 24, 38, 30, 16, 37, 30, 39, 37, 11, 13, 36, 22, 15, 11, 15, 37, 37, 22, 24, 15, 16, 13, 37, 31, 21, 21, 9, 26, 3, 28, 39, 30, 13, 10
            |47, 57, 33, 10, 51, 45, 46, 49, 23, 27, 43, 19, 46, 19, 26, 17, 39, 11, 11, 24, 43, 30, 15, 1, 46, 42, 39, 36, 6, 47, 37, 39, 13, 22, 40, 0, 40, 43, 34, 49, 34, 45, 45, 48, 22, 59, 35, 51, 36, 32, 42, 44, 50, 53, 20, 23, 43, 36, 10, 22, 43, 41, 44, 13, 28, 48, 56, 22, 23, 12, 33, 10, 13, 8, 6, 42, 34, 32, 21, 32, 33, 26, 6, 9, 54, 17, 36, 30, 49, 33, 13, 26, 31, 40, 35, 40, 12, 5, 10, 42, 30
            |20, 22, 38, 30, 12, 11, 16, 9, 22, 24, 12, 21, 19, 22, 14, 27, 35, 29, 35, 32, 23, 14, 25, 39, 19, 35, 27, 34, 39, 11, 7, 37, 39, 38, 8, 40, 0, 17, 44, 16, 36, 21, 15, 18, 27, 24, 17, 12, 27, 24, 27, 11, 13, 21, 20, 17, 16, 13, 32, 28, 8, 19, 17, 32, 23, 12, 18, 28, 34, 28, 9, 35, 28, 37, 38, 3, 7, 29, 25, 9, 18, 14, 38, 35, 16, 23, 22, 11, 21, 30, 29, 16, 14, 1, 19, 11, 28, 38, 30, 21, 13
            |4, 15, 26, 34, 24, 27, 4, 18, 33, 17, 6, 25, 36, 30, 21, 26, 21, 34, 34, 25, 40, 14, 29, 42, 4, 20, 12, 21, 44, 27, 11, 23, 46, 32, 25, 43, 17, 0, 33, 33, 24, 4, 32, 5, 22, 18, 7, 26, 13, 14, 11, 7, 28, 11, 24, 24, 2, 8, 38, 40, 25, 36, 34, 40, 16, 11, 18, 39, 27, 30, 13, 34, 30, 37, 43, 15, 15, 18, 36, 14, 33, 22, 43, 35, 16, 26, 38, 15, 38, 18, 30, 17, 12, 16, 9, 28, 34, 39, 34, 38, 26
            |34, 46, 6, 34, 55, 54, 36, 49, 44, 20, 37, 32, 60, 38, 36, 24, 13, 35, 23, 14, 62, 31, 32, 35, 34, 16, 21, 12, 39, 55, 37, 11, 46, 12, 50, 34, 44, 33, 0, 60, 9, 31, 57, 37, 19, 49, 28, 56, 19, 20, 23, 39, 57, 42, 32, 36, 35, 32, 38, 48, 51, 57, 58, 41, 21, 43, 51, 47, 13, 29, 35, 24, 28, 26, 38, 43, 37, 15, 45, 35, 51, 37, 39, 25, 49, 31, 56, 34, 63, 15, 27, 30, 30, 43, 26, 52, 35, 29, 34, 59, 44
            |35, 33, 54, 39, 12, 6, 31, 17, 26, 40, 27, 32, 6, 30, 25, 40, 52, 38, 47, 47, 13, 29, 35, 48, 34, 52, 43, 50, 46, 5, 23, 53, 43, 53, 10, 49, 16, 33, 60, 0, 52, 37, 4, 32, 42, 33, 33, 9, 43, 40, 44, 26, 7, 34, 32, 28, 31, 29, 39, 31, 8, 11, 6, 38, 39, 24, 26, 30, 48, 40, 25, 47, 40, 49, 45, 18, 22, 45, 30, 24, 17, 25, 45, 47, 24, 34, 17, 26, 6, 46, 41, 30, 30, 17, 35, 9, 37, 48, 39, 12, 19
            |25, 37, 3, 31, 46, 46, 27, 40, 40, 13, 28, 28, 53, 34, 30, 20, 6, 32, 23, 10, 55, 23, 28, 35, 25, 8, 12, 3, 38, 47, 29, 4, 44, 14, 42, 34, 36, 24, 9, 52, 0, 22, 50, 28, 14, 40, 19, 48, 10, 11, 14, 30, 49, 33, 27, 30, 26, 23, 36, 44, 43, 51, 51, 39, 14, 34, 42, 43, 11, 26, 27, 24, 25, 26, 37, 35, 30, 6, 41, 28, 45, 31, 38, 25, 40, 27, 50, 26, 56, 6, 24, 23, 22, 35, 17, 45, 32, 29, 31, 53, 37
            |3, 15, 25, 37, 28, 31, 6, 21, 37, 18, 9, 28, 40, 33, 25, 28, 19, 37, 35, 25, 44, 17, 32, 45, 3, 17, 10, 19, 46, 31, 15, 21, 49, 32, 29, 45, 21, 4, 31, 37, 22, 0, 36, 6, 23, 18, 9, 30, 12, 14, 9, 11, 31, 11, 27, 28, 6, 11, 41, 43, 29, 40, 38, 43, 17, 14, 20, 42, 27, 33, 17, 36, 32, 38, 45, 19, 19, 17, 40, 18, 37, 26, 46, 36, 19, 29, 42, 18, 42, 17, 32, 20, 15, 20, 10, 32, 36, 40, 37, 42, 30
            |35, 34, 51, 35, 14, 5, 30, 18, 22, 37, 27, 28, 4, 26, 22, 37, 50, 34, 44, 44, 10, 26, 32, 44, 34, 50, 42, 48, 42, 6, 22, 51, 39, 50, 7, 45, 15, 32, 57, 4, 50, 36, 0, 32, 39, 34, 31, 11, 41, 38, 42, 25, 9, 34, 28, 24, 30, 27, 35, 27, 7, 8, 3, 34, 36, 24, 27, 26, 45, 36, 23, 43, 36, 45, 41, 17, 20, 43, 25, 22, 13, 22, 41, 43, 25, 30, 13, 23, 6, 44, 37, 27, 28, 16, 33, 5, 33, 44, 35, 9, 15
            |4, 9, 31, 39, 22, 27, 2, 16, 37, 22, 6, 30, 36, 34, 25, 31, 25, 39, 39, 30, 41, 18, 34, 48, 3, 24, 16, 25, 49, 27, 14, 27, 51, 37, 26, 48, 18, 5, 37, 32, 28, 6, 32, 0, 27, 12, 13, 25, 18, 19, 15, 7, 26, 6, 29, 28, 4, 12, 43, 43, 25, 37, 35, 44, 22, 9, 14, 43, 32, 35, 17, 39, 35, 42, 47, 15, 18, 23, 40, 18, 35, 26, 48, 40, 13, 31, 40, 19, 38, 23, 35, 22, 17, 17, 14, 29, 38, 44, 39, 39, 29
            |26, 37, 14, 17, 39, 36, 26, 34, 25, 5, 25, 13, 42, 19, 17, 6, 18, 18, 12, 6, 42, 13, 14, 23, 25, 20, 17, 15, 26, 38, 21, 18, 30, 11, 32, 22, 27, 22, 19, 42, 14, 23, 39, 27, 0, 40, 15, 39, 14, 9, 19, 25, 40, 33, 13, 16, 23, 17, 22, 30, 34, 38, 39, 25, 6, 30, 39, 29, 7, 12, 17, 13, 11, 16, 24, 27, 20, 10, 26, 18, 32, 18, 25, 13, 36, 13, 37, 16, 45, 11, 10, 11, 13, 27, 13, 33, 18, 18, 17, 40, 25
            |15, 3, 43, 50, 21, 29, 14, 16, 45, 35, 16, 40, 38, 44, 35, 43, 36, 50, 51, 42, 45, 29, 45, 59, 15, 35, 28, 37, 60, 28, 23, 38, 61, 49, 30, 59, 24, 18, 49, 33, 40, 18, 34, 12, 40, 0, 25, 24, 30, 32, 26, 16, 26, 7, 40, 38, 16, 23, 53, 52, 28, 41, 37, 54, 34, 12, 7, 51, 44, 47, 27, 51, 46, 54, 58, 21, 27, 35, 49, 28, 41, 35, 59, 52, 9, 42, 45, 29, 39, 35, 47, 33, 28, 23, 26, 33, 49, 56, 50, 43, 36
            |11, 22, 22, 27, 27, 28, 11, 21, 28, 10, 10, 19, 35, 24, 16, 19, 18, 27, 26, 18, 38, 8, 22, 35, 11, 19, 10, 17, 37, 28, 10, 20, 40, 25, 24, 35, 17, 7, 28, 33, 19, 9, 31, 13, 15, 25, 0, 28, 10, 8, 11, 11, 29, 18, 18, 18, 9, 4, 31, 35, 25, 34, 33, 34, 9, 16, 24, 34, 20, 23, 9, 27, 23, 30, 36, 16, 12, 13, 31, 10, 30, 17, 36, 27, 22, 20, 35, 10, 38, 13, 23, 11, 6, 16, 2, 27, 27, 31, 27, 36, 22
            |28, 24, 50, 41, 3, 7, 24, 9, 30, 36, 21, 32, 15, 32, 25, 39, 46, 40, 47, 44, 22, 26, 36, 50, 27, 46, 38, 45, 49, 5, 19, 48, 47, 51, 11, 51, 12, 26, 56, 9, 48, 30, 11, 25, 39, 24, 28, 0, 38, 36, 37, 19, 2, 25, 32, 28, 24, 24, 42, 36, 8, 19, 14, 42, 35, 16, 17, 35, 46, 40, 22, 47, 40, 49, 48, 13, 19, 41, 34, 22, 22, 25, 48, 47, 15, 34, 24, 24, 15, 42, 41, 28, 27, 13, 31, 13, 39, 49, 41, 20, 21
            |15, 27, 13, 30, 36, 37, 17, 30, 35, 9, 18, 24, 45, 30, 24, 20, 8, 31, 26, 14, 48, 16, 26, 37, 15, 9, 3, 8, 39, 38, 20, 10, 44, 20, 34, 36, 27, 13, 19, 43, 10, 12, 41, 18, 14, 30, 10, 38, 0, 5, 6, 20, 39, 23, 23, 25, 16, 14, 35, 41, 35, 43, 43, 38, 9, 24, 31, 40, 16, 26, 19, 26, 25, 29, 38, 26, 22, 5, 37, 20, 39, 25, 39, 27, 30, 24, 44, 19, 48, 5, 24, 17, 14, 26, 8, 37, 31, 32, 30, 46, 31
            |17, 29, 13, 25, 35, 35, 18, 29, 30, 4, 18, 19, 42, 25, 19, 15, 12, 26, 21, 10, 44, 12, 21, 32, 17, 13, 8, 10, 34, 36, 17, 13, 39, 17, 31, 32, 24, 14, 20, 40, 11, 14, 38, 19, 9, 32, 8, 36, 5, 0, 10, 19, 37, 25, 18, 20, 16, 12, 30, 36, 32, 40, 40, 33, 4, 24, 32, 35, 13, 21, 16, 22, 20, 25, 33, 24, 18, 5, 32, 16, 34, 20, 34, 23, 30, 19, 40, 15, 45, 6, 19, 13, 11, 24, 6, 33, 26, 27, 25, 42, 27
            |11, 23, 17, 35, 35, 38, 15, 29, 39, 15, 17, 28, 46, 34, 27, 25, 10, 36, 31, 19, 50, 19, 31, 42, 12, 9, 3, 11, 45, 38, 21, 12, 49, 26, 35, 42, 27, 11, 23, 44, 14, 9, 42, 15, 19, 26, 11, 37, 6, 10, 0, 18, 39, 19, 27, 29, 14, 15, 40, 45, 35, 45, 44, 43, 14, 22, 28, 44, 21, 31, 21, 32, 30, 35, 43, 26, 23, 11, 41, 22, 41, 28, 44, 33, 27, 29, 47, 21, 49, 10, 30, 21, 17, 27, 10, 38, 36, 37, 35, 48, 34
            |9, 13, 32, 34, 17, 21, 5, 11, 30, 21, 1, 25, 29, 28, 19, 28, 28, 34, 36, 29, 34, 14, 29, 43, 9, 27, 19, 27, 44, 21, 7, 30, 45, 36, 19, 44, 11, 7, 39, 26, 30, 11, 25, 7, 25, 16, 11, 19, 20, 19, 18, 0, 21, 11, 24, 23, 5, 8, 37, 37, 18, 30, 28, 39, 20, 5, 13, 36, 31, 31, 11, 36, 31, 39, 43, 8, 12, 24, 34, 12, 28, 20, 43, 37, 11, 26, 33, 13, 31, 24, 31, 17, 13, 10, 13, 22, 33, 40, 34, 32, 22
            |30, 26, 51, 40, 5, 6, 25, 11, 29, 37, 22, 32, 13, 32, 25, 39, 48, 39, 47, 45, 20, 27, 36, 50, 29, 47, 39, 47, 49, 4, 20, 49, 47, 51, 10, 50, 13, 28, 57, 7, 49, 31, 9, 26, 40, 26, 29, 2, 39, 37, 39, 21, 0, 27, 32, 28, 26, 25, 41, 34, 7, 17, 13, 41, 36, 18, 19, 34, 46, 40, 22, 47, 40, 49, 47, 14, 20, 42, 33, 22, 21, 25, 48, 47, 17, 34, 23, 24, 13, 43, 41, 29, 27, 13, 32, 12, 38, 49, 40, 18, 21
            |8, 4, 36, 45, 22, 29, 8, 16, 42, 28, 11, 35, 38, 39, 30, 37, 29, 45, 45, 35, 44, 24, 40, 53, 8, 28, 21, 30, 54, 28, 18, 31, 56, 42, 29, 53, 21, 11, 42, 34, 33, 11, 34, 6, 33, 7, 18, 25, 23, 25, 19, 11, 27, 0, 35, 34, 10, 18, 48, 48, 27, 40, 37, 50, 27, 10, 11, 47, 38, 41, 22, 45, 41, 48, 53, 18, 23, 28, 45, 23, 39, 31, 54, 46, 11, 37, 44, 24, 40, 28, 41, 28, 23, 20, 20, 32, 44, 50, 45, 42, 33
            |29, 38, 27, 10, 32, 27, 27, 29, 13, 14, 24, 1, 31, 7, 7, 9, 29, 10, 15, 18, 31, 11, 5, 19, 28, 31, 25, 27, 20, 29, 17, 30, 22, 22, 22, 20, 20, 24, 32, 32, 27, 27, 28, 29, 13, 40, 18, 32, 23, 18, 27, 24, 32, 35, 0, 4, 25, 17, 14, 18, 25, 27, 29, 16, 14, 28, 37, 17, 18, 8, 13, 15, 8, 17, 18, 22, 14, 21, 14, 13, 20, 7, 19, 15, 34, 2, 25, 11, 34, 22, 9, 7, 12, 21, 18, 23, 9, 17, 10, 29, 13
            |29, 36, 31, 13, 29, 23, 26, 26, 10, 17, 23, 4, 26, 6, 4, 13, 32, 12, 20, 22, 26, 10, 8, 22, 28, 34, 27, 30, 22, 25, 16, 33, 23, 26, 18, 23, 17, 24, 36, 28, 30, 28, 24, 28, 16, 38, 18, 28, 25, 20, 29, 23, 28, 34, 4, 0, 24, 17, 15, 16, 21, 22, 24, 16, 17, 26, 34, 15, 23, 12, 11, 19, 12, 21, 21, 19, 11, 24, 12, 11, 16, 3, 21, 19, 32, 6, 21, 9, 30, 25, 13, 8, 12, 17, 19, 19, 11, 21, 13, 24, 9
            |5, 13, 28, 35, 22, 25, 2, 16, 33, 19, 4, 26, 34, 30, 21, 27, 23, 35, 35, 26, 39, 14, 30, 43, 4, 22, 14, 23, 45, 26, 10, 25, 47, 33, 24, 43, 16, 2, 35, 31, 26, 6, 30, 4, 23, 16, 9, 24, 16, 16, 14, 5, 26, 10, 25, 24, 0, 8, 38, 40, 23, 35, 33, 40, 18, 9, 16, 39, 28, 31, 13, 35, 31, 38, 43, 13, 14, 20, 36, 14, 32, 22, 44, 36, 14, 27, 37, 15, 36, 20, 31, 18, 13, 15, 10, 27, 34, 40, 35, 37, 25
            |12, 21, 25, 27, 23, 23, 10, 17, 26, 13, 8, 18, 31, 22, 14, 20, 23, 27, 28, 21, 35, 6, 22, 36, 11, 23, 14, 21, 37, 24, 6, 24, 39, 28, 20, 36, 13, 8, 32, 29, 23, 11, 27, 12, 17, 23, 4, 24, 14, 12, 15, 8, 25, 18, 17, 17, 8, 0, 31, 32, 21, 30, 29, 32, 12, 13, 22, 31, 23, 24, 6, 28, 23, 31, 35, 12, 8, 17, 28, 7, 26, 15, 36, 29, 19, 19, 32, 7, 34, 17, 23, 10, 5, 12, 6, 23, 26, 32, 27, 32, 19
            |42, 51, 35, 5, 43, 36, 40, 41, 13, 26, 37, 13, 36, 10, 19, 16, 40, 4, 16, 26, 33, 24, 9, 9, 42, 42, 38, 37, 7, 38, 30, 40, 9, 27, 31, 10, 32, 38, 38, 39, 36, 41, 35, 43, 22, 53, 31, 42, 35, 30, 40, 37, 41, 48, 14, 15, 38, 31, 0, 12, 34, 30, 34, 3, 26, 41, 49, 12, 25, 10, 26, 15, 11, 14, 6, 34, 26, 32, 10, 25, 23, 18, 6, 14, 47, 12, 26, 24, 39, 33, 12, 21, 26, 32, 31, 30, 4, 12, 5, 32, 21
            |44, 50, 44, 16, 37, 29, 41, 37, 7, 32, 38, 17, 26, 11, 19, 25, 48, 14, 27, 35, 22, 26, 16, 21, 43, 49, 43, 45, 18, 31, 30, 48, 13, 37, 24, 22, 28, 40, 48, 31, 44, 43, 27, 43, 30, 52, 35, 36, 41, 36, 45, 37, 34, 48, 18, 16, 40, 32, 12, 0, 28, 20, 25, 10, 32, 40, 47, 1, 35, 20, 27, 26, 21, 26, 17, 31, 25, 39, 4, 26, 14, 18, 17, 25, 44, 17, 15, 25, 29, 40, 22, 24, 28, 29, 35, 23, 14, 24, 16, 21, 16
            |28, 27, 45, 33, 9, 3, 23, 11, 22, 31, 19, 25, 11, 25, 18, 33, 43, 32, 40, 39, 17, 21, 29, 43, 27, 43, 35, 42, 41, 4, 15, 45, 40, 45, 4, 43, 8, 25, 51, 8, 43, 29, 7, 25, 34, 28, 25, 8, 35, 32, 35, 18, 7, 27, 25, 21, 23, 21, 34, 28, 0, 13, 10, 34, 31, 17, 21, 27, 40, 33, 17, 40, 33, 42, 40, 10, 14, 37, 26, 16, 15, 18, 41, 40, 19, 27, 18, 18, 13, 38, 34, 22, 22, 9, 27, 6, 31, 42, 33, 15, 14
            |39, 40, 52, 31, 21, 12, 35, 25, 17, 38, 31, 26, 6, 22, 21, 35, 52, 30, 41, 44, 4, 27, 29, 39, 38, 52, 44, 50, 37, 14, 25, 53, 33, 49, 11, 41, 19, 36, 57, 11, 51, 40, 8, 37, 38, 41, 34, 19, 43, 40, 45, 30, 17, 40, 27, 22, 35, 30, 30, 20, 13, 0, 5, 29, 37, 30, 34, 20, 45, 33, 25, 41, 34, 42, 36, 22, 22, 44, 20, 24, 7, 21, 36, 40, 32, 28, 6, 25, 9, 45, 35, 28, 29, 20, 36, 8, 29, 41, 31, 2, 13
            |37, 37, 52, 35, 17, 8, 33, 21, 21, 38, 29, 28, 2, 25, 22, 37, 51, 33, 44, 45, 7, 28, 31, 43, 36, 52, 44, 50, 41, 9, 24, 53, 38, 50, 9, 44, 17, 34, 58, 6, 51, 38, 3, 35, 39, 37, 33, 14, 43, 40, 44, 28, 13, 37, 29, 24, 33, 29, 34, 25, 10, 5, 0, 33, 37, 27, 31, 25, 46, 36, 24, 43, 36, 45, 40, 20, 21, 45, 24, 23, 11, 22, 40, 43, 28, 30, 11, 25, 5, 45, 37, 28, 29, 18, 35, 6, 32, 44, 35, 6, 15
            |44, 52, 38, 8, 43, 35, 42, 42, 12, 28, 39, 15, 35, 11, 20, 19, 43, 7, 19, 29, 31, 26, 11, 11, 44, 45, 40, 40, 8, 38, 32, 43, 6, 30, 31, 13, 32, 40, 41, 38, 39, 43, 34, 44, 25, 54, 34, 42, 38, 33, 43, 39, 41, 50, 16, 16, 40, 32, 3, 10, 34, 29, 33, 0, 29, 42, 50, 9, 28, 13, 28, 18, 14, 17, 7, 35, 28, 35, 9, 27, 22, 19, 7, 17, 48, 14, 24, 26, 38, 36, 15, 23, 28, 33, 34, 30, 7, 15, 8, 30, 21
            |20, 31, 15, 21, 34, 33, 20, 29, 27, 1, 19, 15, 40, 21, 16, 11, 16, 22, 18, 9, 41, 10, 17, 28, 19, 17, 12, 13, 30, 34, 17, 16, 34, 16, 29, 28, 23, 16, 21, 39, 14, 17, 36, 22, 6, 34, 9, 35, 9, 4, 14, 20, 36, 27, 14, 17, 18, 12, 26, 32, 31, 37, 37, 29, 0, 25, 33, 31, 11, 17, 14, 18, 16, 21, 29, 23, 17, 8, 28, 14, 31, 17, 30, 19, 31, 15, 37, 13, 43, 9, 15, 9, 9, 23, 8, 31, 22, 23, 21, 39, 24
            |12, 11, 37, 38, 14, 19, 8, 7, 33, 26, 6, 29, 28, 32, 23, 33, 32, 38, 41, 34, 34, 18, 33, 48, 11, 31, 23, 32, 48, 19, 11, 34, 49, 41, 19, 48, 12, 11, 43, 24, 34, 14, 24, 9, 30, 12, 16, 16, 24, 24, 22, 5, 18, 10, 28, 26, 9, 13, 41, 40, 17, 30, 27, 42, 25, 0, 9, 39, 36, 36, 15, 41, 35, 44, 47, 9, 15, 29, 36, 16, 29, 23, 47, 41, 6, 31, 34, 17, 30, 29, 36, 22, 18, 11, 18, 22, 37, 45, 38, 32, 24
            |17, 8, 44, 47, 14, 23, 14, 10, 40, 34, 14, 37, 31, 40, 31, 41, 39, 46, 49, 42, 38, 27, 42, 56, 17, 37, 30, 39, 56, 21, 19, 41, 57, 49, 24, 56, 18, 18, 51, 26, 42, 20, 27, 14, 39, 7, 24, 17, 31, 32, 28, 13, 19, 11, 37, 34, 16, 22, 49, 47, 21, 34, 31, 50, 33, 9, 0, 46, 44, 44, 24, 50, 44, 52, 55, 16, 23, 36, 44, 24, 35, 31, 55, 50, 3, 39, 39, 26, 32, 36, 44, 30, 26, 18, 26, 27, 45, 53, 47, 36, 31
            |43, 49, 43, 15, 37, 28, 40, 37, 6, 31, 37, 16, 26, 10, 18, 24, 47, 13, 26, 34, 22, 25, 15, 21, 42, 48, 42, 44, 17, 30, 29, 47, 13, 36, 24, 22, 28, 39, 47, 30, 43, 42, 26, 43, 29, 51, 34, 35, 40, 35, 44, 36, 34, 47, 17, 15, 39, 31, 12, 1, 27, 20, 25, 9, 31, 39, 46, 0, 34, 19, 26, 25, 20, 25, 17, 31, 25, 38, 3, 25, 14, 17, 16, 25, 43, 16, 15, 24, 29, 39, 21, 23, 27, 28, 34, 22, 13, 24, 15, 21, 15
            |30, 41, 10, 20, 45, 43, 31, 40, 31, 10, 30, 19, 48, 25, 24, 10, 17, 22, 11, 2, 49, 20, 19, 24, 29, 19, 19, 13, 27, 44, 27, 16, 33, 5, 38, 23, 34, 27, 13, 48, 11, 27, 45, 32, 7, 44, 20, 46, 16, 13, 21, 31, 46, 38, 18, 23, 28, 23, 25, 35, 40, 45, 46, 28, 11, 36, 44, 34, 0, 16, 24, 12, 15, 15, 26, 34, 27, 11, 31, 24, 38, 24, 27, 13, 42, 18, 43, 22, 51, 11, 13, 18, 19, 33, 18, 40, 22, 18, 20, 47, 31
            |35, 44, 25, 5, 40, 35, 33, 37, 17, 16, 31, 8, 38, 11, 15, 6, 30, 6, 8, 16, 37, 17, 4, 12, 34, 32, 28, 27, 14, 37, 25, 30, 18, 17, 30, 12, 28, 30, 29, 40, 26, 33, 36, 35, 12, 47, 23, 40, 26, 21, 31, 31, 40, 41, 8, 12, 31, 24, 10, 20, 33, 33, 36, 13, 17, 36, 44, 19, 16, 0, 21, 8, 1, 9, 13, 30, 22, 22, 16, 20, 26, 15, 13, 7, 42, 6, 30, 18, 41, 23, 2, 14, 19, 29, 23, 31, 6, 9, 5, 35, 21
            |18, 25, 29, 23, 21, 19, 15, 17, 20, 15, 11, 14, 26, 17, 8, 18, 27, 23, 26, 22, 29, 4, 18, 32, 17, 28, 20, 25, 33, 21, 4, 28, 34, 29, 16, 33, 9, 13, 35, 25, 27, 17, 23, 17, 17, 27, 9, 22, 19, 16, 21, 11, 22, 22, 13, 11, 13, 6, 26, 27, 17, 25, 24, 28, 14, 15, 24, 26, 24, 21, 0, 26, 20, 29, 31, 10, 3, 21, 23, 1, 20, 9, 32, 27, 21, 15, 26, 2, 29, 21, 21, 7, 5, 9, 11, 18, 22, 30, 23, 27, 13
            |38, 49, 22, 11, 47, 42, 38, 44, 24, 18, 36, 15, 46, 18, 22, 9, 29, 12, 1, 14, 44, 23, 12, 11, 37, 31, 29, 26, 15, 44, 31, 28, 21, 12, 37, 10, 35, 34, 24, 47, 24, 36, 43, 39, 13, 51, 27, 47, 26, 22, 32, 36, 47, 45, 15, 19, 35, 28, 15, 26, 40, 41, 43, 18, 18, 41, 50, 25, 12, 8, 26, 0, 7, 3, 14, 36, 28, 22, 23, 26, 34, 22, 15, 1, 47, 13, 38, 24, 49, 23, 6, 19, 23, 35, 26, 38, 13, 5, 11, 42, 28
            |34, 44, 24, 6, 40, 35, 33, 37, 18, 15, 31, 8, 38, 11, 15, 5, 29, 7, 8, 15, 37, 17, 5, 13, 33, 31, 27, 26, 15, 37, 25, 29, 19, 17, 30, 13, 28, 30, 28, 40, 25, 32, 36, 35, 11, 46, 23, 40, 25, 20, 30, 31, 40, 41, 8, 12, 31, 23, 11, 21, 33, 34, 36, 14, 16, 35, 44, 20, 15, 1, 20, 7, 0, 9, 13, 30, 22, 21, 17, 20, 26, 15, 14, 7, 41, 6, 31, 18, 41, 22, 1, 13, 18, 28, 22, 31, 7, 9, 6, 35, 21
            |41, 51, 25, 11, 49, 44, 40, 46, 25, 21, 38, 17, 47, 19, 24, 11, 31, 12, 4, 17, 45, 25, 13, 9, 40, 34, 32, 28, 13, 46, 33, 31, 20, 14, 39, 8, 37, 37, 26, 49, 26, 38, 45, 42, 16, 54, 30, 49, 29, 25, 35, 39, 49, 48, 17, 21, 38, 31, 14, 26, 42, 42, 45, 17, 21, 44, 52, 25, 15, 9, 29, 3, 9, 0, 12, 39, 30, 25, 24, 29, 35, 24, 13, 2, 50, 15, 38, 27, 50, 26, 8, 22, 26, 37, 29, 40, 13, 3, 11, 43, 30
            |47, 56, 36, 8, 49, 42, 45, 47, 19, 29, 43, 18, 42, 16, 24, 18, 42, 9, 15, 27, 39, 29, 13, 4, 46, 44, 41, 39, 1, 44, 36, 42, 8, 26, 37, 6, 38, 43, 38, 45, 37, 45, 41, 47, 24, 58, 36, 48, 38, 33, 43, 43, 47, 53, 18, 21, 43, 35, 6, 17, 40, 36, 40, 7, 29, 47, 55, 17, 26, 13, 31, 14, 13, 12, 0, 40, 32, 34, 16, 31, 29, 24, 1, 13, 52, 16, 32, 29, 45, 35, 14, 25, 30, 38, 35, 36, 9, 9, 8, 37, 27
            |18, 19, 37, 32, 11, 13, 13, 7, 25, 24, 9, 22, 21, 24, 16, 28, 34, 31, 36, 32, 26, 14, 27, 41, 17, 34, 25, 33, 41, 13, 6, 36, 41, 39, 11, 42, 3, 15, 43, 18, 35, 19, 17, 15, 27, 21, 16, 13, 26, 24, 26, 8, 14, 18, 22, 19, 13, 12, 34, 31, 10, 22, 20, 35, 23, 9, 16, 31, 34, 30, 10, 36, 30, 39, 40, 0, 8, 29, 28, 10, 21, 16, 40, 36, 13, 24, 25, 12, 23, 29, 31, 17, 14, 2, 18, 14, 30, 39, 32, 24, 16
            |19, 25, 31, 24, 19, 17, 16, 16, 19, 17, 12, 14, 23, 17, 8, 20, 30, 23, 28, 25, 26, 7, 19, 33, 18, 31, 22, 28, 33, 18, 4, 31, 34, 31, 13, 34, 7, 15, 37, 22, 30, 19, 20, 18, 20, 27, 12, 19, 22, 18, 23, 12, 20, 23, 14, 11, 14, 8, 26, 25, 14, 22, 21, 28, 17, 15, 23, 25, 27, 22, 3, 28, 22, 30, 32, 8, 0, 23, 22, 2, 18, 8, 32, 28, 20, 16, 23, 4, 26, 24, 22, 9, 8, 7, 14, 15, 22, 31, 24, 24, 11
            |20, 32, 9, 27, 40, 40, 22, 34, 34, 7, 23, 22, 47, 28, 24, 16, 8, 28, 21, 8, 49, 17, 24, 33, 20, 10, 8, 5, 36, 41, 22, 9, 41, 15, 36, 32, 29, 18, 15, 45, 6, 17, 43, 23, 10, 35, 13, 41, 5, 5, 11, 24, 42, 28, 21, 24, 20, 17, 32, 39, 37, 44, 45, 35, 8, 29, 36, 38, 11, 22, 21, 22, 21, 25, 34, 29, 23, 0, 36, 21, 39, 25, 35, 23, 34, 22, 44, 20, 49, 1, 21, 17, 16, 29, 11, 38, 28, 27, 27, 47, 31
            |40, 47, 40, 13, 35, 27, 38, 35, 4, 28, 34, 13, 26, 7, 15, 21, 44, 11, 24, 31, 23, 23, 13, 20, 40, 45, 39, 41, 17, 29, 26, 44, 14, 34, 22, 21, 25, 36, 45, 30, 41, 40, 25, 40, 26, 49, 31, 34, 37, 32, 41, 34, 33, 45, 14, 12, 36, 28, 10, 4, 26, 20, 24, 9, 28, 36, 44, 3, 31, 16, 23, 23, 17, 24, 16, 28, 22, 36, 0, 22, 13, 14, 16, 23, 41, 14, 16, 21, 29, 36, 19, 20, 25, 26, 31, 21, 11, 22, 13, 21, 13
            |19, 25, 29, 22, 21, 19, 16, 17, 19, 15, 12, 13, 25, 16, 7, 18, 28, 22, 26, 23, 28, 4, 17, 32, 18, 29, 21, 26, 32, 20, 5, 29, 33, 29, 15, 32, 9, 14, 35, 24, 28, 18, 22, 18, 18, 28, 10, 22, 20, 16, 22, 12, 22, 23, 13, 11, 14, 7, 25, 26, 16, 24, 23, 27, 14, 16, 24, 25, 24, 20, 1, 26, 20, 29, 31, 10, 2, 21, 22, 0, 19, 8, 31, 26, 21, 15, 25, 2, 28, 22, 21, 7, 6, 9, 12, 17, 21, 29, 22, 26, 12
            |37, 40, 46, 24, 24, 15, 33, 26, 10, 32, 29, 19, 13, 15, 15, 28, 47, 23, 34, 38, 11, 22, 21, 32, 36, 48, 40, 44, 30, 17, 22, 47, 27, 42, 11, 33, 18, 33, 51, 17, 45, 37, 13, 35, 32, 41, 30, 22, 39, 34, 41, 28, 21, 39, 20, 16, 32, 26, 23, 14, 15, 7, 11, 22, 31, 29, 35, 14, 38, 26, 20, 34, 26, 35, 29, 21, 18, 39, 13, 19, 0, 14, 29, 33, 33, 21, 5, 20, 16, 40, 28, 22, 24, 19, 31, 9, 22, 34, 24, 9, 8
            |27, 33, 31, 16, 25, 20, 24, 23, 11, 17, 20, 7, 24, 8, 1, 15, 32, 15, 22, 23, 25, 9, 11, 25, 26, 34, 26, 30, 25, 22, 13, 33, 25, 28, 15, 26, 14, 22, 37, 25, 31, 26, 22, 26, 18, 35, 17, 25, 25, 20, 28, 20, 25, 31, 7, 3, 22, 15, 18, 18, 18, 21, 22, 19, 17, 23, 31, 17, 24, 15, 9, 22, 15, 24, 24, 16, 8, 25, 14, 8, 14, 0, 24, 22, 29, 9, 20, 7, 27, 25, 16, 8, 11, 14, 18, 16, 14, 24, 16, 23, 7
            |48, 57, 37, 9, 49, 42, 46, 47, 19, 30, 43, 18, 42, 16, 25, 19, 43, 9, 16, 28, 38, 30, 14, 5, 47, 45, 42, 40, 1, 44, 36, 43, 7, 27, 37, 6, 38, 43, 39, 45, 38, 46, 41, 48, 25, 59, 36, 48, 39, 34, 44, 43, 48, 54, 19, 21, 44, 36, 6, 17, 41, 36, 40, 7, 30, 47, 55, 16, 27, 13, 32, 15, 14, 13, 1, 40, 32, 35, 16, 31, 29, 24, 0, 14, 53, 17, 31, 30, 45, 36, 15, 26, 31, 38, 36, 36, 10, 10, 9, 37, 27
            |39, 49, 23, 10, 47, 42, 38, 44, 24, 18, 36, 15, 45, 18, 22, 9, 30, 11, 2, 15, 44, 23, 12, 10, 38, 32, 30, 27, 14, 44, 31, 29, 20, 13, 37, 9, 35, 35, 25, 47, 25, 36, 43, 40, 13, 52, 27, 47, 27, 23, 33, 37, 47, 46, 15, 19, 36, 29, 14, 25, 40, 40, 43, 17, 19, 41, 50, 25, 13, 7, 27, 1, 7, 2, 13, 36, 28, 23, 23, 26, 33, 22, 14, 0, 47, 13, 37, 25, 48, 24, 6, 20, 24, 35, 26, 38, 12, 4, 10, 42, 28
            |16, 9, 43, 44, 12, 20, 13, 7, 38, 32, 12, 34, 29, 37, 28, 39, 37, 44, 47, 40, 36, 24, 39, 53, 16, 36, 28, 37, 54, 19, 17, 39, 54, 47, 22, 54, 16, 16, 49, 24, 40, 19, 25, 13, 36, 9, 22, 15, 30, 30, 27, 11, 17, 11, 34, 32, 14, 19, 47, 44, 19, 32, 28, 48, 31, 6, 3, 43, 42, 42, 21, 47, 41, 50, 52, 13, 20, 34, 41, 21, 33, 29, 53, 47, 0, 36, 36, 23, 30, 35, 42, 28, 24, 15, 24, 24, 43, 51, 44, 34, 28
            |31, 40, 27, 8, 34, 29, 29, 32, 13, 15, 26, 2, 32, 7, 9, 8, 30, 8, 14, 18, 32, 13, 3, 17, 30, 32, 26, 27, 18, 31, 20, 30, 20, 21, 24, 17, 23, 26, 31, 34, 27, 29, 30, 31, 13, 42, 20, 34, 24, 19, 29, 26, 34, 37, 2, 6, 27, 19, 12, 17, 27, 28, 30, 14, 15, 31, 39, 16, 18, 6, 15, 13, 6, 15, 16, 24, 16, 22, 14, 15, 21, 9, 17, 13, 36, 0, 25, 13, 35, 23, 7, 9, 14, 23, 20, 25, 7, 15, 8, 30, 15
            |42, 44, 51, 28, 27, 17, 38, 29, 13, 37, 34, 24, 12, 19, 21, 33, 52, 26, 38, 43, 7, 28, 26, 35, 41, 53, 45, 50, 32, 19, 27, 53, 28, 47, 15, 36, 22, 38, 56, 17, 50, 42, 13, 40, 37, 45, 35, 24, 44, 40, 47, 33, 23, 44, 25, 21, 37, 32, 26, 15, 18, 6, 11, 24, 37, 34, 39, 15, 43, 30, 26, 38, 31, 38, 32, 25, 23, 44, 16, 25, 5, 20, 31, 37, 36, 25, 0, 25, 15, 45, 32, 27, 30, 23, 37, 12, 25, 37, 28, 6, 13
            |19, 27, 28, 21, 23, 21, 17, 19, 18, 14, 13, 11, 27, 15, 6, 16, 27, 21, 24, 21, 29, 3, 16, 30, 18, 28, 20, 25, 31, 22, 7, 28, 32, 27, 16, 30, 11, 15, 34, 26, 26, 18, 23, 19, 16, 29, 10, 24, 19, 15, 21, 13, 24, 24, 11, 9, 15, 7, 24, 25, 18, 25, 25, 26, 13, 17, 26, 24, 22, 18, 2, 24, 18, 27, 29, 12, 4, 20, 21, 2, 20, 7, 30, 25, 23, 13, 25, 0, 30, 21, 19, 5, 4, 11, 11, 18, 20, 28, 21, 27, 12
            |41, 39, 57, 40, 18, 11, 36, 23, 26, 43, 33, 34, 3, 31, 28, 42, 56, 39, 49, 50, 9, 33, 37, 48, 40, 56, 48, 54, 46, 11, 28, 57, 42, 56, 13, 49, 21, 38, 63, 6, 56, 42, 6, 38, 45, 39, 38, 15, 48, 45, 49, 31, 13, 40, 34, 30, 36, 34, 39, 29, 13, 9, 5, 38, 43, 30, 32, 29, 51, 41, 29, 49, 41, 50, 45, 23, 26, 49, 29, 28, 16, 27, 45, 48, 30, 35, 15, 30, 0, 50, 43, 34, 34, 22, 40, 11, 38, 49, 40, 9, 21
            |20, 32, 8, 28, 40, 40, 22, 35, 35, 8, 23, 23, 47, 29, 25, 17, 7, 29, 22, 9, 50, 18, 25, 34, 20, 9, 8, 4, 37, 41, 23, 8, 42, 15, 37, 33, 30, 18, 15, 46, 6, 17, 44, 23, 11, 35, 13, 42, 5, 6, 10, 24, 43, 28, 22, 25, 20, 17, 33, 40, 38, 45, 45, 36, 9, 29, 36, 39, 11, 23, 21, 23, 22, 26, 35, 29, 24, 1, 36, 22, 40, 25, 36, 24, 35, 23, 45, 21, 50, 0, 22, 18, 16, 29, 11, 39, 29, 28, 28, 47, 32
            |34, 44, 23, 7, 41, 36, 33, 38, 19, 15, 31, 9, 40, 13, 16, 4, 28, 8, 6, 14, 39, 17, 6, 13, 33, 31, 27, 25, 15, 38, 25, 28, 20, 15, 31, 13, 29, 30, 27, 41, 24, 32, 37, 35, 10, 47, 23, 41, 24, 19, 30, 31, 41, 41, 9, 13, 31, 23, 12, 22, 34, 35, 37, 15, 15, 36, 44, 21, 13, 2, 21, 6, 1, 8, 14, 31, 22, 21, 19, 21, 28, 16, 15, 6, 42, 7, 32, 19, 43, 22, 0, 14, 18, 29, 22, 32, 9, 9, 7, 37, 22
            |22, 31, 24, 17, 28, 25, 20, 24, 18, 10, 17, 8, 31, 13, 7, 11, 25, 17, 19, 17, 32, 4, 12, 26, 21, 26, 19, 22, 27, 27, 11, 25, 29, 22, 21, 26, 16, 17, 30, 30, 23, 20, 27, 22, 11, 33, 11, 28, 17, 13, 21, 17, 29, 28, 7, 8, 18, 10, 21, 24, 22, 28, 28, 23, 9, 22, 30, 23, 18, 14, 7, 19, 13, 22, 25, 17, 9, 17, 20, 7, 22, 8, 26, 20, 28, 9, 27, 5, 34, 18, 14, 0, 5, 16, 11, 22, 16, 23, 17, 30, 14
            |17, 26, 24, 22, 26, 24, 15, 21, 22, 10, 13, 13, 31, 18, 10, 15, 22, 22, 23, 18, 34, 2, 17, 31, 16, 23, 16, 21, 32, 26, 8, 24, 34, 24, 21, 31, 14, 12, 30, 30, 22, 15, 28, 17, 13, 28, 6, 27, 14, 11, 17, 13, 27, 23, 12, 12, 13, 5, 26, 28, 22, 29, 29, 28, 9, 18, 26, 27, 19, 19, 5, 23, 18, 26, 30, 14, 8, 16, 25, 6, 24, 11, 31, 24, 24, 14, 30, 4, 34, 16, 18, 5, 0, 14, 7, 23, 21, 27, 22, 31, 17
            |19, 22, 37, 30, 12, 11, 15, 9, 23, 24, 11, 21, 20, 22, 14, 27, 35, 30, 35, 32, 24, 13, 25, 40, 18, 35, 26, 33, 39, 12, 6, 36, 39, 38, 9, 40, 1, 16, 43, 17, 35, 20, 16, 17, 27, 23, 16, 13, 26, 24, 27, 10, 13, 20, 21, 17, 15, 12, 32, 29, 9, 20, 18, 33, 23, 11, 18, 28, 33, 29, 9, 35, 28, 37, 38, 2, 7, 29, 26, 9, 19, 14, 38, 35, 15, 23, 23, 11, 22, 29, 29, 16, 14, 0, 18, 12, 29, 38, 30, 22, 14
            |12, 23, 19, 27, 29, 30, 12, 23, 29, 9, 12, 19, 37, 25, 17, 18, 16, 27, 25, 16, 40, 9, 22, 35, 12, 17, 9, 15, 37, 30, 12, 18, 40, 23, 26, 35, 19, 9, 26, 35, 17, 10, 33, 14, 13, 26, 2, 31, 8, 6, 10, 13, 32, 20, 18, 19, 10, 6, 31, 35, 27, 36, 35, 34, 8, 18, 26, 34, 18, 23, 11, 26, 22, 29, 35, 18, 14, 11, 31, 12, 31, 18, 36, 26, 24, 20, 37, 11, 40, 11, 22, 11, 7, 18, 0, 29, 27, 30, 27, 38, 24
            |32, 33, 46, 30, 15, 6, 27, 17, 18, 32, 23, 23, 8, 21, 17, 31, 45, 29, 38, 39, 12, 21, 26, 39, 31, 45, 37, 43, 37, 8, 17, 46, 35, 44, 3, 40, 11, 28, 52, 9, 45, 32, 5, 29, 33, 33, 27, 13, 37, 33, 38, 22, 12, 32, 23, 19, 27, 23, 30, 23, 6, 8, 6, 30, 31, 22, 27, 22, 40, 31, 18, 38, 31, 40, 36, 14, 15, 38, 21, 17, 9, 16, 36, 38, 24, 25, 12, 18, 11, 39, 32, 22, 23, 12, 29, 0, 28, 39, 30, 10, 10
            |38, 47, 32, 2, 40, 33, 36, 38, 12, 21, 33, 8, 35, 7, 15, 12, 36, 1, 13, 22, 32, 20, 4, 11, 37, 38, 33, 33, 11, 35, 26, 36, 13, 24, 28, 12, 28, 34, 35, 37, 32, 36, 33, 38, 18, 49, 27, 39, 31, 26, 36, 33, 38, 44, 9, 11, 34, 26, 4, 14, 31, 29, 32, 7, 22, 37, 45, 13, 22, 6, 22, 13, 7, 13, 9, 30, 22, 28, 11, 21, 22, 14, 10, 12, 43, 7, 25, 20, 38, 29, 9, 16, 21, 29, 27, 28, 0, 12, 2, 31, 18
            |43, 53, 27, 9, 49, 44, 42, 47, 24, 23, 40, 17, 46, 18, 24, 13, 34, 11, 6, 19, 44, 26, 13, 6, 42, 37, 34, 31, 10, 46, 34, 34, 17, 17, 39, 5, 38, 39, 29, 48, 29, 40, 44, 44, 18, 56, 31, 49, 32, 27, 37, 40, 49, 50, 17, 21, 40, 32, 12, 24, 42, 41, 44, 15, 23, 45, 53, 24, 18, 9, 30, 5, 9, 3, 9, 39, 31, 27, 22, 29, 34, 24, 10, 4, 51, 15, 37, 28, 49, 28, 9, 23, 27, 38, 30, 39, 12, 0, 9, 42, 29
            |38, 48, 30, 0, 41, 35, 37, 39, 14, 21, 34, 9, 37, 9, 16, 11, 35, 1, 11, 21, 35, 21, 5, 9, 38, 37, 33, 32, 10, 37, 27, 35, 13, 22, 30, 10, 30, 34, 34, 39, 31, 37, 35, 39, 17, 50, 27, 41, 30, 25, 35, 34, 40, 45, 10, 13, 35, 27, 5, 16, 33, 31, 35, 8, 21, 38, 47, 15, 20, 5, 23, 11, 6, 11, 8, 32, 24, 27, 13, 22, 24, 16, 9, 10, 44, 8, 28, 21, 40, 28, 7, 17, 22, 30, 27, 30, 2, 9, 0, 33, 20
            |42, 42, 54, 33, 23, 14, 37, 26, 19, 40, 33, 28, 6, 24, 23, 37, 54, 32, 43, 46, 2, 30, 30, 41, 41, 55, 47, 52, 38, 15, 27, 55, 34, 51, 13, 42, 21, 38, 59, 12, 53, 42, 9, 39, 40, 43, 36, 20, 46, 42, 48, 32, 18, 42, 29, 24, 37, 32, 32, 21, 15, 2, 6, 30, 39, 32, 36, 21, 47, 35, 27, 42, 35, 43, 37, 24, 24, 47, 21, 26, 9, 23, 37, 42, 34, 30, 6, 27, 9, 47, 37, 30, 31, 22, 38, 10, 31, 42, 33, 0, 16
            |30, 35, 38, 20, 22, 15, 27, 22, 9, 24, 23, 13, 17, 11, 8, 22, 39, 19, 28, 30, 18, 15, 16, 29, 29, 40, 32, 37, 28, 17, 15, 40, 26, 35, 10, 30, 13, 26, 44, 19, 37, 30, 15, 29, 25, 36, 22, 21, 31, 27, 34, 22, 21, 33, 13, 9, 25, 19, 21, 16, 14, 13, 15, 21, 24, 24, 31, 15, 31, 21, 13, 28, 21, 30, 27, 16, 11, 31, 13, 12, 8, 7, 27, 28, 28, 15, 13, 12, 21, 32, 22, 14, 17, 14, 24, 10, 18, 29, 20, 16, 0|];