% n100w160.003    56.17 1014
n = 101;
duration = [|0, 28, 24, 14, 31, 11, 22, 21, 20, 19, 13, 17, 11, 17, 18, 11, 36, 29, 13, 34, 39, 27, 15, 16, 17, 37, 21, 14, 21, 30, 34, 38, 24, 5, 21, 20, 37, 27, 33, 46, 33, 17, 9, 24, 32, 33, 28, 30, 16, 19, 25, 11, 22, 13, 17, 31, 10, 30, 17, 39, 18, 13, 29, 35, 6, 38, 36, 30, 10, 18, 13, 40, 40, 34, 19, 2, 13, 6, 9, 18, 19, 12, 17, 36, 40, 25, 5, 24, 17, 29, 2, 23, 19, 27, 13, 8, 16, 16, 10, 27, 12
            |28, 0, 30, 40, 15, 39, 6, 29, 48, 45, 28, 45, 37, 14, 43, 36, 33, 30, 17, 46, 28, 49, 15, 43, 40, 33, 48, 36, 48, 15, 46, 56, 50, 33, 21, 47, 49, 47, 48, 39, 54, 45, 19, 11, 45, 39, 40, 24, 22, 35, 9, 36, 11, 19, 45, 18, 23, 27, 45, 53, 46, 19, 8, 52, 34, 53, 57, 46, 38, 46, 40, 37, 58, 46, 43, 30, 41, 22, 25, 45, 45, 21, 14, 50, 37, 12, 26, 33, 33, 1, 26, 5, 45, 42, 32, 34, 35, 13, 34, 31, 39
            |24, 30, 0, 37, 20, 26, 28, 4, 36, 40, 12, 35, 23, 29, 25, 35, 12, 6, 28, 16, 19, 24, 18, 36, 19, 14, 30, 17, 30, 19, 16, 27, 30, 27, 9, 40, 19, 21, 19, 23, 28, 30, 22, 35, 16, 10, 11, 12, 10, 10, 21, 34, 33, 31, 30, 17, 15, 9, 35, 23, 36, 15, 36, 23, 29, 23, 30, 17, 32, 31, 36, 16, 29, 16, 22, 25, 28, 22, 15, 40, 27, 14, 29, 20, 16, 18, 19, 4, 10, 31, 22, 29, 27, 14, 13, 32, 13, 26, 34, 3, 33
            |14, 40, 37, 0, 45, 14, 34, 34, 15, 6, 26, 10, 16, 26, 21, 4, 49, 43, 22, 44, 53, 32, 28, 6, 24, 50, 20, 23, 20, 44, 44, 45, 25, 11, 35, 9, 47, 34, 42, 60, 37, 17, 22, 32, 42, 46, 39, 45, 30, 30, 38, 4, 31, 21, 17, 45, 24, 44, 10, 47, 11, 27, 38, 43, 9, 46, 41, 38, 6, 16, 3, 54, 46, 44, 25, 13, 14, 19, 23, 6, 21, 26, 26, 46, 54, 38, 19, 36, 29, 40, 16, 34, 20, 37, 25, 6, 27, 26, 6, 40, 5
            |31, 15, 20, 45, 0, 39, 17, 21, 49, 50, 24, 47, 36, 24, 41, 41, 19, 18, 25, 36, 13, 43, 17, 46, 36, 18, 46, 33, 46, 1, 35, 47, 47, 35, 13, 51, 38, 41, 39, 24, 47, 44, 23, 25, 36, 27, 31, 10, 17, 29, 8, 41, 23, 28, 44, 4, 22, 13, 47, 43, 48, 18, 23, 43, 37, 43, 50, 38, 41, 46, 44, 22, 49, 35, 39, 33, 41, 26, 24, 49, 43, 20, 24, 39, 22, 6, 27, 24, 27, 16, 29, 18, 43, 34, 28, 39, 30, 21, 40, 19, 43
            |11, 39, 26, 14, 39, 0, 33, 23, 10, 15, 16, 9, 3, 28, 8, 14, 38, 32, 24, 30, 44, 18, 24, 10, 10, 40, 9, 9, 9, 38, 31, 31, 13, 7, 27, 14, 33, 20, 28, 50, 24, 6, 20, 35, 28, 33, 25, 36, 22, 17, 34, 13, 33, 24, 6, 38, 17, 34, 9, 33, 10, 21, 40, 29, 8, 32, 28, 24, 8, 7, 11, 42, 32, 31, 11, 9, 2, 17, 15, 14, 9, 19, 28, 32, 42, 33, 13, 24, 16, 40, 13, 34, 8, 23, 13, 12, 14, 27, 15, 29, 9
            |22, 6, 28, 34, 17, 33, 0, 26, 42, 39, 23, 39, 32, 8, 38, 30, 33, 29, 11, 44, 30, 44, 11, 37, 35, 33, 42, 31, 42, 17, 43, 52, 45, 27, 19, 41, 46, 43, 45, 40, 50, 39, 13, 8, 42, 37, 37, 24, 19, 31, 9, 29, 6, 13, 39, 19, 18, 26, 39, 50, 40, 15, 9, 49, 28, 50, 53, 43, 32, 40, 34, 37, 54, 43, 38, 24, 35, 16, 20, 39, 40, 17, 8, 47, 37, 12, 20, 31, 29, 7, 20, 1, 40, 39, 27, 28, 31, 7, 28, 29, 33
            |21, 29, 4, 34, 21, 23, 26, 0, 32, 37, 8, 32, 20, 27, 22, 32, 16, 9, 25, 17, 22, 22, 16, 33, 16, 17, 28, 14, 28, 20, 17, 27, 27, 23, 8, 37, 20, 20, 19, 27, 27, 27, 19, 33, 16, 13, 11, 14, 8, 8, 21, 31, 30, 28, 27, 18, 12, 12, 32, 24, 33, 12, 35, 23, 25, 24, 30, 17, 28, 28, 32, 20, 29, 17, 19, 21, 24, 19, 11, 36, 24, 11, 27, 21, 20, 18, 16, 4, 7, 30, 19, 27, 24, 14, 10, 29, 10, 24, 31, 6, 30
            |20, 48, 36, 15, 49, 10, 42, 32, 0, 11, 26, 5, 13, 36, 11, 18, 47, 41, 32, 36, 54, 21, 34, 9, 17, 49, 7, 18, 7, 48, 37, 34, 12, 15, 37, 9, 39, 24, 34, 59, 25, 6, 29, 43, 34, 41, 33, 46, 32, 26, 44, 17, 42, 32, 6, 48, 27, 44, 5, 37, 4, 31, 49, 33, 15, 36, 28, 30, 12, 4, 12, 51, 34, 37, 16, 18, 8, 26, 25, 10, 10, 29, 36, 37, 51, 43, 23, 33, 25, 49, 22, 44, 9, 29, 22, 17, 22, 36, 19, 38, 11
            |19, 45, 40, 6, 50, 15, 39, 37, 11, 0, 29, 7, 17, 32, 20, 10, 52, 46, 28, 45, 57, 31, 33, 4, 25, 54, 18, 24, 18, 49, 45, 44, 23, 14, 39, 3, 48, 34, 43, 64, 36, 15, 27, 38, 43, 48, 40, 49, 34, 32, 43, 10, 37, 27, 15, 49, 28, 48, 7, 47, 7, 32, 44, 43, 13, 46, 39, 39, 9, 14, 5, 57, 45, 45, 25, 17, 14, 24, 27, 1, 20, 31, 32, 46, 57, 43, 23, 39, 31, 46, 21, 40, 19, 38, 27, 11, 28, 32, 12, 43, 7
            |13, 28, 12, 26, 24, 16, 23, 8, 26, 29, 0, 25, 13, 22, 17, 24, 23, 17, 19, 23, 29, 21, 13, 25, 12, 25, 22, 9, 22, 23, 22, 29, 23, 15, 11, 29, 25, 20, 23, 35, 26, 21, 13, 29, 21, 21, 16, 20, 7, 8, 21, 23, 26, 22, 21, 22, 6, 19, 25, 28, 26, 9, 32, 26, 17, 28, 30, 20, 21, 22, 24, 28, 31, 22, 16, 13, 17, 12, 4, 28, 19, 6, 22, 25, 28, 19, 8, 11, 6, 29, 11, 25, 19, 17, 4, 21, 7, 19, 23, 14, 22
            |17, 45, 35, 10, 47, 9, 39, 32, 5, 7, 25, 0, 12, 33, 14, 13, 48, 41, 28, 38, 53, 24, 31, 4, 18, 49, 11, 18, 11, 46, 39, 37, 16, 12, 36, 5, 41, 27, 36, 59, 29, 8, 26, 39, 36, 42, 34, 45, 31, 26, 42, 12, 38, 28, 8, 46, 25, 43, 0, 40, 1, 29, 45, 36, 11, 39, 32, 32, 7, 7, 7, 52, 38, 39, 18, 15, 8, 23, 24, 6, 13, 28, 33, 39, 52, 41, 21, 33, 25, 46, 19, 40, 12, 31, 22, 12, 23, 32, 14, 38, 7
            |11, 37, 23, 16, 36, 3, 32, 20, 13, 17, 13, 12, 0, 27, 7, 16, 35, 29, 23, 28, 42, 17, 22, 13, 8, 37, 10, 7, 10, 36, 28, 29, 14, 8, 24, 17, 31, 18, 26, 47, 23, 8, 18, 34, 26, 30, 23, 33, 20, 14, 32, 15, 32, 24, 8, 35, 15, 31, 12, 31, 13, 19, 39, 27, 9, 30, 26, 22, 10, 9, 14, 40, 31, 28, 9, 9, 4, 16, 13, 17, 9, 17, 27, 29, 40, 31, 11, 21, 13, 38, 12, 33, 8, 21, 10, 13, 11, 25, 16, 26, 11
            |17, 14, 29, 26, 24, 28, 8, 27, 36, 32, 22, 33, 27, 0, 34, 22, 37, 32, 4, 44, 36, 42, 11, 30, 32, 37, 37, 28, 37, 23, 44, 51, 40, 21, 22, 34, 47, 41, 45, 46, 47, 34, 9, 7, 43, 39, 38, 29, 19, 30, 16, 22, 5, 5, 34, 25, 16, 30, 33, 50, 34, 15, 12, 48, 22, 50, 51, 42, 25, 35, 27, 41, 53, 44, 35, 18, 30, 11, 18, 32, 36, 16, 0, 47, 41, 18, 16, 31, 28, 15, 15, 9, 35, 38, 25, 21, 29, 3, 20, 31, 26
            |18, 43, 25, 21, 41, 8, 38, 22, 11, 20, 17, 14, 7, 34, 0, 22, 37, 31, 30, 25, 44, 11, 28, 16, 6, 38, 5, 8, 5, 40, 26, 24, 7, 14, 28, 19, 28, 13, 22, 48, 16, 6, 25, 41, 23, 30, 21, 36, 24, 15, 37, 21, 39, 31, 6, 39, 21, 34, 14, 27, 14, 25, 46, 22, 16, 25, 20, 18, 15, 7, 18, 40, 25, 26, 4, 16, 7, 22, 18, 19, 2, 22, 34, 26, 40, 36, 18, 22, 15, 45, 19, 39, 2, 18, 13, 19, 12, 32, 22, 28, 16
            |11, 36, 35, 4, 41, 14, 30, 32, 18, 10, 24, 13, 16, 22, 22, 0, 47, 40, 18, 43, 50, 33, 25, 9, 24, 48, 22, 22, 22, 40, 44, 45, 27, 9, 33, 12, 46, 34, 42, 58, 38, 18, 18, 28, 41, 44, 38, 42, 28, 29, 34, 1, 27, 17, 18, 41, 21, 41, 13, 47, 14, 24, 34, 43, 7, 46, 42, 38, 7, 18, 6, 51, 47, 44, 25, 10, 15, 16, 21, 10, 22, 23, 22, 45, 51, 35, 16, 35, 27, 36, 13, 30, 22, 36, 23, 3, 25, 23, 2, 38, 6
            |36, 33, 12, 49, 19, 38, 33, 16, 47, 52, 23, 48, 35, 37, 37, 47, 0, 6, 37, 20, 11, 34, 26, 48, 31, 2, 42, 29, 42, 19, 19, 33, 41, 38, 16, 52, 21, 30, 24, 11, 36, 42, 32, 41, 21, 10, 18, 9, 20, 22, 25, 46, 39, 40, 42, 16, 26, 7, 48, 27, 48, 24, 41, 29, 41, 28, 38, 25, 44, 43, 48, 4, 35, 19, 33, 37, 40, 33, 26, 52, 38, 24, 37, 24, 4, 21, 31, 15, 22, 34, 34, 34, 39, 22, 25, 44, 25, 34, 46, 9, 45
            |29, 30, 6, 43, 18, 32, 29, 9, 41, 46, 17, 41, 29, 32, 31, 40, 6, 0, 31, 18, 14, 29, 21, 42, 25, 8, 36, 23, 36, 17, 17, 30, 35, 32, 10, 46, 20, 26, 22, 18, 32, 36, 26, 36, 18, 9, 14, 8, 14, 16, 21, 40, 34, 34, 36, 14, 20, 4, 41, 26, 42, 18, 37, 27, 34, 26, 35, 21, 38, 37, 41, 11, 32, 17, 28, 30, 34, 27, 20, 45, 33, 18, 32, 22, 11, 18, 24, 9, 16, 31, 27, 30, 33, 18, 19, 37, 19, 29, 39, 3, 39
            |13, 17, 28, 22, 25, 24, 11, 25, 32, 28, 19, 28, 23, 4, 30, 18, 37, 31, 0, 42, 37, 38, 10, 26, 28, 37, 33, 25, 33, 25, 41, 48, 37, 17, 21, 30, 45, 38, 42, 46, 44, 30, 6, 11, 40, 38, 35, 29, 18, 27, 18, 18, 9, 3, 30, 27, 14, 30, 28, 48, 29, 13, 16, 45, 17, 47, 48, 39, 21, 30, 23, 41, 50, 41, 31, 14, 25, 8, 15, 28, 32, 14, 4, 45, 41, 19, 13, 29, 25, 18, 11, 12, 31, 36, 22, 17, 26, 4, 16, 30, 22
            |34, 46, 16, 44, 36, 30, 44, 17, 36, 45, 23, 38, 28, 44, 25, 43, 20, 18, 42, 0, 31, 17, 34, 40, 20, 22, 29, 21, 29, 35, 1, 12, 26, 34, 25, 44, 3, 13, 4, 29, 17, 31, 35, 50, 2, 10, 6, 26, 25, 15, 38, 42, 48, 44, 31, 32, 28, 23, 38, 7, 39, 30, 52, 9, 36, 8, 18, 7, 38, 32, 41, 22, 14, 1, 21, 34, 31, 35, 27, 44, 26, 28, 44, 4, 22, 35, 30, 13, 17, 48, 33, 45, 27, 7, 21, 40, 18, 41, 43, 16, 39
            |39, 28, 19, 53, 13, 44, 30, 22, 54, 57, 29, 53, 42, 36, 44, 50, 11, 14, 37, 31, 0, 43, 27, 53, 39, 9, 50, 36, 50, 13, 30, 43, 49, 43, 18, 58, 32, 40, 35, 11, 46, 49, 33, 38, 32, 21, 28, 9, 23, 30, 21, 50, 36, 40, 49, 10, 29, 10, 53, 38, 54, 26, 36, 40, 45, 39, 48, 35, 49, 50, 52, 11, 45, 30, 41, 40, 46, 35, 30, 57, 46, 27, 36, 34, 11, 18, 34, 23, 29, 29, 37, 31, 46, 32, 32, 47, 33, 33, 49, 17, 50
            |27, 49, 24, 32, 43, 18, 44, 22, 21, 31, 21, 24, 17, 42, 11, 33, 34, 29, 38, 17, 43, 0, 34, 27, 10, 36, 14, 13, 14, 42, 18, 13, 9, 25, 30, 29, 19, 4, 13, 44, 6, 16, 33, 49, 15, 25, 16, 36, 27, 15, 42, 32, 47, 40, 16, 41, 26, 33, 24, 17, 24, 30, 53, 12, 26, 15, 9, 10, 26, 17, 29, 37, 14, 18, 8, 26, 18, 30, 24, 30, 11, 27, 42, 16, 37, 40, 25, 20, 16, 50, 27, 46, 12, 12, 17, 30, 14, 40, 33, 26, 27
            |15, 15, 18, 28, 17, 24, 11, 16, 34, 33, 13, 31, 22, 11, 28, 25, 26, 21, 10, 34, 27, 34, 0, 30, 25, 27, 33, 21, 33, 16, 33, 42, 35, 19, 11, 34, 36, 33, 35, 36, 39, 30, 6, 17, 32, 28, 27, 19, 9, 21, 10, 24, 14, 14, 30, 17, 8, 20, 31, 40, 32, 4, 19, 38, 21, 40, 43, 32, 25, 31, 28, 31, 44, 33, 28, 16, 26, 9, 10, 33, 30, 6, 11, 37, 31, 10, 11, 21, 18, 17, 12, 12, 30, 29, 17, 22, 20, 8, 23, 20, 26
            |16, 43, 36, 6, 46, 10, 37, 33, 9, 4, 25, 4, 13, 30, 16, 9, 48, 42, 26, 40, 53, 27, 30, 0, 20, 50, 14, 20, 14, 45, 41, 40, 19, 11, 36, 4, 43, 29, 38, 59, 32, 11, 24, 37, 38, 43, 36, 45, 31, 27, 40, 9, 35, 25, 11, 46, 25, 43, 4, 43, 4, 28, 42, 38, 9, 42, 35, 34, 5, 10, 4, 52, 41, 41, 20, 14, 9, 21, 23, 4, 16, 27, 30, 41, 52, 40, 20, 34, 26, 44, 18, 38, 15, 33, 23, 9, 24, 30, 11, 39, 4
            |17, 40, 19, 24, 36, 10, 35, 16, 17, 25, 12, 18, 8, 32, 6, 24, 31, 25, 28, 20, 39, 10, 25, 20, 0, 33, 11, 4, 11, 35, 21, 22, 11, 15, 23, 24, 23, 10, 18, 42, 16, 11, 23, 39, 18, 24, 16, 31, 19, 9, 33, 23, 37, 30, 11, 34, 17, 28, 18, 23, 19, 21, 43, 19, 17, 22, 19, 14, 18, 13, 21, 35, 23, 21, 3, 16, 11, 21, 15, 24, 8, 18, 32, 21, 35, 32, 16, 16, 9, 41, 17, 36, 8, 13, 8, 21, 6, 30, 24, 22, 19
            |37, 33, 14, 50, 18, 40, 33, 17, 49, 54, 25, 49, 37, 37, 38, 48, 2, 8, 37, 22, 9, 36, 27, 50, 33, 0, 44, 31, 44, 18, 21, 35, 43, 40, 16, 54, 23, 32, 26, 10, 38, 44, 32, 41, 23, 12, 20, 9, 21, 24, 24, 47, 39, 41, 44, 15, 27, 7, 49, 29, 50, 25, 40, 31, 42, 30, 40, 27, 45, 45, 49, 4, 37, 21, 35, 38, 41, 34, 27, 53, 40, 25, 37, 26, 4, 21, 32, 17, 24, 34, 35, 34, 41, 24, 27, 45, 27, 35, 47, 11, 47
            |21, 48, 30, 20, 46, 9, 42, 28, 7, 18, 22, 11, 10, 37, 5, 22, 42, 36, 33, 29, 50, 14, 33, 14, 11, 44, 0, 13, 0, 45, 30, 26, 5, 16, 33, 16, 32, 17, 26, 53, 18, 4, 29, 44, 27, 35, 26, 41, 29, 20, 42, 21, 42, 34, 4, 44, 25, 39, 11, 30, 11, 29, 49, 25, 17, 29, 21, 22, 15, 4, 17, 46, 27, 30, 9, 19, 8, 26, 23, 17, 4, 27, 37, 30, 46, 41, 22, 27, 20, 49, 22, 43, 3, 23, 18, 20, 17, 36, 23, 33, 16
            |14, 36, 17, 23, 33, 9, 31, 14, 18, 24, 9, 18, 7, 28, 8, 22, 29, 23, 25, 21, 36, 13, 21, 20, 4, 31, 13, 0, 13, 32, 22, 24, 14, 13, 20, 24, 24, 13, 20, 41, 19, 13, 19, 35, 19, 24, 16, 28, 16, 8, 30, 21, 33, 27, 13, 31, 13, 26, 18, 25, 19, 17, 39, 22, 15, 24, 23, 16, 17, 14, 20, 33, 26, 22, 7, 13, 11, 17, 11, 23, 10, 15, 28, 23, 33, 28, 12, 15, 7, 38, 14, 33, 10, 14, 5, 19, 4, 26, 22, 20, 18
            |21, 48, 30, 20, 46, 9, 42, 28, 7, 18, 22, 11, 10, 37, 5, 22, 42, 36, 33, 29, 50, 14, 33, 14, 11, 44, 0, 13, 0, 45, 30, 26, 5, 16, 33, 16, 32, 17, 26, 53, 18, 4, 29, 44, 27, 35, 26, 41, 29, 20, 42, 21, 42, 34, 4, 44, 25, 39, 11, 30, 11, 29, 49, 25, 17, 29, 21, 22, 15, 4, 17, 46, 27, 30, 9, 19, 8, 26, 23, 17, 4, 27, 37, 30, 46, 41, 22, 27, 20, 49, 22, 43, 3, 23, 18, 20, 17, 36, 23, 33, 16
            |30, 15, 19, 44, 1, 38, 17, 20, 48, 49, 23, 46, 36, 23, 40, 40, 19, 17, 25, 35, 13, 42, 16, 45, 35, 18, 45, 32, 45, 0, 34, 46, 46, 35, 12, 50, 37, 40, 38, 24, 46, 43, 22, 25, 35, 26, 30, 9, 16, 28, 8, 40, 23, 28, 43, 3, 21, 13, 46, 42, 47, 17, 23, 43, 36, 42, 49, 37, 40, 45, 43, 22, 48, 34, 38, 32, 40, 25, 23, 48, 42, 19, 23, 39, 22, 6, 26, 23, 26, 16, 28, 17, 42, 33, 27, 38, 29, 21, 39, 19, 42
            |34, 46, 16, 44, 35, 31, 43, 17, 37, 45, 22, 39, 28, 44, 26, 44, 19, 17, 41, 1, 30, 18, 33, 41, 21, 21, 30, 22, 30, 34, 0, 13, 27, 34, 24, 44, 3, 14, 5, 28, 18, 31, 35, 50, 3, 9, 6, 26, 25, 15, 37, 43, 47, 44, 31, 32, 28, 22, 39, 8, 39, 29, 52, 10, 36, 9, 19, 8, 38, 33, 42, 21, 15, 0, 21, 34, 31, 35, 26, 44, 27, 28, 44, 4, 21, 34, 30, 13, 17, 47, 33, 44, 27, 8, 21, 40, 18, 41, 43, 16, 40
            |38, 56, 27, 45, 47, 31, 52, 27, 34, 44, 29, 37, 29, 51, 24, 45, 33, 30, 48, 12, 43, 13, 42, 40, 22, 35, 26, 24, 26, 46, 13, 0, 22, 37, 35, 42, 12, 11, 9, 41, 9, 29, 42, 58, 12, 22, 16, 38, 34, 21, 48, 44, 56, 51, 29, 44, 35, 35, 37, 6, 37, 38, 61, 4, 39, 5, 8, 10, 39, 30, 42, 34, 2, 13, 20, 38, 31, 41, 33, 43, 24, 36, 51, 9, 34, 45, 36, 23, 24, 57, 38, 54, 25, 13, 26, 43, 23, 49, 46, 28, 40
            |24, 50, 30, 25, 47, 13, 45, 27, 12, 23, 23, 16, 14, 40, 7, 27, 41, 35, 37, 26, 49, 9, 35, 19, 11, 43, 5, 14, 5, 46, 27, 22, 0, 21, 34, 21, 28, 13, 23, 52, 13, 9, 32, 48, 24, 33, 24, 41, 30, 19, 44, 26, 46, 38, 9, 45, 27, 39, 16, 26, 16, 31, 52, 21, 21, 25, 16, 19, 20, 9, 22, 44, 22, 27, 8, 23, 12, 29, 25, 22, 5, 29, 40, 26, 44, 42, 25, 26, 20, 51, 25, 46, 6, 20, 19, 25, 17, 39, 28, 32, 21
            |5, 33, 27, 11, 35, 7, 27, 23, 15, 14, 15, 12, 8, 21, 14, 9, 38, 32, 17, 34, 43, 25, 19, 11, 15, 40, 16, 13, 16, 35, 34, 37, 21, 0, 25, 15, 37, 26, 33, 50, 30, 13, 14, 28, 32, 35, 29, 34, 20, 20, 30, 8, 27, 17, 13, 35, 14, 33, 12, 38, 13, 17, 34, 34, 2, 37, 34, 29, 6, 13, 9, 43, 38, 34, 17, 3, 9, 11, 13, 14, 16, 16, 21, 36, 43, 29, 9, 25, 18, 34, 7, 28, 15, 27, 14, 6, 16, 20, 9, 29, 7
            |21, 21, 9, 35, 13, 27, 19, 8, 37, 39, 11, 36, 24, 22, 28, 33, 16, 10, 21, 25, 18, 30, 11, 36, 23, 16, 33, 20, 33, 12, 24, 35, 34, 25, 0, 40, 27, 28, 27, 26, 35, 32, 16, 27, 24, 18, 19, 9, 5, 16, 13, 32, 25, 25, 32, 11, 11, 9, 36, 32, 37, 9, 28, 31, 27, 32, 38, 25, 31, 33, 34, 20, 37, 24, 26, 23, 29, 17, 12, 39, 30, 9, 22, 28, 20, 10, 16, 12, 14, 23, 19, 21, 30, 22, 15, 30, 17, 19, 31, 9, 32
            |20, 47, 40, 9, 51, 14, 41, 37, 9, 3, 29, 5, 17, 34, 19, 12, 52, 46, 30, 44, 58, 29, 34, 4, 24, 54, 16, 24, 16, 50, 44, 42, 21, 15, 40, 0, 47, 32, 41, 64, 34, 13, 29, 40, 42, 47, 39, 49, 35, 31, 45, 12, 39, 29, 13, 50, 29, 48, 5, 46, 5, 33, 46, 41, 14, 44, 37, 37, 9, 12, 7, 57, 43, 44, 23, 18, 13, 26, 28, 2, 18, 31, 34, 45, 57, 45, 24, 38, 30, 48, 22, 42, 17, 37, 27, 13, 28, 34, 14, 43, 8
            |37, 49, 19, 47, 38, 33, 46, 20, 39, 48, 25, 41, 31, 47, 28, 46, 21, 20, 45, 3, 32, 19, 36, 43, 23, 23, 32, 24, 32, 37, 3, 12, 28, 37, 27, 47, 0, 16, 6, 29, 18, 34, 38, 53, 5, 11, 9, 28, 28, 18, 40, 45, 51, 47, 34, 34, 31, 24, 41, 6, 42, 32, 55, 9, 39, 7, 19, 9, 41, 35, 44, 22, 14, 3, 23, 37, 34, 38, 30, 47, 29, 31, 47, 3, 22, 37, 33, 16, 20, 50, 36, 48, 30, 10, 24, 43, 21, 44, 46, 18, 42
            |27, 47, 21, 34, 41, 20, 43, 20, 24, 34, 20, 27, 18, 41, 13, 34, 30, 26, 38, 13, 40, 4, 33, 29, 10, 32, 17, 13, 17, 40, 14, 11, 13, 26, 28, 32, 16, 0, 10, 41, 7, 19, 32, 48, 11, 21, 12, 33, 26, 13, 40, 33, 46, 40, 19, 38, 25, 30, 27, 14, 27, 28, 52, 9, 27, 12, 10, 6, 28, 20, 31, 33, 13, 14, 9, 27, 20, 30, 23, 33, 14, 26, 41, 13, 33, 38, 25, 17, 14, 49, 27, 45, 15, 8, 16, 31, 13, 39, 35, 23, 29
            |33, 48, 19, 42, 39, 28, 45, 19, 34, 43, 23, 36, 26, 45, 22, 42, 24, 22, 42, 4, 35, 13, 35, 38, 18, 26, 26, 20, 26, 38, 5, 9, 23, 33, 27, 41, 6, 10, 0, 33, 13, 28, 36, 51, 3, 14, 8, 30, 26, 15, 40, 41, 49, 45, 28, 35, 29, 26, 36, 5, 36, 31, 54, 5, 35, 5, 14, 4, 36, 30, 40, 26, 11, 5, 18, 33, 29, 35, 27, 42, 23, 29, 45, 3, 26, 37, 30, 15, 17, 50, 33, 46, 24, 6, 21, 39, 17, 42, 42, 19, 37
            |46, 39, 23, 60, 24, 50, 40, 27, 59, 64, 35, 59, 47, 46, 48, 58, 11, 18, 46, 29, 11, 44, 36, 59, 42, 10, 53, 41, 53, 24, 28, 41, 52, 50, 26, 64, 29, 41, 33, 0, 46, 53, 42, 49, 30, 20, 28, 17, 30, 33, 31, 57, 47, 49, 53, 21, 37, 17, 59, 35, 60, 34, 47, 38, 52, 36, 47, 35, 55, 55, 59, 8, 43, 28, 44, 48, 51, 43, 37, 63, 50, 35, 46, 32, 8, 28, 41, 26, 34, 40, 44, 41, 50, 33, 37, 55, 37, 43, 57, 21, 57
            |33, 54, 28, 37, 47, 24, 50, 27, 25, 36, 26, 29, 23, 47, 16, 38, 36, 32, 44, 17, 46, 6, 39, 32, 16, 38, 18, 19, 18, 46, 18, 9, 13, 30, 35, 34, 18, 7, 13, 46, 0, 21, 38, 54, 16, 26, 18, 40, 32, 19, 47, 37, 52, 46, 21, 45, 32, 36, 29, 14, 29, 35, 58, 9, 32, 13, 4, 11, 32, 22, 34, 38, 9, 18, 13, 32, 24, 36, 30, 35, 16, 33, 47, 15, 38, 44, 31, 24, 21, 55, 33, 51, 17, 14, 23, 36, 19, 45, 39, 29, 33
            |17, 45, 30, 17, 44, 6, 39, 27, 6, 15, 21, 8, 8, 34, 6, 18, 42, 36, 30, 31, 49, 16, 30, 11, 11, 44, 4, 13, 4, 43, 31, 29, 9, 13, 32, 13, 34, 19, 28, 53, 21, 0, 26, 41, 29, 35, 27, 40, 27, 20, 40, 17, 39, 31, 0, 43, 23, 38, 8, 32, 8, 27, 46, 28, 13, 31, 24, 24, 12, 1, 14, 46, 30, 31, 10, 16, 4, 23, 21, 14, 5, 25, 34, 31, 46, 39, 19, 27, 20, 46, 19, 41, 4, 24, 17, 16, 17, 33, 19, 33, 12
            |9, 19, 22, 22, 23, 20, 13, 19, 29, 27, 13, 26, 18, 9, 25, 18, 32, 26, 6, 35, 33, 33, 6, 24, 23, 32, 29, 19, 29, 22, 35, 42, 32, 14, 16, 29, 38, 32, 36, 42, 38, 26, 0, 16, 34, 32, 29, 25, 12, 21, 16, 18, 14, 9, 26, 23, 7, 25, 26, 41, 27, 7, 21, 39, 15, 41, 42, 33, 19, 27, 22, 36, 44, 35, 26, 11, 22, 3, 9, 27, 27, 8, 9, 38, 36, 17, 7, 23, 19, 20, 7, 15, 26, 30, 16, 16, 19, 7, 17, 24, 20
            |24, 11, 35, 32, 25, 35, 8, 33, 43, 38, 29, 39, 34, 7, 41, 28, 41, 36, 11, 50, 38, 49, 17, 37, 39, 41, 44, 35, 44, 25, 50, 58, 48, 28, 27, 40, 53, 48, 51, 49, 54, 41, 16, 0, 49, 45, 44, 32, 25, 37, 17, 28, 2, 11, 41, 27, 23, 34, 39, 56, 40, 21, 6, 55, 28, 56, 58, 48, 32, 42, 33, 45, 60, 50, 42, 25, 37, 19, 25, 38, 43, 22, 7, 53, 45, 20, 23, 37, 34, 11, 22, 7, 42, 45, 32, 27, 35, 9, 26, 36, 33
            |32, 45, 16, 42, 36, 28, 42, 16, 34, 43, 21, 36, 26, 43, 23, 41, 21, 18, 40, 2, 32, 15, 32, 38, 18, 23, 27, 19, 27, 35, 3, 12, 24, 32, 24, 42, 5, 11, 3, 30, 16, 29, 34, 49, 0, 11, 5, 26, 24, 13, 37, 40, 47, 43, 29, 32, 27, 23, 36, 8, 37, 28, 51, 8, 34, 8, 17, 5, 36, 30, 39, 23, 14, 3, 18, 32, 29, 33, 25, 42, 24, 26, 43, 4, 23, 34, 28, 12, 15, 47, 31, 44, 25, 5, 19, 38, 16, 40, 41, 16, 37
            |33, 39, 10, 46, 27, 33, 37, 13, 41, 48, 21, 42, 30, 39, 30, 44, 10, 9, 38, 10, 21, 25, 28, 43, 24, 12, 35, 24, 35, 26, 9, 22, 33, 35, 18, 47, 11, 21, 14, 20, 26, 35, 32, 45, 11, 0, 9, 17, 20, 16, 30, 43, 42, 41, 35, 23, 25, 13, 42, 17, 43, 25, 46, 19, 37, 18, 28, 15, 40, 37, 43, 12, 25, 9, 26, 34, 34, 32, 24, 47, 31, 24, 39, 14, 12, 27, 29, 9, 17, 40, 32, 39, 32, 13, 21, 41, 19, 36, 43, 9, 41
            |28, 40, 11, 39, 31, 25, 37, 11, 33, 40, 16, 34, 23, 38, 21, 38, 18, 14, 35, 6, 28, 16, 27, 36, 16, 20, 26, 16, 26, 30, 6, 16, 24, 29, 19, 39, 9, 12, 8, 28, 18, 27, 29, 44, 5, 9, 0, 22, 19, 9, 32, 37, 42, 38, 27, 28, 22, 19, 34, 13, 35, 23, 46, 13, 31, 13, 20, 7, 33, 28, 36, 21, 18, 6, 17, 28, 26, 28, 20, 39, 23, 22, 38, 9, 21, 29, 24, 7, 11, 42, 27, 39, 23, 4, 15, 35, 12, 35, 37, 12, 34
            |30, 24, 12, 45, 10, 36, 24, 14, 46, 49, 20, 45, 33, 29, 36, 42, 9, 8, 29, 26, 9, 36, 19, 45, 31, 9, 41, 28, 41, 9, 26, 38, 41, 34, 9, 49, 28, 33, 30, 17, 40, 40, 25, 32, 26, 17, 22, 0, 14, 22, 15, 41, 30, 32, 40, 6, 21, 4, 45, 34, 46, 18, 31, 35, 36, 34, 42, 29, 40, 42, 43, 13, 40, 26, 33, 32, 38, 26, 21, 48, 38, 18, 29, 30, 13, 12, 25, 16, 21, 25, 28, 25, 38, 26, 23, 39, 25, 26, 40, 10, 41
            |16, 22, 10, 30, 17, 22, 19, 8, 32, 34, 7, 31, 20, 19, 24, 28, 20, 14, 18, 25, 23, 27, 9, 31, 19, 21, 29, 16, 29, 16, 25, 34, 30, 20, 5, 35, 28, 26, 26, 30, 32, 27, 12, 25, 24, 20, 19, 14, 0, 13, 14, 27, 23, 21, 27, 16, 6, 14, 31, 32, 32, 5, 27, 30, 22, 31, 36, 24, 26, 29, 29, 24, 36, 25, 22, 18, 24, 13, 7, 34, 26, 4, 19, 28, 24, 12, 11, 12, 11, 23, 14, 20, 26, 21, 11, 25, 14, 16, 26, 12, 27
            |19, 35, 10, 30, 29, 17, 31, 8, 26, 32, 8, 26, 14, 30, 15, 29, 22, 16, 27, 15, 30, 15, 21, 27, 9, 24, 20, 8, 20, 28, 15, 21, 19, 20, 16, 31, 18, 13, 15, 33, 19, 20, 21, 37, 13, 16, 9, 22, 13, 0, 27, 28, 34, 30, 20, 26, 14, 19, 26, 20, 27, 16, 40, 18, 22, 20, 22, 12, 24, 21, 28, 26, 23, 15, 11, 19, 18, 20, 12, 31, 17, 14, 30, 17, 26, 25, 15, 7, 2, 36, 18, 33, 17, 9, 6, 26, 4, 27, 28, 13, 25
            |25, 9, 21, 38, 8, 34, 9, 21, 44, 43, 21, 42, 32, 16, 37, 34, 25, 21, 18, 38, 21, 42, 10, 40, 33, 24, 42, 30, 42, 8, 37, 48, 44, 30, 13, 45, 40, 40, 40, 31, 47, 40, 16, 17, 37, 30, 32, 15, 14, 27, 0, 34, 16, 21, 40, 10, 17, 18, 42, 45, 43, 13, 16, 44, 31, 45, 50, 38, 35, 41, 38, 28, 50, 37, 36, 27, 36, 19, 19, 43, 39, 15, 16, 41, 28, 3, 21, 25, 25, 10, 23, 10, 39, 34, 25, 32, 28, 13, 33, 22, 36
            |11, 36, 34, 4, 41, 13, 29, 31, 17, 10, 23, 12, 15, 22, 21, 1, 46, 40, 18, 42, 50, 32, 24, 9, 23, 47, 21, 21, 21, 40, 43, 44, 26, 8, 32, 12, 45, 33, 41, 57, 37, 17, 18, 28, 40, 43, 37, 41, 27, 28, 34, 0, 27, 17, 17, 41, 21, 40, 12, 46, 13, 23, 34, 42, 6, 45, 41, 37, 6, 17, 5, 50, 46, 43, 24, 9, 14, 15, 20, 10, 22, 23, 22, 44, 50, 34, 16, 34, 26, 36, 13, 30, 21, 35, 22, 2, 25, 22, 2, 37, 6
            |22, 11, 33, 31, 23, 33, 6, 30, 42, 37, 26, 38, 32, 5, 39, 27, 39, 34, 9, 48, 36, 47, 14, 35, 37, 39, 42, 33, 42, 23, 47, 56, 46, 27, 25, 39, 51, 46, 49, 47, 52, 39, 14, 2, 47, 42, 42, 30, 23, 34, 16, 27, 0, 10, 39, 26, 21, 32, 38, 54, 39, 18, 7, 52, 27, 54, 56, 46, 31, 40, 32, 43, 58, 47, 40, 24, 35, 17, 23, 37, 41, 20, 5, 51, 43, 18, 21, 35, 32, 11, 21, 6, 40, 43, 30, 26, 33, 7, 25, 34, 31
            |13, 19, 31, 21, 28, 24, 13, 28, 32, 27, 22, 28, 24, 5, 31, 17, 40, 34, 3, 44, 40, 40, 14, 25, 30, 41, 34, 27, 34, 28, 44, 51, 38, 17, 25, 29, 47, 40, 45, 49, 46, 31, 9, 11, 43, 41, 38, 32, 21, 30, 21, 17, 10, 0, 31, 30, 16, 33, 28, 50, 29, 16, 17, 47, 17, 49, 49, 41, 21, 31, 22, 44, 52, 44, 33, 15, 26, 10, 18, 27, 33, 17, 5, 47, 44, 22, 15, 32, 28, 20, 13, 14, 32, 38, 24, 16, 28, 7, 15, 33, 22
            |17, 45, 30, 17, 44, 6, 39, 27, 6, 15, 21, 8, 8, 34, 6, 18, 42, 36, 30, 31, 49, 16, 30, 11, 11, 44, 4, 13, 4, 43, 31, 29, 9, 13, 32, 13, 34, 19, 28, 53, 21, 0, 26, 41, 29, 35, 27, 40, 27, 20, 40, 17, 39, 31, 0, 43, 23, 38, 8, 32, 8, 27, 46, 28, 13, 31, 24, 24, 12, 1, 14, 46, 30, 31, 10, 16, 4, 23, 21, 14, 5, 25, 34, 31, 46, 39, 19, 27, 20, 46, 19, 41, 4, 24, 17, 16, 17, 33, 19, 33, 12
            |31, 18, 17, 45, 4, 38, 19, 18, 48, 49, 22, 46, 35, 25, 39, 41, 16, 14, 27, 32, 10, 41, 17, 46, 34, 15, 44, 31, 44, 3, 32, 44, 45, 35, 11, 50, 34, 38, 35, 21, 45, 43, 23, 27, 32, 23, 28, 6, 16, 26, 10, 41, 26, 30, 43, 0, 21, 10, 46, 40, 47, 17, 26, 40, 37, 40, 47, 35, 41, 44, 44, 19, 46, 32, 37, 32, 40, 26, 22, 49, 41, 19, 25, 36, 19, 8, 26, 21, 25, 19, 28, 20, 41, 31, 26, 39, 28, 23, 40, 16, 42
            |10, 23, 15, 24, 22, 17, 18, 12, 27, 28, 6, 25, 15, 16, 21, 21, 26, 20, 14, 28, 29, 26, 8, 25, 17, 27, 25, 13, 25, 21, 28, 35, 27, 14, 11, 29, 31, 25, 29, 37, 32, 23, 7, 23, 27, 25, 22, 21, 6, 14, 17, 21, 21, 16, 23, 21, 0, 20, 25, 34, 26, 4, 26, 32, 16, 34, 35, 26, 20, 24, 23, 30, 37, 28, 20, 11, 19, 7, 2, 28, 23, 2, 16, 31, 30, 16, 5, 16, 12, 24, 8, 19, 22, 22, 9, 18, 13, 14, 20, 18, 21
            |30, 27, 9, 44, 13, 34, 26, 12, 44, 48, 19, 43, 31, 30, 34, 41, 7, 4, 30, 23, 10, 33, 20, 43, 28, 7, 39, 26, 39, 13, 22, 35, 39, 33, 9, 48, 24, 30, 26, 17, 36, 38, 25, 34, 23, 13, 19, 4, 14, 19, 18, 40, 32, 33, 38, 10, 20, 0, 43, 30, 44, 18, 34, 31, 35, 30, 39, 26, 39, 40, 42, 11, 37, 22, 31, 31, 36, 26, 21, 47, 36, 18, 30, 26, 11, 15, 25, 13, 19, 28, 28, 27, 36, 22, 21, 38, 22, 27, 40, 7, 40
            |17, 45, 35, 10, 47, 9, 39, 32, 5, 7, 25, 0, 12, 33, 14, 13, 48, 41, 28, 38, 53, 24, 31, 4, 18, 49, 11, 18, 11, 46, 39, 37, 16, 12, 36, 5, 41, 27, 36, 59, 29, 8, 26, 39, 36, 42, 34, 45, 31, 26, 42, 12, 38, 28, 8, 46, 25, 43, 0, 40, 1, 29, 45, 36, 11, 39, 32, 32, 7, 7, 7, 52, 38, 39, 18, 15, 8, 23, 24, 6, 13, 28, 33, 39, 52, 41, 21, 33, 25, 46, 19, 40, 12, 31, 22, 12, 23, 32, 14, 38, 7
            |39, 53, 23, 47, 43, 33, 50, 24, 37, 47, 28, 40, 31, 50, 27, 47, 27, 26, 48, 7, 38, 17, 40, 43, 23, 29, 30, 25, 30, 42, 8, 6, 26, 38, 32, 46, 6, 14, 5, 35, 14, 32, 41, 56, 8, 17, 13, 34, 32, 20, 45, 46, 54, 50, 32, 40, 34, 30, 40, 0, 41, 36, 59, 5, 40, 1, 14, 9, 41, 34, 44, 28, 8, 8, 22, 38, 33, 40, 32, 46, 27, 34, 50, 4, 28, 42, 35, 20, 22, 55, 38, 52, 28, 12, 26, 44, 23, 47, 47, 24, 42
            |18, 46, 36, 11, 48, 10, 40, 33, 4, 7, 26, 1, 13, 34, 14, 14, 48, 42, 29, 39, 54, 24, 32, 4, 19, 50, 11, 19, 11, 47, 39, 37, 16, 13, 37, 5, 42, 27, 36, 60, 29, 8, 27, 40, 37, 43, 35, 46, 32, 27, 43, 13, 39, 29, 8, 47, 26, 44, 1, 41, 0, 30, 46, 36, 12, 39, 32, 32, 8, 7, 8, 52, 38, 39, 18, 16, 8, 24, 25, 6, 13, 28, 34, 40, 52, 42, 22, 34, 26, 47, 20, 41, 12, 32, 23, 13, 23, 33, 15, 39, 8
            |13, 19, 15, 27, 18, 21, 15, 12, 31, 32, 9, 29, 19, 15, 25, 24, 24, 18, 13, 30, 26, 30, 4, 28, 21, 25, 29, 17, 29, 17, 29, 38, 31, 17, 9, 33, 32, 28, 31, 34, 35, 27, 7, 21, 28, 25, 23, 18, 5, 16, 13, 23, 18, 16, 27, 17, 4, 18, 29, 36, 30, 0, 23, 34, 19, 36, 38, 28, 23, 28, 26, 29, 40, 29, 24, 15, 23, 9, 6, 31, 26, 2, 15, 33, 29, 12, 9, 17, 14, 21, 11, 16, 26, 24, 13, 21, 16, 12, 23, 17, 25
            |29, 8, 36, 38, 23, 40, 9, 35, 49, 44, 32, 45, 39, 12, 46, 34, 41, 37, 16, 52, 36, 53, 19, 42, 43, 40, 49, 39, 49, 23, 52, 61, 52, 34, 28, 46, 55, 52, 54, 47, 58, 46, 21, 6, 51, 46, 46, 31, 27, 40, 16, 34, 7, 17, 46, 26, 26, 34, 45, 59, 46, 23, 0, 57, 34, 59, 62, 51, 38, 47, 39, 44, 63, 52, 46, 31, 42, 23, 28, 44, 47, 25, 12, 55, 44, 19, 28, 39, 37, 7, 27, 7, 47, 48, 35, 33, 39, 13, 32, 37, 38
            |35, 52, 23, 43, 43, 29, 49, 23, 33, 43, 26, 36, 27, 48, 22, 43, 29, 27, 45, 9, 40, 12, 38, 38, 19, 31, 25, 22, 25, 43, 10, 4, 21, 34, 31, 41, 9, 9, 5, 38, 9, 28, 39, 55, 8, 19, 13, 35, 30, 18, 44, 42, 52, 47, 28, 40, 32, 31, 36, 5, 36, 34, 57, 0, 36, 4, 9, 6, 37, 29, 40, 31, 6, 10, 18, 35, 29, 38, 30, 42, 23, 32, 48, 6, 31, 41, 33, 19, 20, 54, 35, 50, 24, 10, 23, 40, 20, 45, 43, 24, 38
            |6, 34, 29, 9, 37, 8, 28, 25, 15, 13, 17, 11, 9, 22, 16, 7, 41, 34, 17, 36, 45, 26, 21, 9, 17, 42, 17, 15, 17, 36, 36, 39, 21, 2, 27, 14, 39, 27, 35, 52, 32, 13, 15, 28, 34, 37, 31, 36, 22, 22, 31, 6, 27, 17, 13, 37, 16, 35, 11, 40, 12, 19, 34, 36, 0, 39, 35, 31, 4, 14, 7, 45, 40, 36, 19, 4, 9, 12, 15, 12, 17, 18, 22, 38, 45, 31, 11, 28, 20, 35, 9, 29, 16, 29, 16, 4, 18, 21, 7, 32, 5
            |38, 53, 23, 46, 43, 32, 50, 24, 36, 46, 28, 39, 30, 50, 25, 46, 28, 26, 47, 8, 39, 15, 40, 42, 22, 30, 29, 24, 29, 42, 9, 5, 25, 37, 32, 44, 7, 12, 5, 36, 13, 31, 41, 56, 8, 18, 13, 34, 31, 20, 45, 45, 54, 49, 31, 40, 34, 30, 39, 1, 39, 36, 59, 4, 39, 0, 13, 8, 40, 32, 43, 29, 7, 9, 21, 37, 32, 40, 32, 45, 26, 34, 50, 4, 29, 42, 35, 20, 22, 54, 37, 51, 27, 11, 25, 43, 22, 47, 46, 24, 41
            |36, 57, 30, 41, 50, 28, 53, 30, 28, 39, 30, 32, 26, 51, 20, 42, 38, 35, 48, 18, 48, 9, 43, 35, 19, 40, 21, 23, 21, 49, 19, 8, 16, 34, 38, 37, 19, 10, 14, 47, 4, 24, 42, 58, 17, 28, 20, 42, 36, 22, 50, 41, 56, 49, 24, 47, 35, 39, 32, 14, 32, 38, 62, 9, 35, 13, 0, 13, 35, 25, 38, 40, 7, 19, 17, 35, 27, 40, 33, 38, 19, 36, 51, 16, 40, 47, 35, 26, 24, 59, 37, 55, 20, 16, 26, 39, 23, 49, 42, 32, 36
            |30, 46, 17, 38, 38, 24, 43, 17, 30, 39, 20, 32, 22, 42, 18, 38, 25, 21, 39, 7, 35, 10, 32, 34, 14, 27, 22, 16, 22, 37, 8, 10, 19, 29, 25, 37, 9, 6, 4, 35, 11, 24, 33, 48, 5, 15, 7, 29, 24, 12, 38, 37, 46, 41, 24, 35, 26, 26, 32, 9, 32, 28, 51, 6, 31, 8, 13, 0, 32, 25, 36, 27, 12, 8, 14, 29, 25, 31, 24, 38, 19, 26, 42, 7, 27, 35, 27, 13, 14, 47, 29, 44, 20, 4, 17, 35, 14, 39, 38, 19, 33
            |10, 38, 32, 6, 41, 8, 32, 28, 12, 9, 21, 7, 10, 25, 15, 7, 44, 38, 21, 38, 49, 26, 25, 5, 18, 45, 15, 17, 15, 40, 38, 39, 20, 6, 31, 9, 41, 28, 36, 55, 32, 12, 19, 32, 36, 40, 33, 40, 26, 24, 35, 6, 31, 21, 12, 41, 20, 39, 7, 41, 8, 23, 38, 37, 4, 40, 35, 32, 0, 11, 4, 48, 40, 38, 19, 9, 8, 16, 19, 8, 16, 22, 25, 39, 48, 35, 15, 31, 23, 39, 13, 33, 15, 31, 19, 5, 21, 25, 8, 35, 1
            |18, 46, 31, 16, 46, 7, 40, 28, 4, 14, 22, 7, 9, 35, 7, 18, 43, 37, 30, 32, 50, 17, 31, 10, 13, 45, 4, 14, 4, 45, 33, 30, 9, 13, 33, 12, 35, 20, 30, 55, 22, 1, 27, 42, 30, 37, 28, 42, 29, 21, 41, 17, 40, 31, 1, 44, 24, 40, 7, 34, 7, 28, 47, 29, 14, 32, 25, 25, 11, 0, 13, 47, 31, 33, 12, 16, 5, 24, 22, 13, 6, 26, 35, 33, 47, 40, 20, 29, 21, 47, 20, 41, 5, 25, 18, 16, 18, 34, 19, 34, 12
            |13, 40, 36, 3, 44, 11, 34, 32, 12, 5, 24, 7, 14, 27, 18, 6, 48, 41, 23, 41, 52, 29, 28, 4, 21, 49, 17, 20, 17, 43, 42, 42, 22, 9, 34, 7, 44, 31, 40, 59, 34, 14, 22, 33, 39, 43, 36, 43, 29, 28, 38, 5, 32, 22, 14, 44, 23, 42, 7, 44, 8, 26, 39, 40, 7, 43, 38, 36, 4, 13, 0, 52, 43, 42, 22, 12, 11, 19, 22, 5, 18, 25, 27, 43, 52, 38, 18, 34, 26, 41, 16, 35, 17, 34, 22, 6, 24, 27, 8, 38, 2
            |40, 37, 16, 54, 22, 42, 37, 20, 51, 57, 28, 52, 40, 41, 40, 51, 4, 11, 41, 22, 11, 37, 31, 52, 35, 4, 46, 33, 46, 22, 21, 34, 44, 43, 20, 57, 22, 33, 26, 8, 38, 46, 36, 45, 23, 12, 21, 13, 24, 26, 28, 50, 43, 44, 46, 19, 30, 11, 52, 28, 52, 29, 44, 31, 45, 29, 40, 27, 48, 47, 52, 0, 36, 21, 37, 41, 44, 37, 31, 56, 42, 29, 41, 25, 0, 25, 35, 19, 26, 38, 38, 38, 43, 25, 30, 48, 29, 38, 50, 13, 50
            |40, 58, 29, 46, 49, 32, 54, 29, 34, 45, 31, 38, 31, 53, 25, 47, 35, 32, 50, 14, 45, 14, 44, 41, 23, 37, 27, 26, 27, 48, 15, 2, 22, 38, 37, 43, 14, 13, 11, 43, 9, 30, 44, 60, 14, 25, 18, 40, 36, 23, 50, 46, 58, 52, 30, 46, 37, 37, 38, 8, 38, 40, 63, 6, 40, 7, 7, 12, 40, 31, 43, 36, 0, 15, 21, 39, 32, 43, 35, 44, 25, 38, 53, 11, 36, 47, 38, 25, 26, 59, 40, 56, 26, 16, 28, 44, 25, 51, 47, 30, 41
            |34, 46, 16, 44, 35, 31, 43, 17, 37, 45, 22, 39, 28, 44, 26, 44, 19, 17, 41, 1, 30, 18, 33, 41, 21, 21, 30, 22, 30, 34, 0, 13, 27, 34, 24, 44, 3, 14, 5, 28, 18, 31, 35, 50, 3, 9, 6, 26, 25, 15, 37, 43, 47, 44, 31, 32, 28, 22, 39, 8, 39, 29, 52, 10, 36, 9, 19, 8, 38, 33, 42, 21, 15, 0, 21, 34, 31, 35, 26, 44, 27, 28, 44, 4, 21, 34, 30, 13, 17, 47, 33, 44, 27, 8, 21, 40, 18, 41, 43, 16, 40
            |19, 43, 22, 25, 39, 11, 38, 19, 16, 25, 16, 18, 9, 35, 4, 25, 33, 28, 31, 21, 41, 8, 28, 20, 3, 35, 9, 7, 9, 38, 21, 20, 8, 17, 26, 23, 23, 9, 18, 44, 13, 10, 26, 42, 18, 26, 17, 33, 22, 11, 36, 24, 40, 33, 10, 37, 20, 31, 18, 22, 18, 24, 46, 18, 19, 21, 17, 14, 19, 12, 22, 37, 21, 21, 0, 18, 11, 23, 18, 24, 6, 22, 35, 21, 37, 35, 18, 18, 12, 44, 20, 39, 6, 14, 11, 23, 9, 33, 26, 24, 20
            |2, 30, 25, 13, 33, 9, 24, 21, 18, 17, 13, 15, 9, 18, 16, 10, 37, 30, 14, 34, 40, 26, 16, 14, 16, 38, 19, 13, 19, 32, 34, 38, 23, 3, 23, 18, 37, 27, 33, 48, 32, 16, 11, 25, 32, 34, 28, 32, 18, 19, 27, 9, 24, 15, 16, 32, 11, 31, 15, 38, 16, 15, 31, 35, 4, 37, 35, 29, 9, 16, 12, 41, 39, 34, 18, 0, 11, 8, 11, 17, 18, 14, 18, 36, 41, 27, 6, 24, 17, 31, 4, 25, 17, 27, 13, 7, 16, 17, 9, 28, 10
            |13, 41, 28, 14, 41, 2, 35, 24, 8, 14, 17, 8, 4, 30, 7, 15, 40, 34, 25, 31, 46, 18, 26, 9, 11, 41, 8, 11, 8, 40, 31, 31, 12, 9, 29, 13, 34, 20, 29, 51, 24, 4, 22, 37, 29, 34, 26, 38, 24, 18, 36, 14, 35, 26, 4, 40, 19, 36, 8, 33, 8, 23, 42, 29, 9, 32, 27, 25, 8, 5, 11, 44, 32, 31, 11, 11, 0, 19, 17, 13, 8, 21, 30, 32, 44, 35, 15, 25, 18, 42, 15, 36, 7, 24, 14, 13, 15, 28, 16, 31, 9
            |6, 22, 22, 19, 26, 17, 16, 19, 26, 24, 12, 23, 16, 11, 22, 16, 33, 27, 8, 35, 35, 30, 9, 21, 21, 34, 26, 17, 26, 25, 35, 41, 29, 11, 17, 26, 38, 30, 35, 43, 36, 23, 3, 19, 33, 32, 28, 26, 13, 20, 19, 15, 17, 10, 23, 26, 7, 26, 23, 40, 24, 9, 23, 38, 12, 40, 40, 31, 16, 24, 19, 37, 43, 35, 23, 8, 19, 0, 8, 24, 24, 9, 11, 37, 37, 19, 5, 23, 18, 23, 4, 17, 24, 28, 14, 13, 18, 10, 14, 25, 17
            |9, 25, 15, 23, 24, 15, 20, 11, 25, 27, 4, 24, 13, 18, 18, 21, 26, 20, 15, 27, 30, 24, 10, 23, 15, 27, 23, 11, 23, 23, 26, 33, 25, 13, 12, 28, 30, 23, 27, 37, 30, 21, 9, 25, 25, 24, 20, 21, 7, 12, 19, 20, 23, 18, 21, 22, 2, 21, 24, 32, 25, 6, 28, 30, 15, 32, 33, 24, 19, 22, 22, 31, 35, 26, 18, 11, 17, 8, 0, 27, 20, 4, 18, 29, 31, 18, 4, 15, 10, 26, 8, 22, 20, 21, 7, 18, 11, 16, 20, 17, 20
            |18, 45, 40, 6, 49, 14, 39, 36, 10, 1, 28, 6, 17, 32, 19, 10, 52, 45, 28, 44, 57, 30, 33, 4, 24, 53, 17, 23, 17, 48, 44, 43, 22, 14, 39, 2, 47, 33, 42, 63, 35, 14, 27, 38, 42, 47, 39, 48, 34, 31, 43, 10, 37, 27, 14, 49, 28, 47, 6, 46, 6, 31, 44, 42, 12, 45, 38, 38, 8, 13, 5, 56, 44, 44, 24, 17, 13, 24, 27, 0, 19, 30, 32, 45, 56, 43, 23, 38, 30, 46, 21, 40, 18, 37, 26, 11, 27, 32, 12, 42, 7
            |19, 45, 27, 21, 43, 9, 40, 24, 10, 20, 19, 13, 9, 36, 2, 22, 38, 33, 32, 26, 46, 11, 30, 16, 8, 40, 4, 10, 4, 42, 27, 24, 5, 16, 30, 18, 29, 14, 23, 50, 16, 5, 27, 43, 24, 31, 23, 38, 26, 17, 39, 22, 41, 33, 5, 41, 23, 36, 13, 27, 13, 26, 47, 23, 17, 26, 19, 19, 16, 6, 18, 42, 25, 27, 6, 18, 8, 24, 20, 19, 0, 24, 36, 26, 42, 38, 20, 24, 17, 46, 20, 41, 1, 19, 15, 20, 14, 34, 23, 30, 16
            |12, 21, 14, 26, 20, 19, 17, 11, 29, 31, 6, 28, 17, 16, 22, 23, 24, 18, 14, 28, 27, 27, 6, 27, 18, 25, 27, 15, 27, 19, 28, 36, 29, 16, 9, 31, 31, 26, 29, 35, 33, 25, 8, 22, 26, 24, 22, 18, 4, 14, 15, 23, 20, 17, 25, 19, 2, 18, 28, 34, 28, 2, 25, 32, 18, 34, 36, 26, 22, 26, 25, 29, 38, 28, 22, 14, 21, 9, 4, 30, 24, 0, 16, 31, 29, 14, 7, 15, 12, 23, 10, 18, 24, 22, 10, 21, 14, 13, 22, 16, 23
            |17, 14, 29, 26, 24, 28, 8, 27, 36, 32, 22, 33, 27, 0, 34, 22, 37, 32, 4, 44, 36, 42, 11, 30, 32, 37, 37, 28, 37, 23, 44, 51, 40, 21, 22, 34, 47, 41, 45, 46, 47, 34, 9, 7, 43, 39, 38, 29, 19, 30, 16, 22, 5, 5, 34, 25, 16, 30, 33, 50, 34, 15, 12, 48, 22, 50, 51, 42, 25, 35, 27, 41, 53, 44, 35, 18, 30, 11, 18, 32, 36, 16, 0, 47, 41, 18, 16, 31, 28, 15, 15, 9, 35, 38, 25, 21, 29, 3, 20, 31, 26
            |36, 50, 20, 46, 39, 32, 47, 21, 37, 46, 25, 39, 29, 47, 26, 45, 24, 22, 45, 4, 34, 16, 37, 41, 21, 26, 30, 23, 30, 39, 4, 9, 26, 36, 28, 45, 3, 13, 3, 32, 15, 31, 38, 53, 4, 14, 9, 30, 28, 17, 41, 44, 51, 47, 31, 36, 31, 26, 39, 4, 40, 33, 55, 6, 38, 4, 16, 7, 39, 33, 43, 25, 11, 4, 21, 36, 32, 37, 29, 45, 26, 31, 47, 0, 25, 38, 33, 16, 20, 51, 36, 48, 27, 9, 23, 42, 20, 44, 45, 20, 41
            |40, 37, 16, 54, 22, 42, 37, 20, 51, 57, 28, 52, 40, 41, 40, 51, 4, 11, 41, 22, 11, 37, 31, 52, 35, 4, 46, 33, 46, 22, 21, 34, 44, 43, 20, 57, 22, 33, 26, 8, 38, 46, 36, 45, 23, 12, 21, 13, 24, 26, 28, 50, 43, 44, 46, 19, 30, 11, 52, 28, 52, 29, 44, 31, 45, 29, 40, 27, 48, 47, 52, 0, 36, 21, 37, 41, 44, 37, 31, 56, 42, 29, 41, 25, 0, 25, 35, 19, 26, 38, 38, 38, 43, 25, 30, 48, 29, 38, 50, 13, 50
            |25, 12, 18, 38, 6, 33, 12, 18, 43, 43, 19, 41, 31, 18, 36, 35, 21, 18, 19, 35, 18, 40, 10, 40, 32, 21, 41, 28, 41, 6, 34, 45, 42, 29, 10, 45, 37, 38, 37, 28, 44, 39, 17, 20, 34, 27, 29, 12, 12, 25, 3, 34, 18, 22, 39, 8, 16, 15, 41, 42, 42, 12, 19, 41, 31, 42, 47, 35, 35, 40, 38, 25, 47, 34, 35, 27, 35, 19, 18, 43, 38, 14, 18, 38, 25, 0, 21, 22, 23, 13, 22, 13, 38, 32, 23, 33, 26, 15, 33, 19, 36
            |5, 26, 19, 19, 27, 13, 20, 16, 23, 23, 8, 21, 11, 16, 18, 16, 31, 24, 13, 30, 34, 25, 11, 20, 16, 32, 22, 12, 22, 26, 30, 36, 25, 9, 16, 24, 33, 25, 30, 41, 31, 19, 7, 23, 28, 29, 24, 25, 11, 15, 21, 16, 21, 15, 19, 26, 5, 25, 21, 35, 22, 9, 28, 33, 11, 35, 35, 27, 15, 20, 18, 35, 38, 30, 18, 6, 15, 5, 4, 23, 20, 7, 16, 33, 35, 21, 0, 19, 13, 27, 3, 22, 19, 24, 9, 13, 13, 14, 15, 22, 16
            |24, 33, 4, 36, 24, 24, 31, 4, 33, 39, 11, 33, 21, 31, 22, 35, 15, 9, 29, 13, 23, 20, 21, 34, 16, 17, 27, 15, 27, 23, 13, 23, 26, 25, 12, 38, 16, 17, 15, 26, 24, 27, 23, 37, 12, 9, 7, 16, 12, 7, 25, 34, 35, 32, 27, 21, 16, 13, 33, 20, 34, 17, 39, 19, 28, 20, 26, 13, 31, 29, 34, 19, 25, 13, 18, 24, 25, 23, 15, 38, 24, 15, 31, 16, 19, 22, 19, 0, 8, 35, 22, 32, 24, 10, 12, 31, 11, 28, 34, 6, 32
            |17, 33, 10, 29, 27, 16, 29, 7, 25, 31, 6, 25, 13, 28, 15, 27, 22, 16, 25, 17, 29, 16, 18, 26, 9, 24, 20, 7, 20, 26, 17, 24, 20, 18, 14, 30, 20, 14, 17, 34, 21, 20, 19, 34, 15, 17, 11, 21, 11, 2, 25, 26, 32, 28, 20, 25, 12, 19, 25, 22, 26, 14, 37, 20, 20, 22, 24, 14, 23, 21, 26, 26, 26, 17, 12, 17, 18, 18, 10, 30, 17, 12, 28, 20, 26, 23, 13, 8, 0, 34, 16, 30, 17, 11, 4, 24, 3, 25, 27, 13, 24
            |29, 1, 31, 40, 16, 40, 7, 30, 49, 46, 29, 46, 38, 15, 45, 36, 34, 31, 18, 48, 29, 50, 17, 44, 41, 34, 49, 38, 49, 16, 47, 57, 51, 34, 23, 48, 50, 49, 50, 40, 55, 46, 20, 11, 47, 40, 42, 25, 23, 36, 10, 36, 11, 20, 46, 19, 24, 28, 46, 55, 47, 21, 7, 54, 35, 54, 59, 47, 39, 47, 41, 38, 59, 47, 44, 31, 42, 23, 26, 46, 46, 23, 15, 51, 38, 13, 27, 35, 34, 0, 27, 6, 46, 44, 33, 35, 36, 14, 35, 32, 40
            |2, 26, 22, 16, 29, 13, 20, 19, 22, 21, 11, 19, 12, 15, 19, 13, 34, 27, 11, 33, 37, 27, 12, 18, 17, 35, 22, 14, 22, 28, 33, 38, 25, 7, 19, 22, 36, 27, 33, 44, 33, 19, 7, 22, 31, 32, 27, 28, 14, 18, 23, 13, 21, 13, 19, 28, 8, 28, 19, 38, 20, 11, 27, 35, 9, 37, 37, 29, 13, 20, 16, 38, 40, 33, 20, 4, 15, 4, 8, 21, 20, 10, 15, 36, 38, 22, 3, 22, 16, 27, 0, 22, 20, 26, 12, 11, 16, 14, 12, 25, 14
            |23, 5, 29, 34, 18, 34, 1, 27, 44, 40, 25, 40, 33, 9, 39, 30, 34, 30, 12, 45, 31, 46, 12, 38, 36, 34, 43, 33, 43, 17, 44, 54, 46, 28, 21, 42, 48, 45, 46, 41, 51, 41, 15, 7, 44, 39, 39, 25, 20, 33, 10, 30, 6, 14, 41, 20, 19, 27, 40, 52, 41, 16, 7, 50, 29, 51, 55, 44, 33, 41, 35, 38, 56, 44, 39, 25, 36, 17, 22, 40, 41, 18, 9, 48, 38, 13, 22, 32, 30, 6, 22, 0, 41, 40, 29, 29, 32, 8, 28, 30, 34
            |19, 45, 27, 20, 43, 8, 40, 24, 9, 19, 19, 12, 8, 35, 2, 22, 39, 33, 31, 27, 46, 12, 30, 15, 8, 41, 3, 10, 3, 42, 27, 25, 6, 15, 30, 17, 30, 15, 24, 50, 17, 4, 26, 42, 25, 32, 23, 38, 26, 17, 39, 21, 40, 32, 4, 41, 22, 36, 12, 28, 12, 26, 47, 24, 16, 27, 20, 20, 15, 5, 17, 43, 26, 27, 6, 17, 7, 24, 20, 18, 1, 24, 35, 27, 43, 38, 19, 24, 17, 46, 20, 41, 0, 20, 15, 19, 14, 34, 22, 30, 16
            |27, 42, 14, 37, 34, 23, 39, 14, 29, 38, 17, 31, 21, 38, 18, 36, 22, 18, 36, 7, 32, 12, 29, 33, 13, 24, 23, 14, 23, 33, 8, 13, 20, 27, 22, 37, 10, 8, 6, 33, 14, 24, 30, 45, 5, 13, 4, 26, 21, 9, 34, 35, 43, 38, 24, 31, 22, 22, 31, 12, 32, 24, 48, 10, 29, 11, 16, 4, 31, 25, 34, 25, 16, 8, 14, 27, 24, 28, 21, 37, 19, 22, 38, 9, 25, 32, 24, 10, 11, 44, 26, 40, 20, 0, 14, 33, 11, 36, 36, 15, 32
            |13, 32, 13, 25, 28, 13, 27, 10, 22, 27, 4, 22, 10, 25, 13, 23, 25, 19, 22, 21, 32, 17, 17, 23, 8, 27, 18, 5, 18, 27, 21, 26, 19, 14, 15, 27, 24, 16, 21, 37, 23, 17, 16, 32, 19, 21, 15, 23, 11, 6, 25, 22, 30, 24, 17, 26, 9, 21, 22, 26, 23, 13, 35, 23, 16, 25, 26, 17, 19, 18, 22, 30, 28, 21, 11, 13, 14, 14, 7, 26, 15, 10, 25, 23, 30, 23, 9, 12, 4, 33, 12, 29, 15, 14, 0, 20, 4, 23, 23, 16, 20
            |8, 34, 32, 6, 39, 12, 28, 29, 17, 11, 21, 12, 13, 21, 19, 3, 44, 37, 17, 40, 47, 30, 22, 9, 21, 45, 20, 19, 20, 38, 40, 43, 25, 6, 30, 13, 43, 31, 39, 55, 36, 16, 16, 27, 38, 41, 35, 39, 25, 26, 32, 2, 26, 16, 16, 39, 18, 38, 12, 44, 13, 21, 33, 40, 4, 43, 39, 35, 5, 16, 6, 48, 44, 40, 23, 7, 13, 13, 18, 11, 20, 21, 21, 42, 48, 33, 13, 31, 24, 35, 11, 29, 19, 33, 20, 0, 22, 21, 3, 35, 5
            |16, 35, 13, 27, 30, 14, 31, 10, 22, 28, 7, 23, 11, 29, 12, 25, 25, 19, 26, 18, 33, 14, 20, 24, 6, 27, 17, 4, 17, 29, 18, 23, 17, 16, 17, 28, 21, 13, 17, 37, 19, 17, 19, 35, 16, 19, 12, 25, 14, 4, 28, 25, 33, 28, 17, 28, 13, 22, 23, 23, 23, 16, 39, 20, 18, 22, 23, 14, 21, 18, 24, 29, 25, 18, 9, 16, 15, 18, 11, 27, 14, 14, 29, 20, 29, 26, 13, 11, 3, 36, 16, 32, 14, 11, 4, 22, 0, 26, 25, 16, 22
            |16, 13, 26, 26, 21, 27, 7, 24, 36, 32, 19, 32, 25, 3, 32, 23, 34, 29, 4, 41, 33, 40, 8, 30, 30, 35, 36, 26, 36, 21, 41, 49, 39, 20, 19, 34, 44, 39, 42, 43, 45, 33, 7, 9, 40, 36, 35, 26, 16, 27, 13, 22, 7, 7, 33, 23, 14, 27, 32, 47, 33, 12, 13, 45, 21, 47, 49, 39, 25, 34, 27, 38, 51, 41, 33, 17, 28, 10, 16, 32, 34, 13, 3, 44, 38, 15, 14, 28, 25, 14, 14, 8, 34, 36, 23, 21, 26, 0, 21, 28, 26
            |10, 34, 34, 6, 40, 15, 28, 31, 19, 12, 23, 14, 16, 20, 22, 2, 46, 39, 16, 43, 49, 33, 23, 11, 24, 47, 23, 22, 23, 39, 43, 46, 28, 9, 31, 14, 46, 35, 42, 57, 39, 19, 17, 26, 41, 43, 37, 40, 26, 28, 33, 2, 25, 15, 19, 40, 20, 40, 14, 47, 15, 23, 32, 43, 7, 46, 42, 38, 8, 19, 8, 50, 47, 43, 26, 9, 16, 14, 20, 12, 23, 22, 20, 45, 50, 33, 15, 34, 27, 35, 12, 28, 22, 36, 23, 3, 25, 21, 0, 37, 8
            |27, 31, 3, 40, 19, 29, 29, 6, 38, 43, 14, 38, 26, 31, 28, 38, 9, 3, 30, 16, 17, 26, 20, 39, 22, 11, 33, 20, 33, 19, 16, 28, 32, 29, 9, 43, 18, 23, 19, 21, 29, 33, 24, 36, 16, 9, 12, 10, 12, 13, 22, 37, 34, 33, 33, 16, 18, 7, 38, 24, 39, 17, 37, 24, 32, 24, 32, 19, 35, 34, 38, 13, 30, 16, 24, 28, 31, 25, 17, 42, 30, 16, 31, 20, 13, 19, 22, 6, 13, 32, 25, 30, 30, 15, 16, 35, 16, 28, 37, 0, 36
            |12, 39, 33, 5, 43, 9, 33, 30, 11, 7, 22, 7, 11, 26, 16, 6, 45, 39, 22, 39, 50, 27, 26, 4, 19, 47, 16, 18, 16, 42, 40, 40, 21, 7, 32, 8, 42, 29, 37, 57, 33, 12, 20, 33, 37, 41, 34, 41, 27, 25, 36, 6, 31, 22, 12, 42, 21, 40, 7, 42, 8, 25, 38, 38, 5, 41, 36, 33, 1, 12, 2, 50, 41, 40, 20, 10, 9, 17, 20, 7, 16, 23, 26, 41, 50, 36, 16, 32, 24, 40, 14, 34, 16, 32, 20, 5, 22, 26, 8, 36, 0|];