% n100w140.001    39.22 1060
n = 101;
duration = [|0, 26, 27, 60, 43, 59, 46, 9, 17, 46, 35, 28, 16, 30, 22, 22, 43, 40, 39, 14, 22, 37, 43, 26, 35, 41, 37, 39, 21, 44, 7, 18, 46, 52, 30, 14, 25, 53, 43, 30, 4, 23, 23, 19, 37, 27, 25, 43, 18, 48, 34, 43, 21, 41, 43, 17, 34, 37, 41, 38, 33, 26, 26, 26, 50, 45, 54, 38, 42, 33, 26, 37, 11, 46, 27, 47, 26, 42, 48, 35, 9, 36, 37, 39, 33, 20, 26, 44, 50, 42, 3, 41, 46, 43, 14, 26, 40, 47, 43, 38, 32
            |26, 0, 1, 34, 33, 34, 40, 21, 9, 19, 23, 20, 11, 4, 12, 23, 26, 14, 24, 12, 23, 10, 29, 6, 11, 15, 15, 12, 18, 23, 21, 16, 19, 26, 14, 16, 2, 26, 16, 11, 23, 25, 7, 7, 19, 17, 18, 16, 17, 25, 7, 20, 7, 27, 25, 20, 10, 11, 17, 20, 25, 23, 8, 1, 24, 19, 28, 16, 31, 21, 14, 12, 15, 25, 9, 22, 0, 16, 23, 13, 17, 14, 11, 13, 7, 12, 21, 22, 25, 18, 28, 29, 26, 17, 13, 11, 14, 22, 23, 12, 18
            |27, 1, 0, 33, 32, 33, 39, 22, 10, 19, 22, 21, 11, 3, 13, 23, 25, 14, 25, 13, 23, 10, 28, 5, 11, 14, 15, 12, 17, 22, 22, 17, 19, 26, 13, 16, 2, 26, 16, 12, 23, 25, 8, 8, 18, 17, 18, 16, 17, 24, 7, 21, 8, 28, 24, 20, 10, 10, 17, 21, 25, 23, 9, 1, 23, 18, 28, 15, 30, 21, 15, 11, 16, 24, 10, 22, 1, 15, 23, 13, 18, 13, 10, 12, 7, 13, 21, 21, 24, 17, 29, 28, 25, 16, 13, 10, 13, 22, 23, 12, 19
            |60, 34, 33, 0, 42, 4, 49, 55, 43, 16, 38, 47, 45, 30, 43, 49, 31, 24, 41, 46, 49, 24, 35, 34, 30, 19, 30, 22, 45, 23, 55, 49, 16, 10, 35, 48, 35, 9, 18, 36, 57, 50, 39, 41, 31, 40, 42, 18, 46, 17, 27, 29, 41, 43, 28, 49, 29, 23, 26, 36, 43, 46, 38, 34, 10, 16, 6, 25, 39, 38, 42, 24, 49, 24, 38, 22, 34, 18, 22, 32, 51, 26, 23, 21, 28, 44, 45, 22, 11, 20, 62, 38, 26, 18, 47, 36, 21, 16, 34, 23, 41
            |43, 33, 32, 42, 0, 39, 8, 45, 34, 38, 10, 53, 37, 30, 44, 21, 11, 41, 57, 36, 21, 36, 7, 27, 42, 30, 45, 35, 22, 19, 43, 46, 38, 32, 19, 30, 31, 40, 35, 44, 42, 21, 39, 34, 15, 18, 18, 36, 25, 25, 34, 50, 38, 60, 14, 26, 40, 32, 45, 52, 10, 17, 40, 32, 36, 30, 38, 22, 3, 12, 47, 28, 37, 18, 42, 48, 33, 33, 48, 45, 36, 22, 34, 32, 36, 43, 17, 21, 31, 25, 46, 4, 16, 38, 37, 23, 29, 28, 54, 37, 51
            |59, 34, 33, 4, 39, 0, 46, 54, 43, 16, 35, 48, 44, 30, 43, 47, 28, 25, 43, 45, 47, 25, 32, 33, 30, 18, 32, 22, 43, 20, 55, 49, 16, 8, 33, 47, 34, 10, 18, 37, 56, 48, 39, 40, 28, 38, 40, 18, 45, 14, 27, 31, 40, 45, 25, 48, 30, 23, 27, 38, 40, 44, 38, 33, 10, 15, 6, 23, 36, 36, 43, 23, 48, 21, 38, 24, 34, 18, 24, 33, 50, 25, 23, 21, 28, 44, 43, 20, 9, 18, 62, 35, 23, 19, 46, 34, 20, 13, 36, 24, 42
            |46, 40, 39, 49, 8, 46, 0, 49, 39, 46, 17, 59, 42, 37, 50, 24, 19, 48, 64, 42, 24, 43, 15, 34, 49, 38, 52, 43, 27, 27, 48, 51, 46, 40, 25, 34, 38, 48, 42, 51, 46, 23, 45, 39, 22, 23, 23, 44, 29, 33, 41, 57, 44, 66, 22, 30, 48, 40, 52, 59, 15, 21, 47, 38, 44, 37, 46, 30, 11, 18, 53, 36, 41, 25, 49, 55, 40, 40, 56, 52, 41, 30, 41, 39, 43, 49, 21, 28, 39, 32, 49, 12, 23, 45, 43, 29, 36, 35, 61, 45, 57
            |9, 21, 22, 55, 45, 54, 49, 0, 13, 40, 35, 19, 10, 25, 14, 25, 42, 33, 30, 9, 25, 30, 43, 22, 27, 36, 29, 33, 23, 42, 2, 9, 40, 47, 28, 15, 21, 47, 37, 22, 5, 27, 16, 14, 35, 27, 26, 37, 20, 45, 28, 35, 14, 32, 42, 20, 27, 31, 34, 30, 35, 28, 18, 21, 45, 40, 49, 35, 43, 33, 17, 32, 8, 43, 19, 39, 21, 36, 40, 27, 9, 33, 31, 34, 27, 12, 28, 41, 46, 38, 9, 42, 44, 37, 9, 24, 35, 43, 34, 32, 23
            |17, 9, 10, 43, 34, 43, 39, 13, 0, 29, 24, 21, 3, 13, 11, 18, 30, 23, 28, 3, 18, 20, 31, 10, 19, 24, 22, 22, 13, 29, 13, 12, 29, 35, 16, 8, 8, 36, 26, 16, 13, 20, 8, 2, 23, 16, 16, 26, 11, 32, 17, 28, 6, 31, 29, 13, 18, 20, 25, 26, 25, 20, 11, 9, 33, 28, 37, 22, 32, 22, 15, 20, 6, 31, 13, 31, 9, 25, 32, 20, 8, 20, 20, 22, 17, 10, 19, 28, 34, 26, 19, 31, 31, 26, 4, 12, 23, 31, 29, 21, 21
            |46, 19, 19, 16, 38, 16, 46, 40, 29, 0, 31, 31, 30, 17, 27, 38, 28, 8, 27, 31, 38, 9, 32, 21, 14, 8, 15, 7, 34, 20, 40, 33, 0, 12, 25, 35, 21, 7, 4, 21, 42, 40, 24, 27, 24, 30, 32, 3, 34, 16, 12, 16, 25, 29, 25, 37, 13, 9, 11, 22, 36, 37, 22, 20, 7, 9, 10, 17, 35, 30, 26, 12, 34, 22, 22, 10, 19, 6, 11, 16, 37, 17, 9, 8, 13, 29, 35, 19, 12, 14, 48, 34, 24, 3, 32, 24, 10, 13, 21, 8, 25
            |35, 23, 22, 38, 10, 35, 17, 35, 24, 31, 0, 43, 27, 21, 34, 14, 9, 32, 47, 26, 14, 26, 8, 17, 32, 23, 36, 26, 13, 15, 34, 36, 31, 27, 9, 21, 21, 34, 27, 34, 33, 15, 29, 23, 7, 8, 9, 28, 16, 21, 24, 40, 28, 50, 11, 18, 31, 23, 36, 42, 5, 11, 30, 21, 30, 23, 33, 14, 8, 2, 36, 19, 27, 15, 32, 39, 23, 25, 40, 35, 27, 14, 25, 23, 26, 33, 9, 16, 26, 18, 38, 7, 14, 29, 27, 13, 21, 22, 44, 28, 41
            |28, 20, 21, 47, 53, 48, 59, 19, 21, 31, 43, 0, 18, 24, 9, 38, 46, 23, 11, 19, 38, 24, 49, 25, 17, 32, 17, 26, 34, 43, 21, 10, 31, 42, 34, 28, 22, 38, 30, 11, 24, 40, 14, 20, 40, 36, 36, 30, 32, 43, 23, 20, 15, 13, 45, 34, 18, 27, 21, 13, 44, 40, 13, 22, 38, 36, 42, 36, 51, 41, 6, 30, 21, 45, 11, 27, 20, 31, 27, 15, 24, 34, 26, 29, 21, 11, 39, 41, 41, 37, 28, 49, 46, 29, 19, 30, 32, 40, 17, 24, 6
            |16, 11, 11, 45, 37, 44, 42, 10, 3, 30, 27, 18, 0, 14, 9, 21, 33, 24, 26, 2, 21, 21, 34, 12, 19, 26, 21, 23, 16, 32, 11, 9, 30, 37, 19, 10, 10, 37, 27, 15, 12, 23, 7, 4, 26, 19, 19, 27, 14, 35, 18, 27, 5, 29, 32, 16, 18, 21, 25, 24, 28, 23, 10, 11, 35, 30, 39, 25, 35, 25, 13, 22, 5, 34, 12, 31, 11, 26, 32, 19, 8, 23, 21, 23, 17, 7, 22, 31, 36, 28, 18, 34, 34, 27, 2, 15, 25, 33, 28, 22, 19
            |30, 4, 3, 30, 30, 30, 37, 25, 13, 17, 21, 24, 14, 0, 16, 23, 23, 13, 26, 16, 23, 8, 26, 5, 12, 11, 15, 9, 18, 19, 25, 20, 17, 22, 12, 18, 4, 23, 13, 14, 26, 25, 11, 11, 16, 16, 18, 13, 18, 21, 5, 21, 11, 29, 21, 21, 10, 7, 16, 22, 24, 23, 11, 4, 21, 15, 25, 12, 28, 19, 17, 8, 18, 21, 13, 21, 4, 12, 22, 14, 21, 10, 8, 9, 6, 16, 21, 18, 21, 14, 32, 26, 22, 14, 16, 9, 10, 18, 24, 10, 21
            |22, 12, 13, 43, 44, 43, 50, 14, 11, 27, 34, 9, 9, 16, 0, 29, 38, 20, 17, 11, 29, 19, 40, 17, 14, 26, 15, 21, 25, 35, 16, 6, 27, 37, 25, 19, 13, 35, 25, 8, 18, 31, 5, 11, 31, 27, 27, 25, 23, 36, 17, 21, 6, 20, 36, 25, 14, 21, 20, 16, 35, 31, 5, 13, 34, 30, 38, 28, 42, 32, 4, 23, 13, 37, 6, 26, 12, 26, 27, 13, 16, 26, 20, 23, 15, 2, 30, 34, 36, 30, 23, 40, 38, 25, 10, 21, 25, 34, 20, 20, 10
            |22, 23, 23, 49, 21, 47, 24, 25, 18, 38, 14, 38, 21, 23, 29, 0, 24, 36, 46, 19, 0, 31, 22, 18, 34, 31, 37, 32, 5, 28, 23, 29, 38, 39, 14, 11, 21, 43, 34, 33, 22, 2, 26, 19, 19, 9, 7, 35, 6, 33, 28, 43, 24, 48, 25, 5, 33, 29, 39, 43, 11, 4, 28, 22, 40, 33, 44, 24, 21, 13, 33, 26, 18, 28, 30, 44, 23, 33, 45, 36, 17, 22, 30, 30, 29, 28, 5, 28, 38, 29, 25, 20, 28, 36, 20, 14, 29, 34, 46, 33, 39
            |43, 26, 25, 31, 11, 28, 19, 42, 30, 28, 9, 46, 33, 23, 38, 24, 0, 31, 49, 33, 24, 26, 4, 21, 33, 20, 36, 25, 22, 8, 41, 41, 28, 21, 14, 29, 25, 29, 24, 37, 41, 24, 33, 29, 7, 16, 18, 26, 25, 14, 25, 40, 33, 51, 3, 27, 32, 23, 35, 44, 14, 20, 34, 25, 25, 19, 27, 12, 8, 11, 40, 18, 34, 7, 35, 37, 26, 22, 38, 36, 35, 13, 24, 22, 27, 38, 19, 9, 20, 14, 46, 7, 5, 27, 34, 18, 18, 16, 45, 28, 43
            |40, 14, 14, 24, 41, 25, 48, 33, 23, 8, 32, 23, 24, 13, 20, 36, 31, 0, 19, 25, 36, 5, 35, 18, 6, 12, 7, 6, 31, 24, 34, 25, 8, 20, 24, 31, 16, 15, 8, 13, 36, 38, 17, 21, 26, 29, 31, 7, 31, 22, 8, 9, 19, 22, 28, 34, 6, 9, 4, 14, 36, 36, 15, 15, 15, 15, 19, 19, 38, 31, 18, 13, 29, 27, 14, 8, 14, 10, 9, 8, 31, 19, 7, 9, 7, 21, 34, 23, 19, 18, 41, 36, 29, 6, 26, 22, 13, 19, 14, 4, 17
            |39, 24, 25, 41, 57, 43, 64, 30, 28, 27, 47, 11, 26, 26, 17, 46, 49, 19, 0, 28, 46, 23, 52, 30, 16, 31, 13, 24, 41, 43, 32, 21, 27, 39, 38, 36, 26, 33, 28, 13, 35, 48, 20, 27, 42, 41, 42, 26, 39, 42, 23, 12, 22, 3, 46, 42, 17, 26, 16, 5, 50, 47, 17, 25, 34, 34, 37, 37, 54, 45, 13, 30, 31, 45, 15, 19, 24, 29, 20, 13, 34, 36, 25, 28, 21, 19, 45, 42, 38, 37, 39, 53, 47, 25, 28, 35, 31, 38, 8, 22, 7
            |14, 12, 13, 46, 36, 45, 42, 9, 3, 31, 26, 19, 2, 16, 11, 19, 33, 25, 28, 0, 19, 22, 34, 13, 21, 27, 23, 24, 15, 32, 9, 10, 31, 38, 19, 9, 11, 38, 28, 17, 11, 21, 9, 5, 26, 19, 18, 28, 13, 35, 19, 29, 7, 31, 32, 14, 20, 23, 27, 26, 27, 22, 12, 12, 36, 31, 40, 26, 35, 25, 15, 23, 3, 34, 14, 33, 12, 28, 34, 21, 6, 23, 23, 25, 19, 9, 21, 32, 37, 29, 16, 34, 35, 29, 1, 15, 26, 34, 30, 24, 21
            |22, 23, 23, 49, 21, 47, 24, 25, 18, 38, 14, 38, 21, 23, 29, 0, 24, 36, 46, 19, 0, 31, 22, 18, 34, 31, 37, 32, 5, 28, 23, 29, 38, 39, 14, 11, 21, 43, 34, 33, 22, 2, 26, 19, 19, 9, 7, 35, 6, 33, 28, 43, 24, 48, 25, 5, 33, 29, 39, 43, 11, 4, 28, 22, 40, 33, 44, 24, 21, 13, 33, 26, 18, 28, 30, 44, 23, 33, 45, 36, 17, 22, 30, 30, 29, 28, 5, 28, 38, 29, 25, 20, 28, 36, 20, 14, 29, 34, 46, 33, 39
            |37, 10, 10, 24, 36, 25, 43, 30, 20, 9, 26, 24, 21, 8, 19, 31, 26, 5, 23, 22, 31, 0, 30, 13, 7, 8, 10, 2, 26, 20, 31, 24, 9, 18, 19, 26, 12, 16, 7, 13, 33, 33, 15, 17, 21, 24, 25, 6, 26, 19, 3, 14, 16, 25, 24, 29, 6, 4, 9, 18, 30, 30, 13, 11, 15, 12, 19, 14, 33, 25, 18, 8, 25, 22, 14, 13, 10, 7, 14, 10, 28, 13, 2, 5, 4, 20, 28, 19, 17, 14, 38, 31, 24, 6, 23, 17, 9, 16, 18, 2, 19
            |43, 29, 28, 35, 7, 32, 15, 43, 31, 32, 8, 49, 34, 26, 40, 22, 4, 35, 52, 34, 22, 30, 0, 23, 36, 24, 40, 29, 22, 12, 42, 43, 32, 25, 15, 29, 27, 33, 28, 39, 41, 22, 35, 31, 9, 16, 17, 30, 25, 18, 28, 44, 34, 54, 7, 26, 35, 26, 39, 47, 11, 18, 36, 27, 29, 23, 31, 16, 4, 10, 43, 22, 35, 11, 38, 41, 29, 26, 42, 39, 35, 16, 28, 26, 31, 40, 17, 14, 24, 18, 46, 3, 9, 31, 35, 19, 22, 21, 48, 31, 46
            |26, 6, 5, 34, 27, 33, 34, 22, 10, 21, 17, 25, 12, 5, 17, 18, 21, 18, 30, 13, 18, 13, 23, 0, 16, 15, 20, 14, 13, 19, 22, 20, 21, 25, 9, 14, 4, 27, 17, 17, 23, 20, 12, 8, 14, 12, 13, 18, 13, 22, 10, 25, 11, 33, 20, 16, 15, 12, 21, 26, 20, 18, 13, 4, 24, 18, 29, 13, 25, 16, 19, 11, 15, 21, 15, 26, 6, 16, 27, 18, 17, 10, 12, 13, 11, 16, 16, 19, 24, 16, 29, 24, 22, 19, 14, 5, 13, 21, 28, 15, 23
            |35, 11, 11, 30, 42, 30, 49, 27, 19, 14, 32, 17, 19, 12, 14, 34, 33, 6, 16, 21, 34, 7, 36, 16, 0, 15, 4, 9, 29, 27, 29, 20, 14, 25, 24, 27, 13, 21, 13, 7, 31, 36, 12, 17, 27, 28, 29, 12, 28, 26, 8, 9, 14, 18, 31, 31, 1, 11, 6, 11, 36, 34, 9, 12, 21, 19, 24, 21, 39, 31, 13, 15, 24, 30, 8, 12, 11, 14, 13, 3, 27, 20, 9, 12, 6, 16, 32, 26, 24, 21, 36, 37, 31, 11, 21, 21, 16, 23, 12, 7, 12
            |41, 15, 14, 19, 30, 18, 38, 36, 24, 8, 23, 32, 26, 11, 26, 31, 20, 12, 31, 27, 31, 8, 24, 15, 15, 0, 18, 6, 26, 13, 36, 31, 8, 11, 17, 29, 16, 13, 4, 21, 38, 33, 22, 22, 16, 22, 24, 6, 27, 11, 9, 21, 22, 33, 17, 30, 14, 5, 16, 26, 27, 29, 21, 15, 9, 4, 14, 9, 27, 22, 26, 4, 30, 15, 21, 17, 15, 2, 18, 18, 32, 9, 6, 3, 11, 27, 27, 11, 10, 6, 43, 26, 17, 7, 28, 17, 2, 8, 26, 9, 27
            |37, 15, 15, 30, 45, 32, 52, 29, 22, 15, 36, 17, 21, 15, 15, 37, 36, 7, 13, 23, 37, 10, 40, 20, 4, 18, 0, 12, 32, 30, 30, 21, 15, 27, 27, 30, 17, 22, 15, 7, 33, 40, 14, 20, 30, 31, 33, 14, 32, 29, 11, 6, 16, 15, 34, 34, 5, 14, 5, 8, 39, 38, 11, 16, 22, 22, 25, 24, 42, 34, 13, 18, 26, 33, 10, 11, 15, 16, 11, 2, 29, 23, 13, 15, 9, 17, 36, 29, 26, 24, 38, 41, 34, 13, 24, 25, 19, 26, 9, 9, 10
            |39, 12, 12, 22, 35, 22, 43, 33, 22, 7, 26, 26, 23, 9, 21, 32, 25, 6, 24, 24, 32, 2, 29, 14, 9, 6, 12, 0, 27, 19, 33, 26, 7, 16, 19, 28, 13, 14, 4, 15, 35, 34, 17, 19, 20, 24, 26, 4, 27, 17, 5, 15, 18, 27, 23, 31, 8, 3, 10, 19, 31, 31, 16, 13, 13, 10, 17, 13, 32, 26, 21, 7, 27, 21, 16, 13, 12, 5, 14, 12, 30, 13, 2, 4, 6, 22, 29, 17, 15, 13, 40, 31, 23, 4, 25, 18, 7, 14, 19, 2, 21
            |21, 18, 17, 45, 22, 43, 27, 23, 13, 34, 13, 34, 16, 18, 25, 5, 22, 31, 41, 15, 5, 26, 22, 13, 29, 26, 32, 27, 0, 25, 21, 25, 34, 35, 10, 8, 16, 39, 30, 28, 20, 7, 21, 14, 16, 6, 4, 30, 3, 30, 23, 38, 19, 44, 22, 5, 28, 24, 34, 38, 12, 6, 23, 16, 35, 29, 39, 20, 21, 11, 28, 22, 15, 26, 26, 39, 18, 28, 40, 31, 14, 18, 25, 25, 24, 23, 5, 25, 34, 25, 24, 20, 25, 31, 16, 9, 24, 30, 40, 28, 34
            |44, 23, 22, 23, 19, 20, 27, 42, 29, 20, 15, 43, 32, 19, 35, 28, 8, 24, 43, 32, 28, 20, 12, 19, 27, 13, 30, 19, 25, 0, 41, 39, 20, 13, 15, 31, 22, 21, 17, 32, 42, 29, 30, 28, 9, 19, 21, 18, 27, 6, 20, 34, 30, 46, 5, 30, 26, 17, 29, 38, 20, 25, 30, 22, 17, 11, 19, 7, 16, 16, 36, 13, 34, 2, 31, 30, 23, 15, 30, 30, 35, 9, 18, 15, 22, 35, 23, 1, 12, 6, 47, 15, 4, 20, 33, 18, 12, 8, 38, 21, 39
            |7, 21, 22, 55, 43, 55, 48, 2, 13, 40, 34, 21, 11, 25, 16, 23, 41, 34, 32, 9, 23, 31, 42, 22, 29, 36, 30, 33, 21, 41, 0, 11, 40, 47, 27, 13, 21, 47, 37, 23, 3, 25, 17, 14, 35, 26, 25, 37, 18, 45, 28, 36, 15, 34, 41, 18, 28, 32, 35, 31, 33, 27, 19, 21, 45, 40, 50, 35, 42, 32, 19, 32, 7, 43, 21, 41, 21, 37, 42, 28, 7, 33, 32, 34, 28, 14, 26, 41, 46, 38, 8, 41, 43, 38, 9, 24, 35, 43, 36, 33, 25
            |18, 16, 17, 49, 46, 49, 51, 9, 12, 33, 36, 10, 9, 20, 6, 29, 41, 25, 21, 10, 29, 24, 43, 20, 20, 31, 21, 26, 25, 39, 11, 0, 33, 42, 28, 18, 17, 40, 31, 14, 14, 31, 9, 12, 34, 28, 28, 31, 23, 41, 22, 26, 9, 23, 40, 24, 20, 26, 26, 21, 37, 32, 11, 17, 39, 35, 43, 32, 44, 34, 9, 28, 11, 41, 11, 31, 16, 31, 32, 19, 14, 30, 25, 28, 21, 4, 31, 38, 41, 35, 18, 43, 42, 30, 9, 24, 30, 39, 25, 25, 14
            |46, 19, 19, 16, 38, 16, 46, 40, 29, 0, 31, 31, 30, 17, 27, 38, 28, 8, 27, 31, 38, 9, 32, 21, 14, 8, 15, 7, 34, 20, 40, 33, 0, 12, 25, 35, 21, 7, 4, 21, 42, 40, 24, 27, 24, 30, 32, 3, 34, 16, 12, 16, 25, 29, 25, 37, 13, 9, 11, 22, 36, 37, 22, 20, 7, 9, 10, 17, 35, 30, 26, 12, 34, 22, 22, 10, 19, 6, 11, 16, 37, 17, 9, 8, 13, 29, 35, 19, 12, 14, 48, 34, 24, 3, 32, 24, 10, 13, 21, 8, 25
            |52, 26, 26, 10, 32, 8, 40, 47, 35, 12, 27, 42, 37, 22, 37, 39, 21, 20, 39, 38, 39, 18, 25, 25, 25, 11, 27, 16, 35, 13, 47, 42, 12, 0, 25, 39, 27, 9, 12, 31, 48, 40, 33, 33, 21, 30, 32, 13, 37, 7, 20, 28, 34, 42, 18, 40, 24, 16, 23, 34, 33, 36, 32, 26, 6, 7, 6, 15, 29, 28, 37, 15, 41, 14, 32, 22, 26, 11, 22, 28, 43, 17, 17, 14, 22, 38, 35, 12, 1, 10, 54, 28, 16, 14, 39, 26, 12, 5, 33, 18, 37
            |30, 14, 13, 35, 19, 33, 25, 28, 16, 25, 9, 34, 19, 12, 25, 14, 14, 24, 38, 19, 14, 19, 15, 9, 24, 17, 27, 19, 10, 15, 27, 28, 25, 25, 0, 16, 12, 30, 21, 25, 27, 16, 20, 15, 7, 5, 7, 22, 12, 20, 17, 33, 19, 41, 14, 15, 22, 16, 28, 34, 12, 12, 22, 13, 26, 19, 30, 10, 17, 7, 28, 13, 20, 16, 24, 32, 14, 19, 33, 26, 21, 9, 17, 17, 18, 24, 10, 15, 24, 15, 32, 15, 16, 23, 20, 4, 15, 20, 36, 21, 32
            |14, 16, 16, 48, 30, 47, 34, 15, 8, 35, 21, 28, 10, 18, 19, 11, 29, 31, 36, 9, 11, 26, 29, 14, 27, 29, 30, 28, 8, 31, 13, 18, 35, 39, 16, 0, 15, 41, 31, 25, 12, 13, 16, 10, 23, 13, 12, 32, 5, 35, 23, 36, 15, 39, 29, 6, 26, 25, 33, 34, 20, 14, 19, 16, 38, 32, 42, 25, 29, 19, 23, 24, 7, 32, 22, 38, 16, 30, 39, 28, 6, 23, 26, 27, 24, 17, 13, 30, 38, 29, 17, 28, 32, 32, 9, 13, 27, 34, 37, 28, 29
            |25, 2, 2, 35, 31, 34, 38, 21, 8, 21, 21, 22, 10, 4, 13, 21, 25, 16, 26, 11, 21, 12, 27, 4, 13, 16, 17, 13, 16, 22, 21, 17, 21, 27, 12, 15, 0, 27, 17, 13, 22, 23, 8, 6, 18, 15, 16, 17, 15, 24, 9, 23, 8, 29, 23, 18, 12, 11, 19, 22, 23, 21, 9, 1, 25, 19, 29, 15, 29, 19, 16, 12, 14, 24, 11, 24, 2, 16, 25, 15, 16, 13, 12, 13, 9, 13, 19, 21, 25, 18, 28, 27, 25, 18, 12, 8, 14, 22, 25, 14, 20
            |53, 26, 26, 9, 40, 10, 48, 47, 36, 7, 34, 38, 37, 23, 35, 43, 29, 15, 33, 38, 43, 16, 33, 27, 21, 13, 22, 14, 39, 21, 47, 40, 7, 9, 30, 41, 27, 0, 10, 28, 49, 45, 31, 33, 27, 35, 37, 10, 40, 16, 19, 21, 33, 35, 26, 43, 21, 16, 17, 28, 39, 42, 29, 26, 4, 11, 4, 20, 37, 34, 34, 17, 41, 22, 29, 14, 26, 11, 14, 23, 44, 21, 16, 14, 20, 36, 40, 20, 9, 16, 55, 36, 25, 10, 39, 30, 15, 13, 26, 15, 32
            |43, 16, 16, 18, 35, 18, 42, 37, 26, 4, 27, 30, 27, 13, 25, 34, 24, 8, 28, 28, 34, 7, 28, 17, 13, 4, 15, 4, 30, 17, 37, 31, 4, 12, 21, 31, 17, 10, 0, 19, 39, 36, 22, 23, 20, 26, 28, 1, 30, 14, 9, 17, 23, 30, 21, 34, 12, 6, 12, 23, 32, 33, 20, 16, 8, 7, 12, 13, 32, 26, 25, 8, 31, 19, 20, 13, 16, 2, 14, 16, 34, 13, 6, 4, 10, 26, 31, 16, 11, 11, 45, 30, 21, 3, 29, 20, 6, 11, 22, 6, 25
            |30, 11, 12, 36, 44, 37, 51, 22, 16, 21, 34, 11, 15, 14, 8, 33, 37, 13, 13, 17, 33, 13, 39, 17, 7, 21, 7, 15, 28, 32, 23, 14, 21, 31, 25, 25, 13, 28, 19, 0, 26, 35, 8, 15, 30, 28, 29, 19, 27, 32, 12, 13, 10, 16, 35, 29, 7, 16, 12, 9, 37, 34, 5, 13, 27, 25, 31, 25, 42, 33, 6, 19, 20, 34, 3, 18, 11, 20, 19, 5, 23, 24, 15, 18, 10, 10, 32, 31, 30, 26, 31, 40, 36, 18, 17, 22, 21, 29, 13, 13, 7
            |4, 23, 23, 57, 42, 56, 46, 5, 13, 42, 33, 24, 12, 26, 18, 22, 41, 36, 35, 11, 22, 33, 41, 23, 31, 38, 33, 35, 20, 42, 3, 14, 42, 48, 27, 12, 22, 49, 39, 26, 0, 23, 19, 16, 34, 25, 24, 39, 17, 45, 30, 39, 17, 37, 41, 16, 30, 33, 37, 34, 32, 25, 22, 23, 47, 41, 51, 35, 41, 31, 22, 33, 8, 43, 23, 43, 23, 38, 44, 31, 6, 33, 33, 35, 29, 16, 25, 41, 47, 39, 6, 40, 43, 39, 10, 24, 36, 44, 38, 34, 28
            |23, 25, 25, 50, 21, 48, 23, 27, 20, 40, 15, 40, 23, 25, 31, 2, 24, 38, 48, 21, 2, 33, 22, 20, 36, 33, 40, 34, 7, 29, 25, 31, 40, 40, 16, 13, 23, 45, 36, 35, 23, 0, 28, 21, 20, 10, 8, 37, 9, 34, 30, 45, 26, 51, 25, 7, 35, 31, 42, 45, 11, 4, 30, 24, 41, 34, 45, 26, 21, 13, 35, 28, 20, 29, 33, 46, 25, 34, 47, 38, 18, 24, 32, 32, 31, 30, 6, 29, 39, 30, 26, 20, 28, 38, 22, 16, 31, 35, 48, 35, 41
            |23, 7, 8, 39, 39, 39, 45, 16, 8, 24, 29, 14, 7, 11, 5, 26, 33, 17, 20, 9, 26, 15, 35, 12, 12, 22, 14, 17, 21, 30, 17, 9, 24, 33, 20, 16, 8, 31, 22, 8, 19, 28, 0, 7, 26, 22, 23, 21, 19, 32, 13, 20, 2, 23, 31, 22, 12, 17, 18, 17, 31, 27, 3, 8, 30, 26, 34, 23, 37, 27, 8, 18, 12, 32, 5, 24, 7, 21, 25, 12, 15, 21, 16, 19, 11, 5, 25, 29, 31, 25, 24, 35, 33, 21, 9, 16, 21, 29, 21, 16, 13
            |19, 7, 8, 41, 34, 40, 39, 14, 2, 27, 23, 20, 4, 11, 11, 19, 29, 21, 27, 5, 19, 17, 31, 8, 17, 22, 20, 19, 14, 28, 14, 12, 27, 33, 15, 10, 6, 33, 23, 15, 16, 21, 7, 0, 22, 16, 16, 24, 13, 30, 14, 26, 5, 30, 28, 15, 16, 18, 23, 24, 25, 21, 9, 7, 31, 26, 35, 21, 32, 22, 14, 18, 8, 29, 12, 29, 7, 23, 30, 18, 10, 19, 18, 20, 14, 9, 19, 27, 32, 24, 21, 30, 30, 24, 6, 11, 21, 29, 27, 19, 20
            |37, 19, 18, 31, 15, 28, 22, 35, 23, 24, 7, 40, 26, 16, 31, 19, 7, 26, 42, 26, 19, 21, 9, 14, 27, 16, 30, 20, 16, 9, 35, 34, 24, 21, 7, 23, 18, 27, 20, 30, 34, 20, 26, 22, 0, 11, 13, 22, 19, 14, 19, 35, 25, 45, 6, 21, 25, 17, 30, 38, 12, 16, 27, 18, 23, 16, 26, 7, 12, 7, 33, 13, 27, 9, 29, 33, 19, 18, 34, 30, 28, 7, 19, 17, 21, 31, 14, 9, 19, 11, 40, 11, 9, 23, 27, 11, 14, 15, 39, 22, 37
            |27, 17, 17, 40, 18, 38, 23, 27, 16, 30, 8, 36, 19, 16, 27, 9, 16, 29, 41, 19, 9, 24, 16, 12, 28, 22, 31, 24, 6, 19, 26, 28, 30, 30, 5, 13, 15, 35, 26, 28, 25, 10, 22, 16, 11, 0, 2, 27, 9, 24, 21, 37, 21, 44, 17, 11, 26, 21, 33, 37, 9, 7, 24, 16, 31, 24, 35, 15, 16, 6, 30, 18, 19, 20, 26, 37, 17, 24, 38, 30, 19, 14, 22, 22, 22, 26, 5, 19, 29, 20, 30, 15, 19, 28, 20, 7, 20, 25, 40, 25, 35
            |25, 18, 18, 42, 18, 40, 23, 26, 16, 32, 9, 36, 19, 18, 27, 7, 18, 31, 42, 18, 7, 25, 17, 13, 29, 24, 33, 26, 4, 21, 25, 28, 32, 32, 7, 12, 16, 37, 28, 29, 24, 8, 23, 16, 13, 2, 0, 29, 7, 27, 23, 38, 21, 45, 19, 9, 28, 23, 34, 39, 9, 5, 25, 17, 33, 26, 37, 17, 17, 7, 30, 20, 18, 22, 27, 38, 18, 26, 39, 31, 18, 16, 24, 24, 24, 26, 3, 21, 31, 22, 28, 16, 21, 30, 19, 8, 22, 27, 41, 27, 35
            |43, 16, 16, 18, 36, 18, 44, 37, 26, 3, 28, 30, 27, 13, 25, 35, 26, 7, 26, 28, 35, 6, 30, 18, 12, 6, 14, 4, 30, 18, 37, 31, 3, 13, 22, 32, 17, 10, 1, 19, 39, 37, 21, 24, 22, 27, 29, 0, 31, 16, 9, 16, 23, 29, 23, 34, 11, 6, 11, 21, 33, 34, 20, 17, 9, 8, 13, 14, 33, 28, 24, 9, 31, 21, 20, 11, 16, 4, 12, 15, 34, 15, 6, 5, 10, 26, 32, 17, 12, 12, 45, 32, 23, 1, 29, 21, 8, 12, 21, 5, 24
            |18, 17, 17, 46, 25, 45, 29, 20, 11, 34, 16, 32, 14, 18, 23, 6, 25, 31, 39, 13, 6, 26, 25, 13, 28, 27, 32, 27, 3, 27, 18, 23, 34, 37, 12, 5, 15, 40, 30, 27, 17, 9, 19, 13, 19, 9, 7, 31, 0, 32, 23, 37, 17, 42, 25, 3, 27, 25, 34, 36, 15, 9, 22, 16, 37, 30, 41, 22, 24, 14, 27, 23, 12, 28, 24, 39, 17, 29, 40, 30, 11, 20, 25, 26, 24, 21, 8, 27, 35, 26, 21, 23, 28, 32, 14, 10, 25, 31, 40, 28, 32
            |48, 25, 24, 17, 25, 14, 33, 45, 32, 16, 21, 43, 35, 21, 36, 33, 14, 22, 42, 35, 33, 19, 18, 22, 26, 11, 29, 17, 30, 6, 45, 41, 16, 7, 20, 35, 24, 16, 14, 32, 45, 34, 32, 30, 14, 24, 27, 16, 32, 0, 20, 31, 32, 44, 11, 35, 25, 16, 26, 37, 26, 30, 31, 24, 12, 8, 13, 10, 22, 22, 37, 13, 38, 7, 32, 26, 25, 13, 27, 30, 39, 12, 17, 14, 22, 37, 29, 5, 6, 6, 51, 21, 9, 17, 36, 22, 11, 4, 36, 20, 38
            |34, 7, 7, 27, 34, 27, 41, 28, 17, 12, 24, 23, 18, 5, 17, 28, 25, 8, 23, 19, 28, 3, 28, 10, 8, 9, 11, 5, 23, 20, 28, 22, 12, 20, 17, 23, 9, 19, 9, 12, 30, 30, 13, 14, 19, 21, 23, 9, 23, 20, 0, 16, 14, 26, 23, 26, 6, 4, 12, 19, 28, 28, 11, 8, 17, 13, 21, 13, 31, 23, 17, 7, 22, 22, 12, 16, 7, 9, 17, 11, 25, 12, 4, 6, 2, 17, 26, 19, 19, 14, 35, 30, 24, 9, 20, 14, 9, 17, 20, 5, 19
            |43, 20, 21, 29, 50, 31, 57, 35, 28, 16, 40, 20, 27, 21, 21, 43, 40, 9, 12, 29, 43, 14, 44, 25, 9, 21, 6, 15, 38, 34, 36, 26, 16, 28, 33, 36, 23, 21, 17, 13, 39, 45, 20, 26, 35, 37, 38, 16, 37, 31, 16, 0, 22, 14, 38, 40, 10, 18, 5, 8, 44, 43, 17, 22, 22, 24, 25, 28, 47, 39, 17, 22, 32, 36, 16, 7, 20, 19, 8, 8, 35, 28, 16, 18, 14, 22, 41, 32, 27, 27, 44, 45, 38, 14, 29, 30, 22, 28, 5, 13, 13
            |21, 7, 8, 41, 38, 40, 44, 14, 6, 25, 28, 15, 5, 11, 6, 24, 33, 19, 22, 7, 24, 16, 34, 11, 14, 22, 16, 18, 19, 30, 15, 9, 25, 34, 19, 15, 8, 33, 23, 10, 17, 26, 2, 5, 25, 21, 21, 23, 17, 32, 14, 22, 0, 25, 31, 20, 13, 17, 20, 19, 29, 25, 5, 8, 31, 26, 35, 23, 36, 26, 9, 19, 10, 32, 7, 26, 7, 22, 27, 14, 13, 21, 17, 20, 13, 5, 24, 29, 32, 26, 22, 35, 33, 23, 7, 15, 22, 30, 23, 18, 15
            |41, 27, 28, 43, 60, 45, 66, 32, 31, 29, 50, 13, 29, 29, 20, 48, 51, 22, 3, 31, 48, 25, 54, 33, 18, 33, 15, 27, 44, 46, 34, 23, 29, 42, 41, 39, 29, 35, 30, 16, 37, 51, 23, 30, 45, 44, 45, 29, 42, 44, 26, 14, 25, 0, 49, 44, 20, 29, 18, 8, 52, 50, 20, 28, 36, 37, 39, 39, 57, 48, 16, 33, 33, 48, 18, 21, 27, 32, 21, 15, 36, 38, 28, 30, 24, 22, 48, 44, 41, 39, 41, 55, 50, 28, 30, 38, 34, 41, 9, 25, 10
            |43, 25, 24, 28, 14, 25, 22, 42, 29, 25, 11, 45, 32, 21, 36, 25, 3, 28, 46, 32, 25, 24, 7, 20, 31, 17, 34, 23, 22, 5, 41, 40, 25, 18, 14, 29, 23, 26, 21, 35, 41, 25, 31, 28, 6, 17, 19, 23, 25, 11, 23, 38, 31, 49, 0, 27, 29, 20, 33, 41, 16, 21, 32, 23, 22, 16, 24, 9, 11, 12, 38, 16, 34, 4, 34, 34, 25, 19, 35, 34, 34, 11, 21, 19, 25, 36, 20, 6, 17, 11, 46, 10, 3, 24, 33, 17, 16, 13, 42, 25, 41
            |17, 20, 20, 49, 26, 48, 30, 20, 13, 37, 18, 34, 16, 21, 25, 5, 27, 34, 42, 14, 5, 29, 26, 16, 31, 30, 34, 31, 5, 30, 18, 24, 37, 40, 15, 6, 18, 43, 34, 29, 16, 7, 22, 15, 21, 11, 9, 34, 3, 35, 26, 40, 20, 44, 27, 0, 30, 28, 37, 39, 16, 9, 24, 19, 40, 33, 44, 25, 25, 16, 29, 26, 13, 31, 27, 42, 20, 32, 43, 33, 11, 23, 29, 29, 27, 23, 9, 30, 38, 29, 20, 25, 30, 35, 15, 13, 29, 34, 42, 31, 34
            |34, 10, 10, 29, 40, 30, 48, 27, 18, 13, 31, 18, 18, 10, 14, 33, 32, 6, 17, 20, 33, 6, 35, 15, 1, 14, 5, 8, 28, 26, 28, 20, 13, 24, 22, 26, 12, 21, 12, 7, 30, 35, 12, 16, 25, 26, 28, 11, 27, 25, 6, 10, 13, 20, 29, 30, 0, 9, 7, 12, 34, 33, 9, 11, 20, 18, 24, 20, 37, 29, 13, 13, 23, 28, 9, 13, 10, 13, 14, 4, 26, 19, 8, 11, 4, 16, 31, 25, 23, 20, 36, 36, 30, 11, 21, 20, 15, 22, 14, 6, 13
            |37, 11, 10, 23, 32, 23, 40, 31, 20, 9, 23, 27, 21, 7, 21, 29, 23, 9, 26, 23, 29, 4, 26, 12, 11, 5, 14, 3, 24, 17, 32, 26, 9, 16, 16, 25, 11, 16, 6, 16, 33, 31, 17, 18, 17, 21, 23, 6, 25, 16, 4, 18, 17, 29, 20, 28, 9, 0, 13, 21, 28, 28, 16, 11, 13, 9, 18, 11, 29, 22, 21, 4, 25, 19, 16, 16, 11, 5, 17, 14, 28, 10, 1, 2, 6, 22, 26, 15, 15, 10, 39, 28, 21, 7, 23, 15, 5, 13, 22, 5, 22
            |41, 17, 17, 26, 45, 27, 52, 34, 25, 11, 36, 21, 25, 16, 20, 39, 35, 4, 16, 27, 39, 9, 39, 21, 6, 16, 5, 10, 34, 29, 35, 26, 11, 23, 28, 33, 19, 17, 12, 12, 37, 42, 18, 23, 30, 33, 34, 11, 34, 26, 12, 5, 20, 18, 33, 37, 7, 13, 0, 11, 40, 39, 16, 18, 18, 19, 21, 23, 42, 35, 18, 17, 30, 31, 14, 6, 17, 14, 7, 7, 33, 23, 11, 13, 10, 22, 37, 27, 23, 22, 42, 41, 33, 9, 28, 26, 17, 23, 10, 8, 15
            |38, 20, 21, 36, 52, 38, 59, 30, 26, 22, 42, 13, 24, 22, 16, 43, 44, 14, 5, 26, 43, 18, 47, 26, 11, 26, 8, 19, 38, 38, 31, 21, 22, 34, 34, 34, 22, 28, 23, 9, 34, 45, 17, 24, 38, 37, 39, 21, 36, 37, 19, 8, 19, 8, 41, 39, 12, 21, 11, 0, 46, 43, 15, 22, 29, 29, 32, 32, 50, 41, 12, 26, 29, 40, 12, 15, 20, 24, 15, 8, 32, 31, 20, 23, 16, 18, 42, 37, 33, 32, 39, 48, 42, 20, 26, 31, 26, 33, 4, 17, 7
            |33, 25, 25, 43, 10, 40, 15, 35, 25, 36, 5, 44, 28, 24, 35, 11, 14, 36, 50, 27, 11, 30, 11, 20, 36, 27, 39, 31, 12, 20, 33, 37, 36, 33, 12, 20, 23, 39, 32, 37, 32, 11, 31, 25, 12, 9, 9, 33, 15, 26, 28, 44, 29, 52, 16, 16, 34, 28, 40, 46, 0, 7, 33, 24, 35, 28, 38, 19, 9, 5, 38, 24, 27, 20, 35, 43, 25, 29, 44, 38, 26, 18, 29, 28, 30, 34, 7, 21, 31, 23, 36, 9, 18, 34, 28, 15, 25, 27, 48, 32, 43
            |26, 23, 23, 46, 17, 44, 21, 28, 20, 37, 11, 40, 23, 23, 31, 4, 20, 36, 47, 22, 4, 30, 18, 18, 34, 29, 38, 31, 6, 25, 27, 32, 37, 36, 12, 14, 21, 42, 33, 34, 25, 4, 27, 21, 16, 7, 5, 34, 9, 30, 28, 43, 25, 50, 21, 9, 33, 28, 39, 43, 7, 0, 29, 22, 38, 31, 41, 22, 17, 9, 35, 25, 21, 25, 32, 44, 23, 31, 45, 36, 20, 20, 29, 29, 29, 30, 2, 25, 35, 26, 29, 16, 24, 35, 22, 13, 27, 31, 46, 32, 40
            |26, 8, 9, 38, 40, 38, 47, 18, 11, 22, 30, 13, 10, 11, 5, 28, 34, 15, 17, 12, 28, 13, 36, 13, 9, 21, 11, 16, 23, 30, 19, 11, 22, 32, 22, 19, 9, 29, 20, 5, 22, 30, 3, 9, 27, 24, 25, 20, 22, 31, 11, 17, 5, 20, 32, 24, 9, 16, 16, 15, 33, 29, 0, 9, 28, 25, 32, 23, 38, 29, 6, 18, 15, 32, 2, 21, 8, 20, 22, 9, 18, 21, 15, 18, 10, 6, 28, 29, 30, 25, 27, 37, 34, 19, 12, 18, 20, 28, 18, 14, 11
            |26, 1, 1, 34, 32, 33, 38, 21, 9, 20, 21, 22, 11, 4, 13, 22, 25, 15, 25, 12, 22, 11, 27, 4, 12, 15, 16, 13, 16, 22, 21, 17, 20, 26, 13, 16, 1, 26, 16, 13, 23, 24, 8, 7, 18, 16, 17, 17, 16, 24, 8, 22, 8, 28, 23, 19, 11, 11, 18, 22, 24, 22, 9, 0, 24, 19, 28, 15, 29, 20, 15, 11, 15, 24, 11, 23, 1, 16, 24, 14, 17, 13, 11, 13, 8, 13, 20, 21, 25, 18, 28, 28, 25, 17, 13, 9, 14, 22, 24, 13, 19
            |50, 24, 23, 10, 36, 10, 44, 45, 33, 7, 30, 38, 35, 21, 34, 40, 25, 15, 34, 36, 40, 15, 29, 24, 21, 9, 22, 13, 35, 17, 45, 39, 7, 6, 26, 38, 25, 4, 8, 27, 47, 41, 30, 31, 23, 31, 33, 9, 37, 12, 17, 22, 31, 36, 22, 40, 20, 13, 18, 29, 35, 38, 28, 24, 0, 7, 4, 16, 33, 30, 33, 14, 39, 18, 28, 16, 24, 8, 17, 23, 41, 17, 14, 11, 18, 34, 36, 16, 6, 12, 52, 32, 21, 9, 37, 26, 11, 9, 27, 14, 32
            |45, 19, 18, 16, 30, 15, 37, 40, 28, 9, 23, 36, 30, 15, 30, 33, 19, 15, 34, 31, 33, 12, 23, 18, 19, 4, 22, 10, 29, 11, 40, 35, 9, 7, 19, 32, 19, 11, 7, 25, 41, 34, 26, 26, 16, 24, 26, 8, 30, 8, 13, 24, 26, 37, 16, 33, 18, 9, 19, 29, 28, 31, 25, 19, 7, 0, 11, 9, 27, 23, 30, 8, 33, 13, 25, 19, 19, 5, 20, 22, 35, 10, 10, 7, 15, 31, 29, 9, 6, 5, 47, 25, 15, 9, 32, 20, 5, 4, 29, 12, 31
            |54, 28, 28, 6, 38, 6, 46, 49, 37, 10, 33, 42, 39, 25, 38, 44, 27, 19, 37, 40, 44, 19, 31, 29, 24, 14, 25, 17, 39, 19, 50, 43, 10, 6, 30, 42, 29, 4, 12, 31, 51, 45, 34, 35, 26, 35, 37, 13, 41, 13, 21, 25, 35, 39, 24, 44, 24, 18, 21, 32, 38, 41, 32, 28, 4, 11, 0, 20, 35, 33, 37, 18, 43, 20, 32, 18, 28, 13, 18, 27, 45, 21, 18, 16, 22, 39, 40, 18, 7, 15, 57, 34, 23, 13, 41, 30, 15, 11, 30, 18, 36
            |38, 16, 15, 25, 22, 23, 30, 35, 22, 17, 14, 36, 25, 12, 28, 24, 12, 19, 37, 26, 24, 14, 16, 13, 21, 9, 24, 13, 20, 7, 35, 32, 17, 15, 10, 25, 15, 20, 13, 25, 35, 26, 23, 21, 7, 15, 17, 14, 22, 10, 13, 28, 23, 39, 9, 25, 20, 11, 23, 32, 19, 22, 23, 15, 16, 9, 20, 0, 19, 14, 29, 6, 28, 9, 25, 26, 16, 11, 26, 24, 29, 2, 12, 10, 16, 28, 20, 6, 13, 4, 41, 17, 10, 16, 27, 12, 7, 9, 33, 16, 32
            |42, 31, 30, 39, 3, 36, 11, 43, 32, 35, 8, 51, 35, 28, 42, 21, 8, 38, 54, 35, 21, 33, 4, 25, 39, 27, 42, 32, 21, 16, 42, 44, 35, 29, 17, 29, 29, 37, 32, 42, 41, 21, 37, 32, 12, 16, 17, 33, 24, 22, 31, 47, 36, 57, 11, 25, 37, 29, 42, 50, 9, 17, 38, 29, 33, 27, 35, 19, 0, 10, 44, 25, 35, 15, 40, 44, 31, 30, 45, 42, 35, 19, 31, 29, 33, 41, 16, 17, 28, 22, 45, 1, 13, 34, 36, 21, 26, 25, 51, 34, 48
            |33, 21, 21, 38, 12, 36, 18, 33, 22, 30, 2, 41, 25, 19, 32, 13, 11, 31, 45, 25, 13, 25, 10, 16, 31, 22, 34, 26, 11, 16, 32, 34, 30, 28, 7, 19, 19, 34, 26, 33, 31, 13, 27, 22, 7, 6, 7, 28, 14, 22, 23, 39, 26, 48, 12, 16, 29, 22, 35, 41, 5, 9, 29, 20, 30, 23, 33, 14, 10, 0, 35, 19, 25, 16, 31, 38, 21, 24, 39, 33, 25, 13, 24, 23, 25, 31, 8, 16, 27, 18, 36, 9, 15, 29, 25, 11, 20, 23, 43, 27, 39
            |26, 14, 15, 42, 47, 43, 53, 17, 15, 26, 36, 6, 13, 17, 4, 33, 40, 18, 13, 15, 33, 18, 43, 19, 13, 26, 13, 21, 28, 36, 19, 9, 26, 37, 28, 23, 16, 34, 25, 6, 22, 35, 8, 14, 33, 30, 30, 24, 27, 37, 17, 17, 9, 16, 38, 29, 13, 21, 18, 12, 38, 35, 6, 15, 33, 30, 37, 29, 44, 35, 0, 24, 17, 38, 5, 23, 14, 25, 24, 11, 20, 28, 20, 23, 15, 6, 33, 35, 36, 31, 27, 43, 40, 24, 15, 24, 26, 34, 16, 19, 6
            |37, 12, 11, 24, 28, 23, 36, 32, 20, 12, 19, 30, 22, 8, 23, 26, 18, 13, 30, 23, 26, 8, 22, 11, 15, 4, 18, 7, 22, 13, 32, 28, 12, 15, 13, 24, 12, 17, 8, 19, 33, 28, 18, 18, 13, 18, 20, 9, 23, 13, 7, 22, 19, 33, 16, 26, 13, 4, 17, 26, 24, 25, 18, 11, 14, 8, 18, 6, 25, 19, 24, 0, 26, 15, 19, 20, 12, 6, 21, 18, 28, 6, 6, 4, 9, 24, 23, 11, 14, 7, 39, 24, 17, 10, 24, 13, 3, 11, 26, 9, 26
            |11, 15, 16, 49, 37, 48, 41, 8, 6, 34, 27, 21, 5, 18, 13, 18, 34, 29, 31, 3, 18, 25, 35, 15, 24, 30, 26, 27, 15, 34, 7, 11, 34, 41, 20, 7, 14, 41, 31, 20, 8, 20, 12, 8, 27, 19, 18, 31, 12, 38, 22, 32, 10, 33, 34, 13, 23, 25, 30, 29, 27, 21, 15, 15, 39, 33, 43, 28, 35, 25, 17, 26, 0, 36, 17, 36, 15, 30, 37, 24, 3, 25, 26, 28, 22, 11, 20, 34, 39, 31, 13, 34, 36, 32, 3, 16, 28, 36, 33, 27, 24
            |46, 25, 24, 24, 18, 21, 25, 43, 31, 22, 15, 45, 34, 21, 37, 28, 7, 27, 45, 34, 28, 22, 11, 21, 30, 15, 33, 21, 26, 2, 43, 41, 22, 14, 16, 32, 24, 22, 19, 34, 43, 29, 32, 29, 9, 20, 22, 21, 28, 7, 22, 36, 32, 48, 4, 31, 28, 19, 31, 40, 20, 25, 32, 24, 18, 13, 20, 9, 15, 16, 38, 15, 36, 0, 34, 32, 25, 17, 33, 33, 37, 11, 20, 17, 24, 37, 23, 4, 13, 9, 48, 14, 2, 22, 35, 19, 14, 10, 40, 23, 41
            |27, 9, 10, 38, 42, 38, 49, 19, 13, 22, 32, 11, 12, 13, 6, 30, 35, 14, 15, 14, 30, 14, 38, 15, 8, 21, 10, 16, 26, 31, 21, 11, 22, 32, 24, 22, 11, 29, 20, 3, 23, 33, 5, 12, 29, 26, 27, 20, 24, 32, 12, 16, 7, 18, 34, 27, 9, 16, 14, 12, 35, 32, 2, 11, 28, 25, 32, 25, 40, 31, 5, 19, 17, 34, 0, 20, 9, 21, 21, 8, 20, 23, 15, 18, 10, 7, 30, 30, 31, 26, 28, 39, 35, 19, 14, 20, 21, 29, 16, 14, 8
            |47, 22, 22, 22, 48, 24, 55, 39, 31, 10, 39, 27, 31, 21, 26, 44, 37, 8, 19, 33, 44, 13, 41, 26, 12, 17, 11, 13, 39, 30, 41, 31, 10, 22, 32, 38, 24, 14, 13, 18, 43, 46, 24, 29, 33, 37, 38, 11, 39, 26, 16, 7, 26, 21, 34, 42, 13, 16, 6, 15, 43, 44, 21, 23, 16, 19, 18, 26, 44, 38, 23, 20, 36, 32, 20, 0, 22, 15, 1, 13, 39, 25, 15, 16, 15, 27, 42, 28, 21, 23, 48, 43, 34, 10, 33, 30, 19, 23, 12, 11, 20
            |26, 0, 1, 34, 33, 34, 40, 21, 9, 19, 23, 20, 11, 4, 12, 23, 26, 14, 24, 12, 23, 10, 29, 6, 11, 15, 15, 12, 18, 23, 21, 16, 19, 26, 14, 16, 2, 26, 16, 11, 23, 25, 7, 7, 19, 17, 18, 16, 17, 25, 7, 20, 7, 27, 25, 20, 10, 11, 17, 20, 25, 23, 8, 1, 24, 19, 28, 16, 31, 21, 14, 12, 15, 25, 9, 22, 0, 16, 23, 13, 17, 14, 11, 13, 7, 12, 21, 22, 25, 18, 28, 29, 26, 17, 13, 11, 14, 22, 23, 12, 18
            |42, 16, 15, 18, 33, 18, 40, 36, 25, 6, 25, 31, 26, 12, 26, 33, 22, 10, 29, 28, 33, 7, 26, 16, 14, 2, 16, 5, 28, 15, 37, 31, 6, 11, 19, 30, 16, 11, 2, 20, 38, 34, 21, 23, 18, 24, 26, 4, 29, 13, 9, 19, 22, 32, 19, 32, 13, 5, 14, 24, 29, 31, 20, 16, 8, 5, 13, 11, 30, 24, 25, 6, 30, 17, 21, 15, 16, 0, 16, 17, 33, 11, 5, 3, 10, 26, 29, 13, 10, 8, 44, 28, 19, 5, 28, 19, 4, 9, 24, 7, 26
            |48, 23, 23, 22, 48, 24, 56, 40, 32, 11, 40, 27, 32, 22, 27, 45, 38, 9, 20, 34, 45, 14, 42, 27, 13, 18, 11, 14, 40, 30, 42, 32, 11, 22, 33, 39, 25, 14, 14, 19, 44, 47, 25, 30, 34, 38, 39, 12, 40, 27, 17, 8, 27, 21, 35, 43, 14, 17, 7, 15, 44, 45, 22, 24, 17, 20, 18, 26, 45, 39, 24, 21, 37, 33, 21, 1, 23, 16, 0, 14, 40, 26, 16, 17, 16, 28, 43, 29, 22, 24, 49, 44, 35, 11, 34, 31, 20, 23, 12, 12, 21
            |35, 13, 13, 32, 45, 33, 52, 27, 20, 16, 35, 15, 19, 14, 13, 36, 36, 8, 13, 21, 36, 10, 39, 18, 3, 18, 2, 12, 31, 30, 28, 19, 16, 28, 26, 28, 15, 23, 16, 5, 31, 38, 12, 18, 30, 30, 31, 15, 30, 30, 11, 8, 14, 15, 34, 33, 4, 14, 7, 8, 38, 36, 9, 14, 23, 22, 27, 24, 42, 33, 11, 18, 24, 33, 8, 13, 13, 17, 14, 0, 27, 23, 13, 16, 9, 15, 34, 29, 27, 24, 36, 40, 34, 14, 21, 23, 19, 26, 10, 10, 9
            |9, 17, 18, 51, 36, 50, 41, 9, 8, 37, 27, 24, 8, 21, 16, 17, 35, 31, 34, 6, 17, 28, 35, 17, 27, 32, 29, 30, 14, 35, 7, 14, 37, 43, 21, 6, 16, 44, 34, 23, 6, 18, 15, 10, 28, 19, 18, 34, 11, 39, 25, 35, 13, 36, 34, 11, 26, 28, 33, 32, 26, 20, 18, 17, 41, 35, 45, 29, 35, 25, 20, 28, 3, 37, 20, 39, 17, 33, 40, 27, 0, 27, 28, 30, 25, 14, 19, 35, 41, 33, 12, 34, 37, 34, 6, 17, 30, 38, 36, 30, 26
            |36, 14, 13, 26, 22, 25, 30, 33, 20, 17, 14, 34, 23, 10, 26, 22, 13, 19, 36, 23, 22, 13, 16, 10, 20, 9, 23, 13, 18, 9, 33, 30, 17, 17, 9, 23, 13, 21, 13, 24, 33, 24, 21, 19, 7, 14, 16, 15, 20, 12, 12, 28, 21, 38, 11, 23, 19, 10, 23, 31, 18, 20, 21, 13, 17, 10, 21, 2, 19, 13, 28, 6, 25, 11, 23, 25, 14, 11, 26, 23, 27, 0, 11, 10, 14, 26, 18, 8, 15, 6, 39, 18, 12, 16, 24, 10, 7, 11, 32, 15, 30
            |37, 11, 10, 23, 34, 23, 41, 31, 20, 9, 25, 26, 21, 8, 20, 30, 24, 7, 25, 23, 30, 2, 28, 12, 9, 6, 13, 2, 25, 18, 32, 25, 9, 17, 17, 26, 12, 16, 6, 15, 33, 32, 16, 18, 19, 22, 24, 6, 25, 17, 4, 16, 17, 28, 21, 29, 8, 1, 11, 20, 29, 29, 15, 11, 14, 10, 18, 12, 31, 24, 20, 6, 26, 20, 15, 15, 11, 5, 16, 13, 28, 11, 0, 3, 5, 21, 27, 17, 16, 12, 39, 29, 22, 6, 23, 16, 6, 14, 21, 4, 21
            |39, 13, 12, 21, 32, 21, 39, 34, 22, 8, 23, 29, 23, 9, 23, 30, 22, 9, 28, 25, 30, 5, 26, 13, 12, 3, 15, 4, 25, 15, 34, 28, 8, 14, 17, 27, 13, 14, 4, 18, 35, 32, 19, 20, 17, 22, 24, 5, 26, 14, 6, 18, 20, 30, 19, 29, 11, 2, 13, 23, 28, 29, 18, 13, 11, 7, 16, 10, 29, 23, 23, 4, 28, 17, 18, 16, 13, 3, 17, 16, 30, 10, 3, 0, 8, 24, 27, 14, 13, 9, 41, 27, 19, 6, 25, 16, 4, 11, 23, 6, 24
            |33, 7, 7, 28, 36, 28, 43, 27, 17, 13, 26, 21, 17, 6, 15, 29, 27, 7, 21, 19, 29, 4, 31, 11, 6, 11, 9, 6, 24, 22, 28, 21, 13, 22, 18, 24, 9, 20, 10, 10, 29, 31, 11, 14, 21, 22, 24, 10, 24, 22, 2, 14, 13, 24, 25, 27, 4, 6, 10, 16, 30, 29, 10, 8, 18, 15, 22, 16, 33, 25, 15, 9, 22, 24, 10, 15, 7, 10, 16, 9, 25, 14, 5, 8, 0, 16, 27, 21, 21, 16, 35, 32, 26, 10, 19, 16, 11, 19, 18, 5, 16
            |20, 12, 13, 44, 43, 44, 49, 12, 10, 29, 33, 11, 7, 16, 2, 28, 38, 21, 19, 9, 28, 20, 40, 16, 16, 27, 17, 22, 23, 35, 14, 4, 29, 38, 24, 17, 13, 36, 26, 10, 16, 30, 5, 9, 31, 26, 26, 26, 21, 37, 17, 22, 5, 22, 36, 23, 16, 22, 22, 18, 34, 30, 6, 13, 34, 31, 39, 28, 41, 31, 6, 24, 11, 37, 7, 27, 12, 26, 28, 15, 14, 26, 21, 24, 16, 0, 28, 34, 36, 30, 21, 40, 38, 26, 9, 20, 26, 34, 22, 21, 12
            |26, 21, 21, 45, 17, 43, 21, 28, 19, 35, 9, 39, 22, 21, 30, 5, 19, 34, 45, 21, 5, 28, 17, 16, 32, 27, 36, 29, 5, 23, 26, 31, 35, 35, 10, 13, 19, 40, 31, 32, 25, 6, 25, 19, 14, 5, 3, 32, 8, 29, 26, 41, 24, 48, 20, 9, 31, 26, 37, 42, 7, 2, 28, 20, 36, 29, 40, 20, 16, 8, 33, 23, 20, 23, 30, 42, 21, 29, 43, 34, 19, 18, 27, 27, 27, 28, 0, 23, 33, 24, 29, 16, 23, 33, 21, 11, 25, 29, 44, 30, 38
            |44, 22, 21, 22, 21, 20, 28, 41, 28, 19, 16, 41, 31, 18, 34, 28, 9, 23, 42, 32, 28, 19, 14, 19, 26, 11, 29, 17, 25, 1, 41, 38, 19, 12, 15, 30, 21, 20, 16, 31, 41, 29, 29, 27, 9, 19, 21, 17, 27, 5, 19, 32, 29, 44, 6, 30, 25, 15, 27, 37, 21, 25, 29, 21, 16, 9, 18, 6, 17, 16, 35, 11, 34, 4, 30, 28, 22, 13, 29, 29, 35, 8, 17, 14, 21, 34, 23, 0, 11, 5, 47, 16, 6, 18, 33, 17, 10, 7, 37, 20, 37
            |50, 25, 24, 11, 31, 9, 39, 46, 34, 12, 26, 41, 36, 21, 36, 38, 20, 19, 38, 37, 38, 17, 24, 24, 24, 10, 26, 15, 34, 12, 46, 41, 12, 1, 24, 38, 25, 9, 11, 30, 47, 39, 31, 32, 19, 29, 31, 12, 35, 6, 19, 27, 32, 41, 17, 38, 23, 15, 23, 33, 31, 35, 30, 25, 6, 6, 7, 13, 28, 27, 36, 14, 39, 13, 31, 21, 25, 10, 22, 27, 41, 15, 16, 13, 21, 36, 33, 11, 0, 9, 53, 27, 16, 13, 37, 25, 11, 4, 32, 17, 36
            |42, 18, 17, 20, 25, 18, 32, 38, 26, 14, 18, 37, 28, 14, 30, 29, 14, 18, 37, 29, 29, 14, 18, 16, 21, 6, 24, 13, 25, 6, 38, 35, 14, 10, 15, 29, 18, 16, 11, 26, 39, 30, 25, 24, 11, 20, 22, 12, 26, 6, 14, 27, 26, 39, 11, 29, 20, 10, 22, 32, 23, 26, 25, 18, 12, 5, 15, 4, 22, 18, 31, 7, 31, 9, 26, 23, 18, 8, 24, 24, 33, 6, 12, 9, 16, 30, 24, 5, 9, 0, 45, 20, 11, 13, 30, 16, 5, 5, 32, 15, 33
            |3, 28, 29, 62, 46, 62, 49, 9, 19, 48, 38, 28, 18, 32, 23, 25, 46, 41, 39, 16, 25, 38, 46, 29, 36, 43, 38, 40, 24, 47, 8, 18, 48, 54, 32, 17, 28, 55, 45, 31, 6, 26, 24, 21, 40, 30, 28, 45, 21, 51, 35, 44, 22, 41, 46, 20, 36, 39, 42, 39, 36, 29, 27, 28, 52, 47, 57, 41, 45, 36, 27, 39, 13, 48, 28, 48, 28, 44, 49, 36, 12, 39, 39, 41, 35, 21, 29, 47, 53, 45, 0, 44, 48, 45, 16, 29, 42, 49, 43, 40, 32
            |41, 29, 28, 38, 4, 35, 12, 42, 31, 34, 7, 49, 34, 26, 40, 20, 7, 36, 53, 34, 20, 31, 3, 24, 37, 26, 41, 31, 20, 15, 41, 43, 34, 28, 15, 28, 27, 36, 30, 40, 40, 20, 35, 30, 11, 15, 16, 32, 23, 21, 30, 45, 35, 55, 10, 25, 36, 28, 41, 48, 9, 16, 37, 28, 32, 25, 34, 17, 1, 9, 43, 24, 34, 14, 39, 43, 29, 28, 44, 40, 34, 18, 29, 27, 32, 40, 16, 16, 27, 20, 44, 0, 12, 33, 35, 19, 24, 23, 50, 33, 47
            |46, 26, 25, 26, 16, 23, 23, 44, 31, 24, 14, 46, 34, 22, 38, 28, 5, 29, 47, 35, 28, 24, 9, 22, 31, 17, 34, 23, 25, 4, 43, 42, 24, 16, 16, 32, 25, 25, 21, 36, 43, 28, 33, 30, 9, 19, 21, 23, 28, 9, 24, 38, 33, 50, 3, 30, 30, 21, 33, 42, 18, 24, 34, 25, 21, 15, 23, 10, 13, 15, 40, 17, 36, 2, 35, 34, 26, 19, 35, 34, 37, 12, 22, 19, 26, 38, 23, 6, 16, 11, 48, 12, 0, 24, 36, 20, 16, 12, 42, 25, 42
            |43, 17, 16, 18, 38, 19, 45, 37, 26, 3, 29, 29, 27, 14, 25, 36, 27, 6, 25, 29, 36, 6, 31, 19, 11, 7, 13, 4, 31, 20, 38, 30, 3, 14, 23, 32, 18, 10, 3, 18, 39, 38, 21, 24, 23, 28, 30, 1, 32, 17, 9, 14, 23, 28, 24, 35, 11, 7, 9, 20, 34, 35, 19, 17, 9, 9, 13, 16, 34, 29, 24, 10, 32, 22, 19, 10, 17, 5, 11, 14, 34, 16, 6, 6, 10, 26, 33, 18, 13, 13, 45, 33, 24, 0, 29, 22, 9, 13, 19, 5, 23
            |14, 13, 13, 47, 37, 46, 43, 9, 4, 32, 27, 19, 2, 16, 10, 20, 34, 26, 28, 1, 20, 23, 35, 14, 21, 28, 24, 25, 16, 33, 9, 9, 32, 39, 20, 9, 12, 39, 29, 17, 10, 22, 9, 6, 27, 20, 19, 29, 14, 36, 20, 29, 7, 30, 33, 15, 21, 23, 28, 26, 28, 22, 12, 13, 37, 32, 41, 27, 36, 25, 15, 24, 3, 35, 14, 33, 13, 28, 34, 21, 6, 24, 23, 25, 19, 9, 21, 33, 37, 30, 16, 35, 36, 29, 0, 16, 27, 34, 30, 24, 21
            |26, 11, 10, 36, 23, 34, 29, 24, 12, 24, 13, 30, 15, 9, 21, 14, 18, 22, 35, 15, 14, 17, 19, 5, 21, 17, 25, 18, 9, 18, 24, 24, 24, 26, 4, 13, 8, 30, 20, 22, 24, 16, 16, 11, 11, 7, 8, 21, 10, 22, 14, 30, 15, 38, 17, 13, 20, 15, 26, 31, 15, 13, 18, 9, 26, 20, 30, 12, 21, 11, 24, 13, 16, 19, 20, 30, 11, 19, 31, 23, 17, 10, 16, 16, 16, 20, 11, 17, 25, 16, 29, 19, 20, 22, 16, 0, 15, 21, 33, 19, 28
            |40, 14, 13, 21, 29, 20, 36, 35, 23, 10, 21, 32, 25, 10, 25, 29, 18, 13, 31, 26, 29, 9, 22, 13, 16, 2, 19, 7, 24, 12, 35, 30, 10, 12, 15, 27, 14, 15, 6, 21, 36, 31, 21, 21, 14, 20, 22, 8, 25, 11, 9, 22, 22, 34, 16, 29, 15, 5, 17, 26, 25, 27, 20, 14, 11, 5, 15, 7, 26, 20, 26, 3, 28, 14, 21, 19, 14, 4, 20, 19, 30, 7, 6, 4, 11, 26, 25, 10, 11, 5, 42, 24, 16, 9, 27, 15, 0, 8, 27, 9, 27
            |47, 22, 22, 16, 28, 13, 35, 43, 31, 13, 22, 40, 33, 18, 34, 34, 16, 19, 38, 34, 34, 16, 21, 21, 23, 8, 26, 14, 30, 8, 43, 39, 13, 5, 20, 34, 22, 13, 11, 29, 44, 35, 29, 29, 15, 25, 27, 12, 31, 4, 17, 28, 30, 41, 13, 34, 22, 13, 23, 33, 27, 31, 28, 22, 9, 4, 11, 9, 25, 23, 34, 11, 36, 10, 29, 23, 22, 9, 23, 26, 38, 11, 14, 11, 19, 34, 29, 7, 4, 5, 49, 23, 12, 13, 34, 21, 8, 0, 33, 16, 35
            |43, 23, 23, 34, 54, 36, 61, 34, 29, 21, 44, 17, 28, 24, 20, 46, 45, 14, 8, 30, 46, 18, 48, 28, 12, 26, 9, 19, 40, 38, 36, 25, 21, 33, 36, 37, 25, 26, 22, 13, 38, 48, 21, 27, 39, 40, 41, 21, 40, 36, 20, 5, 23, 9, 42, 42, 14, 22, 10, 4, 48, 46, 18, 24, 27, 29, 30, 33, 51, 43, 16, 26, 33, 40, 16, 12, 23, 24, 12, 10, 36, 32, 21, 23, 18, 22, 44, 37, 32, 32, 43, 50, 42, 19, 30, 33, 27, 33, 0, 17, 11
            |38, 12, 12, 23, 37, 24, 45, 32, 21, 8, 28, 24, 22, 10, 20, 33, 28, 4, 22, 24, 33, 2, 31, 15, 7, 9, 9, 2, 28, 21, 33, 25, 8, 18, 21, 28, 14, 15, 6, 13, 34, 35, 16, 19, 22, 25, 27, 5, 28, 20, 5, 13, 18, 25, 25, 31, 6, 5, 8, 17, 32, 32, 14, 13, 14, 12, 18, 16, 34, 27, 19, 9, 27, 23, 14, 11, 12, 7, 12, 10, 30, 15, 4, 6, 5, 21, 30, 20, 17, 15, 40, 33, 25, 5, 24, 19, 9, 16, 17, 0, 19
            |32, 18, 19, 41, 51, 42, 57, 23, 21, 25, 41, 6, 19, 21, 10, 39, 43, 17, 7, 21, 39, 19, 46, 23, 12, 27, 10, 21, 34, 39, 25, 14, 25, 37, 32, 29, 20, 32, 25, 7, 28, 41, 13, 20, 37, 35, 35, 24, 32, 38, 19, 13, 15, 10, 41, 34, 13, 22, 15, 7, 43, 40, 11, 19, 32, 31, 36, 32, 48, 39, 6, 26, 24, 41, 8, 20, 18, 26, 21, 9, 26, 30, 21, 24, 16, 12, 38, 37, 36, 33, 32, 47, 42, 23, 21, 28, 27, 35, 11, 19, 0|];