% n100w160.005	   55.10 1005
n = 101;
duration = [|0, 15, 6, 31, 6, 36, 31, 36, 21, 21, 8, 25, 41, 11, 15, 12, 41, 42, 49, 14, 37, 3, 19, 24, 2, 45, 36, 27, 47, 12, 13, 18, 26, 16, 18, 30, 26, 44, 41, 36, 30, 19, 19, 9, 35, 4, 29, 23, 29, 16, 44, 25, 29, 27, 15, 8, 29, 43, 42, 26, 32, 23, 33, 37, 34, 35, 43, 34, 46, 9, 25, 16, 33, 41, 31, 32, 23, 23, 6, 45, 35, 17, 22, 18, 23, 31, 8, 10, 26, 26, 34, 30, 20, 7, 37, 38, 30, 10, 22, 38, 50
            |15, 0, 20, 33, 9, 32, 17, 36, 7, 35, 23, 10, 37, 4, 5, 25, 35, 33, 38, 9, 41, 12, 11, 9, 13, 34, 27, 36, 49, 3, 23, 13, 13, 26, 4, 36, 31, 32, 31, 33, 33, 5, 30, 15, 39, 18, 36, 30, 34, 4, 36, 12, 34, 32, 5, 22, 17, 32, 42, 21, 30, 34, 22, 29, 33, 21, 42, 36, 47, 21, 30, 9, 20, 42, 35, 34, 23, 13, 13, 44, 22, 11, 10, 11, 10, 22, 9, 4, 14, 12, 38, 37, 27, 21, 36, 31, 33, 24, 36, 24, 38
            |6, 20, 0, 36, 11, 42, 37, 42, 27, 19, 5, 30, 47, 16, 19, 13, 48, 49, 55, 16, 42, 9, 21, 29, 8, 51, 43, 29, 52, 17, 17, 24, 32, 19, 22, 34, 30, 50, 47, 42, 34, 23, 21, 15, 39, 8, 32, 26, 33, 20, 50, 31, 33, 32, 19, 3, 35, 49, 48, 32, 38, 25, 39, 43, 39, 40, 49, 39, 50, 11, 30, 22, 39, 46, 36, 37, 28, 25, 12, 50, 41, 24, 26, 20, 29, 37, 11, 16, 29, 31, 38, 33, 24, 5, 43, 44, 35, 9, 21, 43, 56
            |31, 33, 36, 0, 32, 15, 39, 8, 34, 32, 33, 40, 17, 33, 38, 26, 22, 30, 40, 40, 7, 30, 44, 35, 31, 38, 27, 16, 17, 33, 19, 21, 30, 19, 38, 8, 7, 40, 30, 13, 2, 39, 20, 22, 5, 28, 11, 12, 6, 37, 25, 34, 5, 5, 38, 35, 29, 34, 13, 16, 11, 20, 29, 22, 7, 40, 14, 3, 15, 25, 7, 25, 35, 10, 3, 2, 10, 47, 26, 15, 35, 23, 43, 44, 32, 24, 36, 32, 47, 39, 5, 12, 12, 32, 11, 22, 1, 29, 28, 38, 42
            |6, 9, 11, 32, 0, 35, 25, 37, 16, 27, 14, 19, 40, 4, 9, 18, 39, 39, 45, 9, 39, 4, 14, 18, 4, 41, 33, 31, 49, 6, 17, 15, 21, 20, 11, 33, 28, 39, 37, 35, 31, 12, 24, 11, 37, 10, 32, 26, 31, 9, 41, 20, 31, 30, 9, 14, 24, 39, 43, 24, 31, 28, 29, 34, 34, 29, 43, 35, 47, 14, 28, 12, 28, 42, 33, 33, 23, 17, 7, 45, 30, 14, 16, 13, 18, 27, 4, 4, 20, 20, 36, 33, 23, 13, 37, 35, 32, 16, 28, 32, 45
            |36, 32, 42, 15, 35, 0, 30, 10, 29, 44, 41, 35, 5, 34, 37, 36, 7, 15, 25, 40, 19, 34, 42, 29, 35, 23, 13, 30, 23, 33, 29, 20, 23, 30, 35, 23, 21, 26, 15, 3, 17, 36, 33, 27, 19, 34, 26, 26, 21, 35, 10, 27, 20, 20, 37, 42, 20, 20, 12, 10, 5, 33, 17, 8, 9, 30, 12, 15, 21, 34, 21, 23, 25, 15, 18, 13, 15, 44, 30, 14, 24, 21, 40, 43, 26, 13, 38, 32, 43, 33, 19, 27, 23, 39, 6, 7, 14, 38, 41, 26, 28
            |31, 17, 37, 39, 25, 30, 0, 38, 10, 51, 39, 9, 35, 21, 20, 41, 30, 24, 24, 24, 46, 29, 22, 8, 29, 20, 19, 47, 52, 20, 36, 20, 9, 39, 16, 44, 40, 17, 21, 33, 40, 16, 43, 29, 44, 34, 46, 41, 42, 18, 30, 6, 41, 40, 20, 39, 10, 20, 42, 23, 31, 47, 13, 24, 36, 4, 42, 41, 50, 37, 39, 18, 7, 44, 42, 39, 30, 21, 28, 44, 9, 18, 16, 23, 9, 17, 26, 21, 17, 6, 44, 47, 37, 38, 36, 25, 38, 40, 50, 9, 23
            |36, 36, 42, 8, 37, 10, 38, 0, 35, 40, 39, 41, 10, 37, 41, 33, 16, 25, 35, 44, 9, 35, 47, 36, 36, 33, 23, 23, 14, 37, 26, 23, 30, 26, 40, 15, 15, 36, 25, 7, 10, 41, 28, 27, 9, 34, 19, 20, 14, 40, 19, 34, 13, 13, 41, 41, 28, 30, 6, 16, 8, 27, 27, 18, 3, 39, 7, 6, 12, 32, 15, 28, 34, 6, 10, 5, 14, 50, 31, 8, 33, 25, 45, 47, 33, 22, 40, 36, 49, 40, 10, 19, 19, 38, 4, 17, 7, 36, 36, 36, 38
            |21, 7, 27, 34, 16, 29, 10, 35, 0, 41, 29, 7, 34, 11, 11, 31, 30, 27, 31, 15, 41, 19, 15, 2, 19, 27, 21, 39, 49, 10, 27, 13, 7, 30, 8, 37, 33, 25, 25, 30, 34, 8, 34, 19, 39, 24, 39, 33, 35, 9, 32, 4, 35, 34, 11, 29, 11, 25, 40, 19, 28, 38, 16, 25, 32, 13, 40, 36, 46, 27, 32, 9, 13, 41, 36, 34, 24, 16, 18, 42, 15, 10, 11, 16, 3, 17, 17, 11, 14, 6, 38, 40, 29, 28, 33, 26, 33, 30, 41, 17, 31
            |21, 35, 19, 32, 27, 44, 51, 40, 41, 0, 14, 46, 48, 32, 36, 10, 51, 55, 64, 35, 35, 24, 40, 43, 23, 61, 50, 18, 45, 33, 16, 33, 44, 14, 39, 26, 25, 61, 55, 43, 30, 40, 12, 22, 33, 18, 23, 20, 26, 37, 54, 45, 27, 27, 36, 16, 46, 58, 45, 38, 39, 13, 49, 49, 38, 54, 46, 35, 44, 14, 25, 34, 51, 41, 30, 34, 30, 44, 23, 47, 52, 34, 43, 39, 42, 45, 29, 31, 47, 47, 32, 23, 21, 15, 43, 49, 32, 11, 4, 55, 66
            |8, 23, 5, 33, 14, 41, 39, 39, 29, 14, 0, 33, 45, 19, 23, 8, 47, 49, 56, 21, 38, 11, 26, 32, 10, 52, 43, 24, 48, 20, 13, 24, 33, 14, 26, 30, 26, 52, 47, 40, 31, 27, 16, 14, 36, 7, 28, 22, 29, 23, 49, 33, 29, 28, 23, 3, 36, 50, 45, 32, 36, 20, 40, 43, 37, 43, 46, 36, 47, 7, 26, 23, 41, 43, 32, 34, 26, 30, 12, 47, 42, 24, 30, 25, 31, 38, 15, 18, 34, 34, 35, 28, 21, 1, 41, 43, 32, 4, 16, 45, 57
            |25, 10, 30, 40, 19, 35, 9, 41, 7, 46, 33, 0, 40, 14, 11, 36, 36, 31, 33, 15, 47, 22, 13, 6, 23, 29, 26, 45, 55, 13, 33, 19, 12, 36, 8, 44, 40, 26, 29, 37, 40, 7, 40, 25, 46, 28, 45, 39, 42, 10, 37, 8, 41, 40, 11, 32, 16, 28, 46, 26, 34, 44, 20, 30, 39, 13, 46, 43, 53, 32, 39, 16, 15, 47, 43, 40, 30, 12, 23, 48, 17, 17, 7, 14, 8, 22, 19, 15, 9, 3, 45, 46, 36, 32, 40, 31, 39, 35, 46, 18, 32
            |41, 37, 47, 17, 40, 5, 35, 10, 34, 48, 45, 40, 0, 39, 43, 40, 7, 16, 26, 46, 19, 39, 48, 34, 40, 25, 17, 33, 20, 38, 33, 25, 28, 34, 41, 25, 24, 28, 17, 5, 19, 41, 36, 32, 19, 39, 28, 29, 23, 41, 9, 32, 22, 22, 43, 47, 25, 22, 9, 16, 9, 36, 22, 11, 10, 35, 8, 16, 18, 38, 23, 29, 29, 13, 20, 15, 19, 50, 35, 10, 28, 27, 45, 48, 31, 18, 43, 38, 48, 38, 20, 29, 27, 44, 6, 10, 16, 43, 45, 30, 29
            |11, 4, 16, 33, 4, 34, 21, 37, 11, 32, 19, 14, 39, 0, 5, 22, 37, 36, 41, 7, 40, 8, 11, 13, 9, 37, 30, 34, 50, 1, 21, 14, 17, 24, 7, 35, 30, 36, 34, 35, 33, 8, 27, 13, 38, 14, 35, 29, 33, 5, 39, 16, 33, 31, 5, 18, 21, 35, 43, 23, 31, 32, 26, 32, 34, 25, 43, 36, 48, 18, 29, 10, 24, 42, 35, 34, 23, 14, 10, 45, 26, 12, 12, 11, 14, 25, 5, 1, 16, 16, 38, 36, 25, 17, 37, 33, 33, 21, 32, 28, 42
            |15, 5, 19, 38, 9, 37, 20, 41, 11, 36, 23, 11, 43, 5, 0, 27, 40, 38, 42, 4, 45, 13, 6, 13, 13, 38, 32, 39, 54, 5, 26, 18, 18, 29, 4, 40, 36, 36, 36, 38, 38, 4, 33, 18, 43, 19, 40, 34, 38, 2, 42, 16, 38, 37, 0, 22, 22, 36, 47, 27, 35, 37, 27, 35, 39, 23, 47, 41, 52, 23, 35, 14, 24, 47, 40, 39, 28, 9, 16, 49, 26, 16, 7, 6, 14, 27, 8, 7, 11, 14, 43, 41, 30, 22, 41, 36, 37, 25, 37, 28, 42
            |12, 25, 13, 26, 18, 36, 41, 33, 31, 10, 8, 36, 40, 22, 27, 0, 43, 46, 55, 26, 31, 14, 31, 33, 14, 51, 41, 16, 41, 23, 7, 23, 33, 7, 29, 22, 19, 51, 45, 35, 24, 30, 8, 12, 29, 8, 20, 15, 22, 27, 45, 34, 22, 21, 27, 11, 36, 48, 39, 28, 31, 12, 39, 39, 31, 44, 40, 29, 40, 4, 19, 23, 41, 36, 25, 28, 21, 35, 13, 41, 42, 24, 34, 30, 32, 35, 20, 21, 38, 37, 28, 21, 14, 8, 36, 40, 26, 4, 10, 45, 56
            |41, 35, 48, 22, 39, 7, 30, 16, 30, 51, 47, 36, 7, 37, 40, 43, 0, 9, 19, 44, 26, 39, 45, 30, 40, 18, 11, 37, 27, 36, 35, 24, 24, 37, 38, 30, 28, 22, 10, 9, 24, 38, 40, 33, 25, 40, 33, 33, 28, 38, 3, 28, 27, 27, 40, 48, 20, 15, 16, 15, 12, 40, 16, 6, 15, 29, 15, 21, 25, 40, 28, 27, 23, 20, 25, 20, 21, 47, 35, 17, 22, 25, 42, 46, 28, 13, 42, 36, 44, 33, 26, 34, 30, 45, 12, 4, 21, 45, 48, 24, 22
            |42, 33, 49, 30, 39, 15, 24, 25, 27, 55, 49, 31, 16, 36, 38, 46, 9, 0, 10, 42, 34, 40, 42, 26, 41, 9, 6, 44, 36, 35, 39, 25, 20, 41, 35, 37, 35, 13, 2, 17, 31, 35, 45, 35, 34, 42, 40, 38, 35, 36, 8, 24, 34, 34, 38, 50, 16, 6, 25, 18, 19, 46, 11, 7, 23, 22, 24, 29, 34, 43, 34, 27, 17, 29, 33, 28, 26, 43, 37, 26, 15, 25, 38, 43, 24, 11, 41, 35, 40, 28, 34, 41, 35, 47, 20, 8, 29, 48, 53, 16, 13
            |49, 38, 55, 40, 45, 25, 24, 35, 31, 64, 56, 33, 26, 41, 42, 55, 19, 10, 0, 46, 44, 47, 45, 29, 47, 4, 14, 54, 46, 40, 48, 32, 24, 50, 39, 47, 45, 7, 10, 28, 42, 38, 54, 43, 44, 50, 51, 48, 46, 40, 17, 26, 44, 44, 42, 57, 21, 6, 35, 27, 29, 56, 16, 17, 34, 21, 34, 40, 44, 51, 44, 33, 18, 39, 43, 38, 36, 45, 44, 36, 16, 32, 40, 46, 28, 19, 47, 41, 41, 30, 44, 51, 45, 55, 31, 18, 39, 56, 62, 15, 3
            |14, 9, 16, 40, 9, 40, 24, 44, 15, 35, 21, 15, 46, 7, 4, 26, 44, 42, 46, 0, 47, 13, 5, 17, 12, 42, 36, 40, 57, 8, 26, 21, 22, 29, 8, 41, 37, 40, 40, 42, 40, 8, 33, 19, 45, 18, 41, 35, 40, 6, 46, 20, 40, 38, 4, 19, 26, 40, 50, 30, 38, 37, 31, 38, 41, 27, 50, 43, 55, 23, 36, 17, 28, 49, 42, 41, 31, 9, 16, 52, 30, 19, 9, 4, 18, 31, 6, 9, 13, 17, 45, 42, 32, 20, 44, 40, 40, 24, 36, 32, 46
            |37, 41, 42, 7, 39, 19, 46, 9, 41, 35, 38, 47, 19, 40, 45, 31, 26, 34, 44, 47, 0, 37, 51, 42, 37, 43, 32, 17, 10, 40, 25, 28, 37, 24, 45, 9, 12, 45, 35, 16, 8, 46, 24, 29, 2, 34, 12, 16, 9, 44, 28, 41, 9, 10, 45, 40, 36, 39, 12, 23, 16, 22, 35, 27, 11, 47, 13, 5, 9, 31, 12, 32, 42, 7, 6, 7, 17, 54, 32, 13, 41, 31, 50, 51, 39, 30, 43, 39, 54, 46, 3, 12, 17, 37, 14, 26, 8, 34, 31, 44, 47
            |3, 12, 9, 30, 4, 34, 29, 35, 19, 24, 11, 22, 39, 8, 13, 14, 39, 40, 47, 13, 37, 0, 17, 21, 1, 43, 34, 27, 47, 9, 14, 15, 23, 17, 15, 30, 25, 42, 38, 34, 29, 16, 20, 8, 34, 6, 29, 23, 28, 13, 41, 23, 28, 27, 13, 11, 26, 40, 41, 24, 30, 24, 30, 35, 33, 32, 42, 33, 45, 10, 25, 13, 30, 40, 31, 31, 21, 21, 4, 43, 32, 15, 20, 17, 21, 28, 7, 8, 24, 24, 34, 30, 20, 9, 36, 35, 30, 12, 24, 35, 47
            |19, 11, 21, 44, 14, 42, 22, 47, 15, 40, 26, 13, 48, 11, 6, 31, 45, 42, 45, 5, 51, 17, 0, 16, 17, 41, 36, 44, 60, 11, 31, 24, 22, 34, 7, 45, 41, 39, 40, 44, 43, 7, 37, 24, 49, 23, 46, 39, 44, 7, 47, 19, 44, 42, 6, 24, 26, 40, 52, 32, 40, 42, 31, 40, 44, 25, 53, 47, 58, 27, 40, 19, 27, 52, 45, 45, 34, 4, 21, 55, 29, 22, 6, 1, 18, 32, 11, 12, 8, 16, 48, 47, 36, 25, 46, 41, 43, 29, 41, 31, 45
            |24, 9, 29, 35, 18, 29, 8, 36, 2, 43, 32, 6, 34, 13, 13, 33, 30, 26, 29, 17, 42, 21, 16, 0, 21, 25, 21, 41, 50, 12, 29, 14, 7, 32, 9, 39, 35, 23, 24, 31, 35, 9, 36, 22, 40, 26, 40, 35, 37, 11, 31, 3, 36, 35, 13, 31, 10, 24, 40, 20, 28, 40, 15, 25, 33, 11, 40, 37, 47, 29, 34, 11, 11, 42, 37, 35, 25, 16, 21, 42, 13, 12, 11, 17, 3, 17, 19, 13, 14, 4, 40, 41, 31, 30, 34, 26, 34, 33, 43, 15, 29
            |2, 13, 8, 31, 4, 35, 29, 36, 19, 23, 10, 23, 40, 9, 13, 14, 40, 41, 47, 12, 37, 1, 17, 21, 0, 43, 35, 28, 48, 10, 14, 16, 24, 17, 16, 30, 26, 42, 39, 35, 30, 16, 20, 9, 35, 6, 30, 23, 29, 13, 42, 23, 29, 28, 13, 10, 27, 41, 42, 25, 31, 25, 31, 36, 34, 33, 43, 34, 46, 10, 26, 14, 31, 41, 32, 32, 22, 21, 5, 44, 33, 16, 20, 16, 21, 29, 6, 8, 24, 24, 34, 31, 21, 9, 37, 36, 30, 12, 24, 35, 48
            |45, 34, 51, 38, 41, 23, 20, 33, 27, 61, 52, 29, 25, 37, 38, 51, 18, 9, 4, 42, 43, 43, 41, 25, 43, 0, 11, 51, 45, 36, 45, 28, 20, 47, 35, 45, 42, 4, 8, 26, 39, 34, 51, 39, 42, 46, 48, 45, 43, 36, 16, 22, 42, 41, 38, 53, 17, 3, 34, 24, 27, 53, 12, 15, 32, 17, 33, 38, 43, 48, 41, 29, 14, 38, 41, 36, 33, 41, 40, 35, 12, 28, 36, 42, 24, 16, 43, 37, 37, 26, 42, 49, 42, 51, 29, 16, 37, 52, 59, 11, 5
            |36, 27, 43, 27, 33, 13, 19, 23, 21, 50, 43, 26, 17, 30, 32, 41, 11, 6, 14, 36, 32, 34, 36, 21, 35, 11, 0, 40, 36, 29, 34, 19, 14, 36, 29, 34, 31, 13, 4, 16, 28, 29, 40, 29, 31, 36, 37, 34, 32, 30, 11, 18, 31, 30, 32, 44, 10, 8, 25, 13, 16, 42, 6, 5, 21, 18, 24, 27, 34, 37, 30, 21, 13, 28, 30, 25, 22, 37, 31, 27, 11, 19, 32, 37, 18, 5, 35, 29, 35, 23, 31, 38, 31, 42, 19, 7, 26, 42, 48, 13, 16
            |27, 36, 29, 16, 31, 30, 47, 23, 39, 18, 24, 45, 33, 34, 39, 16, 37, 44, 54, 40, 17, 27, 44, 41, 28, 51, 40, 0, 27, 34, 13, 27, 38, 11, 40, 9, 9, 52, 44, 28, 14, 41, 9, 21, 16, 22, 5, 6, 9, 39, 40, 41, 11, 11, 39, 27, 39, 48, 28, 27, 25, 5, 40, 37, 23, 49, 30, 18, 26, 18, 10, 30, 45, 24, 13, 18, 18, 48, 24, 30, 46, 29, 46, 44, 39, 36, 34, 33, 50, 45, 15, 5, 10, 24, 27, 36, 16, 20, 14, 49, 56
            |47, 49, 52, 17, 49, 23, 52, 14, 49, 45, 48, 55, 20, 50, 54, 41, 27, 36, 46, 57, 10, 47, 60, 50, 48, 45, 36, 27, 0, 50, 35, 37, 44, 34, 54, 19, 22, 48, 37, 20, 18, 54, 34, 39, 13, 44, 22, 27, 20, 53, 29, 48, 19, 20, 54, 51, 42, 42, 11, 30, 21, 32, 40, 31, 17, 53, 12, 14, 2, 41, 22, 41, 47, 8, 16, 16, 26, 63, 42, 10, 46, 39, 59, 60, 47, 35, 52, 48, 62, 54, 14, 22, 28, 48, 17, 29, 17, 45, 41, 49, 49
            |12, 3, 17, 33, 6, 33, 20, 37, 10, 33, 20, 13, 38, 1, 5, 23, 36, 35, 40, 8, 40, 9, 11, 12, 10, 36, 29, 34, 50, 0, 21, 13, 16, 24, 6, 35, 31, 34, 33, 34, 33, 7, 28, 14, 38, 15, 35, 29, 33, 4, 38, 14, 33, 32, 5, 19, 20, 34, 42, 22, 30, 32, 25, 31, 34, 23, 43, 36, 48, 19, 30, 9, 23, 42, 35, 34, 23, 14, 11, 44, 25, 12, 11, 11, 13, 24, 7, 2, 15, 14, 38, 36, 25, 19, 36, 32, 33, 22, 33, 27, 40
            |13, 23, 17, 19, 17, 29, 36, 26, 27, 16, 13, 33, 33, 21, 26, 7, 35, 39, 48, 26, 25, 14, 31, 29, 14, 45, 34, 13, 35, 21, 0, 17, 28, 3, 27, 17, 13, 45, 38, 28, 17, 28, 7, 8, 22, 9, 16, 9, 16, 25, 38, 30, 16, 15, 26, 16, 30, 42, 32, 21, 24, 11, 33, 32, 24, 39, 33, 22, 34, 6, 13, 19, 36, 29, 19, 21, 14, 35, 10, 34, 37, 18, 33, 30, 28, 29, 21, 19, 37, 33, 22, 16, 7, 13, 28, 33, 19, 10, 14, 40, 50
            |18, 13, 24, 21, 15, 20, 20, 23, 13, 33, 24, 19, 25, 14, 18, 23, 24, 25, 32, 21, 28, 15, 24, 14, 16, 28, 19, 27, 37, 13, 17, 0, 11, 20, 17, 25, 20, 28, 23, 21, 21, 18, 24, 11, 26, 17, 26, 21, 23, 16, 26, 14, 22, 21, 18, 25, 13, 26, 29, 9, 17, 27, 16, 19, 21, 23, 29, 24, 35, 19, 19, 4, 19, 29, 23, 21, 11, 26, 12, 31, 20, 2, 22, 24, 12, 13, 18, 13, 26, 18, 26, 27, 17, 23, 23, 20, 20, 23, 31, 23, 33
            |26, 13, 32, 30, 21, 23, 9, 30, 7, 44, 33, 12, 28, 17, 18, 33, 24, 20, 24, 22, 37, 23, 22, 7, 24, 20, 14, 38, 44, 16, 28, 11, 0, 31, 15, 35, 31, 19, 18, 25, 31, 15, 35, 21, 35, 27, 37, 32, 33, 16, 25, 4, 32, 31, 18, 33, 4, 18, 34, 14, 22, 38, 9, 18, 27, 11, 34, 32, 42, 29, 30, 10, 8, 36, 33, 30, 21, 23, 21, 36, 9, 10, 18, 23, 4, 10, 22, 17, 21, 10, 35, 38, 28, 32, 28, 19, 29, 33, 42, 12, 25
            |16, 26, 19, 19, 20, 30, 39, 26, 30, 14, 14, 36, 34, 24, 29, 7, 37, 41, 50, 29, 24, 17, 34, 32, 17, 47, 36, 11, 34, 24, 3, 20, 31, 0, 30, 15, 12, 47, 40, 29, 17, 31, 4, 11, 22, 11, 14, 8, 15, 28, 39, 33, 15, 14, 29, 17, 33, 44, 32, 23, 25, 8, 35, 34, 25, 42, 33, 22, 33, 8, 12, 22, 38, 29, 18, 21, 15, 38, 13, 34, 39, 21, 36, 33, 31, 31, 23, 22, 40, 36, 21, 14, 7, 14, 29, 34, 19, 10, 12, 42, 52
            |18, 4, 22, 38, 11, 35, 16, 40, 8, 39, 26, 8, 41, 7, 4, 29, 38, 35, 39, 8, 45, 15, 7, 9, 16, 35, 29, 40, 54, 6, 27, 17, 15, 30, 0, 40, 36, 32, 33, 37, 37, 1, 34, 19, 43, 21, 41, 35, 38, 2, 39, 12, 38, 37, 4, 25, 19, 33, 46, 25, 34, 38, 24, 32, 38, 20, 46, 40, 52, 25, 35, 13, 21, 46, 40, 38, 28, 9, 17, 48, 23, 15, 5, 8, 11, 25, 11, 8, 9, 10, 42, 42, 31, 24, 39, 34, 37, 28, 39, 24, 38
            |30, 36, 34, 8, 33, 23, 44, 15, 37, 26, 30, 44, 25, 35, 40, 22, 30, 37, 47, 41, 9, 30, 45, 39, 30, 45, 34, 9, 19, 35, 17, 25, 35, 15, 40, 0, 4, 47, 37, 21, 6, 41, 15, 22, 7, 26, 4, 8, 2, 39, 33, 38, 3, 4, 40, 32, 35, 42, 20, 22, 18, 13, 36, 30, 15, 46, 21, 9, 18, 23, 5, 28, 41, 16, 5, 10, 14, 49, 25, 21, 41, 27, 46, 45, 37, 31, 36, 33, 50, 43, 6, 4, 10, 29, 19, 30, 9, 26, 22, 44, 50
            |26, 31, 30, 7, 28, 21, 40, 15, 33, 25, 26, 40, 24, 30, 36, 19, 28, 35, 45, 37, 12, 25, 41, 35, 26, 42, 31, 9, 22, 31, 13, 20, 31, 12, 36, 4, 0, 44, 34, 19, 5, 37, 13, 18, 9, 22, 6, 5, 3, 34, 31, 34, 3, 2, 36, 29, 31, 39, 20, 19, 16, 13, 32, 27, 14, 42, 22, 10, 21, 19, 1, 24, 37, 17, 6, 9, 10, 44, 21, 22, 37, 23, 41, 41, 32, 27, 32, 29, 45, 39, 9, 7, 6, 26, 18, 27, 8, 23, 21, 41, 47
            |44, 32, 50, 40, 39, 26, 17, 36, 25, 61, 52, 26, 28, 36, 36, 51, 22, 13, 7, 40, 45, 42, 39, 23, 42, 4, 13, 52, 48, 34, 45, 28, 19, 47, 32, 47, 44, 0, 11, 29, 41, 32, 51, 39, 44, 45, 50, 47, 45, 34, 20, 20, 44, 43, 36, 52, 16, 6, 37, 25, 29, 54, 12, 18, 34, 14, 36, 40, 46, 47, 43, 28, 12, 41, 43, 38, 34, 38, 40, 39, 10, 28, 33, 40, 22, 17, 41, 35, 34, 23, 45, 51, 43, 50, 32, 19, 39, 52, 59, 8, 6
            |41, 31, 47, 30, 37, 15, 21, 25, 25, 55, 47, 29, 17, 34, 36, 45, 10, 2, 10, 40, 35, 38, 40, 24, 39, 8, 4, 44, 37, 33, 38, 23, 18, 40, 33, 37, 34, 11, 0, 18, 31, 33, 44, 34, 34, 41, 40, 38, 35, 34, 9, 21, 34, 34, 36, 48, 14, 5, 26, 17, 19, 46, 9, 7, 24, 20, 25, 30, 35, 42, 34, 25, 15, 30, 33, 28, 26, 41, 35, 27, 13, 23, 36, 41, 22, 10, 40, 34, 38, 26, 34, 41, 35, 46, 21, 8, 29, 46, 52, 14, 13
            |36, 33, 42, 13, 35, 3, 33, 7, 30, 43, 40, 37, 5, 35, 38, 35, 9, 17, 28, 42, 16, 34, 44, 31, 35, 26, 16, 28, 20, 34, 28, 21, 25, 29, 37, 21, 19, 29, 18, 0, 15, 37, 31, 27, 16, 34, 24, 24, 19, 37, 12, 29, 18, 18, 38, 42, 22, 23, 9, 12, 4, 32, 20, 11, 6, 33, 9, 12, 18, 33, 19, 25, 27, 12, 16, 11, 14, 46, 30, 11, 27, 22, 41, 44, 28, 16, 39, 33, 45, 35, 17, 25, 22, 39, 3, 10, 12, 38, 40, 29, 31
            |30, 33, 34, 2, 31, 17, 40, 10, 34, 30, 31, 40, 19, 33, 38, 24, 24, 31, 42, 40, 8, 29, 43, 35, 30, 39, 28, 14, 18, 33, 17, 21, 31, 17, 37, 6, 5, 41, 31, 15, 0, 38, 18, 21, 6, 26, 9, 10, 4, 36, 27, 34, 3, 3, 38, 33, 30, 36, 15, 17, 13, 17, 30, 24, 9, 41, 16, 5, 16, 24, 5, 25, 36, 12, 2, 4, 10, 46, 24, 17, 36, 23, 43, 43, 33, 25, 35, 31, 47, 39, 5, 10, 10, 30, 14, 24, 3, 27, 26, 39, 44
            |19, 5, 23, 39, 12, 36, 16, 41, 8, 40, 27, 7, 41, 8, 4, 30, 38, 35, 38, 8, 46, 16, 7, 9, 16, 34, 29, 41, 54, 7, 28, 18, 15, 31, 1, 41, 37, 32, 33, 37, 38, 0, 35, 20, 44, 22, 42, 36, 39, 3, 40, 12, 39, 38, 4, 25, 19, 33, 46, 26, 34, 39, 24, 33, 38, 19, 46, 41, 52, 26, 36, 13, 20, 47, 40, 39, 29, 9, 18, 48, 22, 16, 4, 8, 11, 25, 12, 9, 9, 9, 43, 43, 32, 25, 40, 34, 38, 29, 40, 24, 38
            |19, 30, 21, 20, 24, 33, 43, 28, 34, 12, 16, 40, 36, 27, 33, 8, 40, 45, 54, 33, 24, 20, 37, 36, 20, 51, 40, 9, 34, 28, 7, 24, 35, 4, 34, 15, 13, 51, 44, 31, 18, 35, 0, 15, 22, 14, 13, 8, 15, 32, 42, 37, 16, 15, 33, 18, 37, 48, 34, 27, 28, 4, 39, 38, 27, 46, 35, 23, 33, 10, 13, 26, 43, 30, 19, 23, 18, 41, 17, 35, 43, 25, 39, 37, 35, 35, 27, 26, 43, 40, 21, 13, 9, 16, 31, 38, 21, 11, 9, 47, 56
            |9, 15, 15, 22, 11, 27, 29, 27, 19, 22, 14, 25, 32, 13, 18, 12, 33, 35, 43, 19, 29, 8, 24, 22, 9, 39, 29, 21, 39, 14, 8, 11, 21, 11, 19, 22, 18, 39, 34, 27, 21, 20, 15, 0, 26, 7, 22, 16, 21, 18, 35, 22, 21, 19, 18, 15, 23, 36, 33, 18, 23, 19, 27, 29, 25, 32, 34, 25, 37, 8, 17, 11, 29, 32, 23, 23, 13, 27, 4, 35, 30, 11, 25, 23, 20, 24, 14, 12, 29, 25, 26, 23, 12, 13, 28, 29, 21, 13, 22, 33, 44
            |35, 39, 39, 5, 37, 19, 44, 9, 39, 33, 36, 46, 19, 38, 43, 29, 25, 34, 44, 45, 2, 34, 49, 40, 35, 42, 31, 16, 13, 38, 22, 26, 35, 22, 43, 7, 9, 44, 34, 16, 6, 44, 22, 26, 0, 31, 10, 14, 7, 42, 28, 39, 6, 8, 43, 38, 35, 39, 13, 21, 15, 20, 34, 27, 10, 46, 14, 4, 11, 29, 10, 31, 40, 9, 4, 6, 15, 52, 30, 14, 40, 29, 48, 49, 38, 29, 40, 37, 52, 44, 1, 11, 15, 35, 14, 26, 6, 32, 29, 43, 47
            |4, 18, 8, 28, 10, 34, 34, 34, 24, 18, 7, 28, 39, 14, 19, 8, 40, 42, 50, 18, 34, 6, 23, 26, 6, 46, 36, 22, 44, 15, 9, 17, 27, 11, 21, 26, 22, 45, 41, 34, 26, 22, 14, 7, 31, 0, 25, 18, 25, 19, 42, 27, 25, 24, 19, 8, 30, 43, 40, 25, 30, 19, 34, 36, 31, 37, 40, 31, 42, 4, 21, 17, 35, 38, 28, 29, 20, 27, 6, 42, 36, 18, 26, 23, 25, 31, 12, 13, 30, 29, 30, 25, 16, 5, 35, 37, 27, 7, 18, 39, 51
            |29, 36, 32, 11, 32, 26, 46, 19, 39, 23, 28, 45, 28, 35, 40, 20, 33, 40, 51, 41, 12, 29, 46, 40, 30, 48, 37, 5, 22, 35, 16, 26, 37, 14, 41, 4, 6, 50, 40, 24, 9, 42, 13, 22, 10, 25, 0, 6, 5, 39, 36, 40, 6, 7, 40, 31, 37, 45, 23, 25, 22, 10, 38, 33, 18, 48, 25, 13, 21, 21, 7, 30, 43, 19, 9, 13, 16, 49, 25, 25, 44, 28, 46, 45, 38, 33, 36, 34, 50, 45, 9, 1, 10, 27, 23, 33, 12, 24, 19, 47, 53
            |23, 30, 26, 12, 26, 26, 41, 20, 33, 20, 22, 39, 29, 29, 34, 15, 33, 38, 48, 35, 16, 23, 39, 35, 23, 45, 34, 6, 27, 29, 9, 21, 32, 8, 35, 8, 5, 47, 38, 24, 10, 36, 8, 16, 14, 18, 6, 0, 7, 33, 35, 35, 8, 7, 34, 25, 33, 42, 25, 21, 21, 8, 35, 31, 19, 43, 27, 15, 25, 15, 5, 24, 39, 22, 11, 15, 13, 43, 19, 27, 40, 23, 40, 39, 33, 30, 29, 27, 44, 39, 13, 7, 4, 21, 23, 31, 13, 18, 16, 43, 50
            |29, 34, 33, 6, 31, 21, 42, 14, 35, 26, 29, 42, 23, 33, 38, 22, 28, 35, 46, 40, 9, 28, 44, 37, 29, 43, 32, 9, 20, 33, 16, 23, 33, 15, 38, 2, 3, 45, 35, 19, 4, 39, 15, 21, 7, 25, 5, 7, 0, 37, 31, 36, 1, 2, 38, 31, 33, 40, 19, 20, 17, 14, 34, 28, 13, 44, 20, 9, 18, 22, 4, 27, 39, 15, 4, 9, 12, 47, 24, 21, 39, 25, 44, 44, 35, 29, 35, 32, 48, 41, 6, 6, 9, 28, 18, 28, 7, 25, 23, 42, 48
            |16, 4, 20, 37, 9, 35, 18, 40, 9, 37, 23, 10, 41, 5, 2, 27, 38, 36, 40, 6, 44, 13, 7, 11, 13, 36, 30, 39, 53, 4, 25, 16, 16, 28, 2, 39, 34, 34, 34, 37, 36, 3, 32, 18, 42, 19, 39, 33, 37, 0, 40, 14, 37, 36, 2, 22, 20, 34, 45, 25, 33, 36, 25, 33, 37, 22, 45, 40, 51, 23, 34, 12, 22, 45, 39, 37, 27, 10, 15, 47, 24, 14, 7, 8, 12, 25, 9, 6, 11, 12, 41, 40, 30, 22, 39, 34, 36, 25, 37, 26, 40
            |44, 36, 50, 25, 41, 10, 30, 19, 32, 54, 49, 37, 9, 39, 42, 45, 3, 8, 17, 46, 28, 41, 47, 31, 42, 16, 11, 40, 29, 38, 38, 26, 25, 39, 39, 33, 31, 20, 9, 12, 27, 40, 42, 35, 28, 42, 36, 35, 31, 40, 0, 29, 30, 30, 42, 50, 21, 14, 18, 17, 15, 43, 17, 7, 18, 29, 17, 24, 27, 43, 30, 29, 23, 23, 28, 23, 24, 48, 38, 19, 22, 27, 43, 47, 29, 15, 44, 38, 45, 34, 29, 37, 33, 48, 14, 6, 24, 47, 51, 23, 20
            |25, 12, 31, 34, 20, 27, 6, 34, 4, 45, 33, 8, 32, 16, 16, 34, 28, 24, 26, 20, 41, 23, 19, 3, 23, 22, 18, 41, 48, 14, 30, 14, 4, 33, 12, 38, 34, 20, 21, 29, 34, 12, 37, 22, 39, 27, 40, 35, 36, 14, 29, 0, 36, 35, 16, 33, 8, 21, 38, 18, 27, 41, 12, 22, 31, 9, 38, 36, 46, 30, 33, 11, 9, 40, 36, 34, 25, 19, 22, 40, 10, 12, 14, 20, 2, 14, 21, 16, 17, 6, 39, 41, 31, 32, 32, 23, 33, 34, 44, 13, 26
            |29, 34, 33, 5, 31, 20, 41, 13, 35, 27, 29, 41, 22, 33, 38, 22, 27, 34, 44, 40, 9, 28, 44, 36, 29, 42, 31, 11, 19, 33, 16, 22, 32, 15, 38, 3, 3, 44, 34, 18, 3, 39, 16, 21, 6, 25, 6, 8, 1, 37, 30, 36, 0, 1, 38, 32, 32, 39, 18, 19, 15, 15, 32, 27, 12, 43, 19, 7, 17, 22, 4, 26, 38, 14, 3, 7, 11, 47, 24, 19, 38, 24, 43, 43, 34, 27, 35, 31, 47, 41, 5, 7, 9, 29, 16, 26, 6, 26, 24, 41, 47
            |27, 32, 32, 5, 30, 20, 40, 13, 34, 27, 28, 40, 22, 31, 37, 21, 27, 34, 44, 38, 10, 27, 42, 35, 28, 41, 30, 11, 20, 32, 15, 21, 31, 14, 37, 4, 2, 43, 34, 18, 3, 38, 15, 19, 8, 24, 7, 7, 2, 36, 30, 35, 1, 0, 37, 31, 31, 38, 18, 18, 15, 14, 32, 26, 12, 42, 20, 8, 19, 21, 2, 25, 37, 15, 4, 8, 10, 45, 23, 20, 37, 23, 42, 42, 33, 27, 33, 30, 46, 39, 7, 8, 8, 28, 17, 26, 6, 25, 23, 40, 46
            |15, 5, 19, 38, 9, 37, 20, 41, 11, 36, 23, 11, 43, 5, 0, 27, 40, 38, 42, 4, 45, 13, 6, 13, 13, 38, 32, 39, 54, 5, 26, 18, 18, 29, 4, 40, 36, 36, 36, 38, 38, 4, 33, 18, 43, 19, 40, 34, 38, 2, 42, 16, 38, 37, 0, 22, 22, 36, 47, 27, 35, 37, 27, 35, 39, 23, 47, 41, 52, 23, 35, 14, 24, 47, 40, 39, 28, 9, 16, 49, 26, 16, 7, 6, 14, 27, 8, 7, 11, 14, 43, 41, 30, 22, 41, 36, 37, 25, 37, 28, 42
            |8, 22, 3, 35, 14, 42, 39, 41, 29, 16, 3, 32, 47, 18, 22, 11, 48, 50, 57, 19, 40, 11, 24, 31, 10, 53, 44, 27, 51, 19, 16, 25, 33, 17, 25, 32, 29, 52, 48, 42, 33, 25, 18, 15, 38, 8, 31, 25, 31, 22, 50, 33, 32, 31, 22, 0, 37, 51, 47, 33, 38, 23, 41, 44, 39, 43, 48, 38, 49, 9, 28, 24, 41, 45, 35, 37, 28, 28, 13, 49, 43, 25, 28, 23, 31, 38, 14, 18, 32, 34, 37, 31, 23, 3, 43, 45, 35, 7, 18, 45, 58
            |29, 17, 35, 29, 24, 20, 10, 28, 11, 46, 36, 16, 25, 21, 22, 36, 20, 16, 21, 26, 36, 26, 26, 10, 27, 17, 10, 39, 42, 20, 30, 13, 4, 33, 19, 35, 31, 16, 14, 22, 30, 19, 37, 23, 35, 30, 37, 33, 33, 20, 21, 8, 32, 31, 22, 37, 0, 15, 32, 13, 21, 40, 5, 14, 26, 11, 32, 31, 40, 32, 30, 13, 6, 34, 32, 29, 21, 27, 24, 34, 7, 12, 22, 27, 8, 7, 26, 20, 24, 13, 34, 38, 29, 35, 26, 16, 28, 36, 44, 10, 21
            |43, 32, 49, 34, 39, 20, 20, 30, 25, 58, 50, 28, 22, 35, 36, 48, 15, 6, 6, 40, 39, 40, 40, 24, 41, 3, 8, 48, 42, 34, 42, 26, 18, 44, 33, 42, 39, 6, 5, 23, 36, 33, 48, 36, 39, 43, 45, 42, 40, 34, 14, 21, 39, 38, 36, 51, 15, 0, 31, 21, 24, 50, 10, 12, 28, 17, 30, 35, 40, 45, 38, 27, 13, 35, 38, 33, 30, 40, 38, 32, 11, 26, 35, 41, 22, 13, 41, 35, 36, 25, 39, 46, 39, 49, 26, 13, 34, 49, 56, 11, 8
            |42, 42, 48, 13, 43, 12, 42, 6, 40, 45, 45, 46, 9, 43, 47, 39, 16, 25, 35, 50, 12, 41, 52, 40, 42, 34, 25, 28, 11, 42, 32, 29, 34, 32, 46, 20, 20, 37, 26, 9, 15, 46, 34, 33, 13, 40, 23, 25, 19, 45, 18, 38, 18, 18, 47, 47, 32, 31, 0, 21, 12, 33, 30, 20, 9, 42, 1, 10, 9, 38, 20, 33, 37, 5, 15, 11, 20, 55, 37, 2, 36, 31, 50, 53, 38, 25, 46, 41, 54, 44, 14, 24, 25, 44, 6, 18, 13, 42, 41, 38, 38
            |26, 21, 32, 16, 24, 10, 23, 16, 19, 38, 32, 26, 16, 23, 27, 28, 15, 18, 27, 30, 23, 24, 32, 20, 25, 24, 13, 27, 30, 22, 21, 9, 14, 23, 25, 22, 19, 25, 17, 12, 17, 26, 27, 18, 21, 25, 25, 21, 20, 25, 17, 18, 19, 18, 27, 33, 13, 21, 21, 0, 8, 29, 13, 11, 13, 24, 21, 18, 27, 25, 18, 13, 19, 22, 19, 16, 9, 34, 20, 23, 19, 11, 30, 33, 17, 9, 27, 22, 33, 24, 21, 26, 18, 30, 14, 12, 15, 30, 35, 22, 29
            |32, 30, 38, 11, 31, 5, 31, 8, 28, 39, 36, 34, 9, 31, 35, 31, 12, 19, 29, 38, 16, 30, 40, 28, 31, 27, 16, 25, 21, 30, 24, 17, 22, 25, 34, 18, 16, 29, 19, 4, 13, 34, 28, 23, 15, 30, 22, 21, 17, 33, 15, 27, 15, 15, 35, 38, 21, 24, 12, 8, 0, 28, 19, 12, 5, 32, 12, 11, 19, 29, 16, 21, 26, 13, 14, 9, 10, 43, 26, 14, 25, 19, 38, 41, 26, 14, 35, 30, 42, 32, 15, 22, 18, 35, 6, 11, 10, 34, 36, 28, 32
            |23, 34, 25, 20, 28, 33, 47, 27, 38, 13, 20, 44, 36, 32, 37, 12, 40, 46, 56, 37, 22, 24, 42, 40, 25, 53, 42, 5, 32, 32, 11, 27, 38, 8, 38, 13, 13, 54, 46, 32, 17, 39, 4, 19, 20, 19, 10, 8, 14, 36, 43, 41, 15, 14, 37, 23, 40, 50, 33, 29, 28, 0, 42, 39, 26, 49, 34, 22, 31, 15, 13, 29, 46, 29, 18, 22, 20, 46, 21, 34, 46, 29, 44, 41, 38, 37, 31, 30, 48, 44, 19, 10, 11, 20, 31, 39, 20, 16, 9, 49, 58
            |33, 22, 39, 29, 29, 17, 13, 27, 16, 49, 40, 20, 22, 26, 27, 39, 16, 11, 16, 31, 35, 30, 31, 15, 31, 12, 6, 40, 40, 25, 33, 16, 9, 35, 24, 36, 32, 12, 9, 20, 30, 24, 39, 27, 34, 34, 38, 35, 34, 25, 17, 12, 32, 32, 27, 41, 5, 10, 30, 13, 19, 42, 0, 11, 24, 13, 29, 30, 38, 35, 31, 17, 7, 32, 32, 28, 22, 32, 28, 31, 6, 16, 27, 32, 13, 5, 31, 25, 29, 17, 34, 39, 31, 39, 23, 12, 28, 40, 47, 9, 17
            |37, 29, 43, 22, 34, 8, 24, 18, 25, 49, 43, 30, 11, 32, 35, 39, 6, 7, 17, 38, 27, 35, 40, 25, 36, 15, 5, 37, 31, 31, 32, 19, 18, 34, 32, 30, 27, 18, 7, 11, 24, 33, 38, 29, 27, 36, 33, 31, 28, 33, 7, 22, 27, 26, 35, 44, 14, 12, 20, 11, 12, 39, 11, 0, 16, 24, 19, 23, 28, 37, 27, 22, 18, 23, 26, 21, 19, 41, 31, 21, 17, 20, 36, 40, 22, 8, 37, 31, 38, 27, 27, 34, 28, 41, 14, 1, 22, 41, 46, 19, 20
            |34, 33, 39, 7, 34, 9, 36, 3, 32, 38, 37, 39, 10, 34, 39, 31, 15, 23, 34, 41, 11, 33, 44, 33, 34, 32, 21, 23, 17, 34, 24, 21, 27, 25, 38, 15, 14, 34, 24, 6, 9, 38, 27, 25, 10, 31, 18, 19, 13, 37, 18, 31, 12, 12, 39, 39, 26, 28, 9, 13, 5, 26, 24, 16, 0, 37, 9, 6, 14, 30, 13, 25, 31, 9, 10, 5, 11, 47, 28, 11, 31, 23, 42, 44, 30, 19, 38, 33, 46, 37, 11, 19, 17, 36, 4, 16, 6, 34, 35, 33, 36
            |35, 21, 40, 40, 29, 30, 4, 39, 13, 54, 43, 13, 35, 25, 23, 44, 29, 22, 21, 27, 47, 32, 25, 11, 33, 17, 18, 49, 53, 23, 39, 23, 11, 42, 20, 46, 42, 14, 20, 33, 41, 19, 46, 32, 46, 37, 48, 43, 44, 22, 29, 9, 43, 42, 23, 43, 11, 17, 42, 24, 32, 49, 13, 24, 37, 0, 42, 42, 51, 40, 41, 21, 6, 45, 43, 40, 32, 24, 31, 44, 7, 21, 20, 27, 12, 17, 30, 25, 20, 10, 46, 49, 39, 41, 36, 25, 39, 44, 53, 6, 20
            |43, 42, 49, 14, 43, 12, 42, 7, 40, 46, 46, 46, 8, 43, 47, 40, 15, 24, 34, 50, 13, 42, 53, 40, 43, 33, 24, 30, 12, 43, 33, 29, 34, 33, 46, 21, 22, 36, 25, 9, 16, 46, 35, 34, 14, 40, 25, 27, 20, 45, 17, 38, 19, 20, 47, 48, 32, 30, 1, 21, 12, 34, 29, 19, 9, 42, 0, 12, 10, 39, 21, 33, 36, 6, 16, 12, 21, 55, 37, 2, 35, 31, 50, 53, 37, 25, 47, 42, 54, 44, 15, 25, 26, 45, 6, 18, 14, 43, 43, 38, 37
            |34, 36, 39, 3, 35, 15, 41, 6, 36, 35, 36, 43, 16, 36, 41, 29, 21, 29, 40, 43, 5, 33, 47, 37, 34, 38, 27, 18, 14, 36, 22, 24, 32, 22, 40, 9, 10, 40, 30, 12, 5, 41, 23, 25, 4, 31, 13, 15, 9, 40, 24, 36, 7, 8, 41, 38, 31, 35, 10, 18, 11, 22, 30, 23, 6, 42, 12, 0, 12, 29, 10, 28, 36, 7, 4, 2, 13, 50, 29, 12, 36, 26, 46, 47, 34, 25, 39, 35, 49, 41, 4, 14, 15, 35, 10, 22, 4, 32, 31, 39, 42
            |46, 47, 50, 15, 47, 21, 50, 12, 46, 44, 47, 53, 18, 48, 52, 40, 25, 34, 44, 55, 9, 45, 58, 47, 46, 43, 34, 26, 2, 48, 34, 35, 42, 33, 52, 18, 21, 46, 35, 18, 16, 52, 33, 37, 11, 42, 21, 25, 18, 51, 27, 46, 17, 19, 52, 49, 40, 40, 9, 27, 19, 31, 38, 28, 14, 51, 10, 12, 0, 40, 21, 39, 45, 6, 15, 14, 24, 61, 40, 8, 44, 37, 57, 58, 45, 33, 50, 46, 60, 51, 12, 21, 26, 46, 15, 27, 15, 43, 40, 47, 47
            |9, 21, 11, 25, 14, 34, 37, 32, 27, 14, 7, 32, 38, 18, 23, 4, 40, 43, 51, 23, 31, 10, 27, 29, 10, 48, 37, 18, 41, 19, 6, 19, 29, 8, 25, 23, 19, 47, 42, 33, 24, 26, 10, 8, 29, 4, 21, 15, 22, 23, 43, 30, 22, 21, 23, 9, 32, 45, 38, 25, 29, 15, 35, 37, 30, 40, 39, 29, 40, 0, 19, 19, 37, 36, 25, 27, 19, 31, 9, 40, 38, 20, 30, 27, 28, 32, 16, 17, 34, 33, 28, 22, 14, 6, 34, 37, 25, 4, 14, 41, 52
            |25, 30, 30, 7, 28, 21, 39, 15, 32, 25, 26, 39, 23, 29, 35, 19, 28, 34, 44, 36, 12, 25, 40, 34, 26, 41, 30, 10, 22, 30, 13, 19, 30, 12, 35, 5, 1, 43, 34, 19, 5, 36, 13, 17, 10, 21, 7, 5, 4, 34, 30, 33, 4, 2, 35, 28, 30, 38, 20, 18, 16, 13, 31, 27, 13, 41, 21, 10, 21, 19, 0, 23, 36, 17, 6, 9, 9, 44, 21, 22, 36, 22, 40, 40, 31, 26, 31, 28, 44, 38, 9, 8, 5, 25, 18, 26, 7, 22, 22, 40, 46
            |16, 9, 22, 25, 12, 23, 18, 28, 9, 34, 23, 16, 29, 10, 14, 23, 27, 27, 33, 17, 32, 13, 19, 11, 14, 29, 21, 30, 41, 9, 19, 4, 10, 22, 13, 28, 24, 28, 25, 25, 25, 13, 26, 11, 31, 17, 30, 24, 27, 12, 29, 11, 26, 25, 14, 24, 13, 27, 33, 13, 21, 29, 17, 22, 25, 21, 33, 28, 39, 19, 23, 0, 18, 33, 27, 26, 15, 22, 11, 35, 19, 2, 18, 20, 9, 15, 15, 9, 22, 15, 30, 31, 20, 22, 27, 23, 24, 23, 33, 22, 34
            |33, 20, 39, 35, 28, 25, 7, 34, 13, 51, 41, 15, 29, 24, 24, 41, 23, 17, 18, 28, 42, 30, 27, 11, 31, 14, 13, 45, 47, 23, 36, 19, 8, 38, 21, 41, 37, 12, 15, 27, 36, 20, 43, 29, 40, 35, 43, 39, 39, 22, 23, 9, 38, 37, 24, 41, 6, 13, 37, 19, 26, 46, 7, 18, 31, 6, 36, 36, 45, 37, 36, 18, 0, 39, 38, 34, 27, 27, 29, 38, 2, 17, 22, 28, 10, 12, 30, 24, 23, 12, 40, 44, 35, 40, 30, 19, 34, 41, 50, 4, 18
            |41, 42, 46, 10, 42, 15, 44, 6, 41, 41, 43, 47, 13, 42, 47, 36, 20, 29, 39, 49, 7, 40, 52, 42, 41, 38, 28, 24, 8, 42, 29, 29, 36, 29, 46, 16, 17, 41, 30, 12, 12, 47, 30, 32, 9, 38, 19, 22, 15, 45, 23, 40, 14, 15, 47, 45, 34, 35, 5, 22, 13, 29, 32, 23, 9, 45, 6, 7, 6, 36, 17, 33, 39, 0, 11, 9, 19, 55, 35, 6, 39, 31, 51, 53, 39, 28, 45, 41, 55, 45, 9, 19, 22, 42, 9, 22, 10, 39, 38, 41, 42
            |31, 35, 36, 3, 33, 18, 42, 10, 36, 30, 32, 43, 20, 35, 40, 25, 25, 33, 43, 42, 6, 31, 45, 37, 32, 41, 30, 13, 16, 35, 19, 23, 33, 18, 40, 5, 6, 43, 33, 16, 2, 40, 19, 23, 4, 28, 9, 11, 4, 39, 28, 36, 3, 4, 40, 35, 32, 38, 15, 19, 14, 18, 32, 26, 10, 43, 16, 4, 15, 25, 6, 27, 38, 11, 0, 5, 12, 49, 26, 16, 38, 25, 45, 45, 35, 27, 37, 33, 49, 41, 3, 9, 12, 32, 14, 25, 4, 29, 27, 41, 46
            |32, 34, 37, 2, 33, 13, 39, 5, 34, 34, 34, 40, 15, 34, 39, 28, 20, 28, 38, 41, 7, 31, 45, 35, 32, 36, 25, 18, 16, 34, 21, 21, 30, 21, 38, 10, 9, 38, 28, 11, 4, 39, 23, 23, 6, 29, 13, 15, 9, 37, 23, 34, 7, 8, 39, 37, 29, 33, 11, 16, 9, 22, 28, 21, 5, 40, 12, 2, 14, 27, 9, 26, 34, 9, 5, 0, 11, 47, 27, 13, 34, 24, 43, 45, 32, 23, 37, 33, 47, 39, 6, 14, 14, 34, 9, 20, 2, 31, 31, 37, 41
            |23, 23, 28, 10, 23, 15, 30, 14, 24, 30, 26, 30, 19, 23, 28, 21, 21, 26, 36, 31, 17, 21, 34, 25, 22, 33, 22, 18, 26, 23, 14, 11, 21, 15, 28, 14, 10, 34, 26, 14, 10, 29, 18, 13, 15, 20, 16, 13, 12, 27, 24, 25, 11, 10, 28, 28, 21, 30, 20, 9, 10, 20, 22, 19, 11, 32, 21, 13, 24, 19, 9, 15, 27, 19, 12, 11, 0, 37, 17, 22, 27, 13, 33, 34, 23, 17, 26, 22, 37, 29, 15, 17, 9, 25, 15, 19, 9, 24, 27, 31, 38
            |23, 13, 25, 47, 17, 44, 21, 50, 16, 44, 30, 12, 50, 14, 9, 35, 47, 43, 45, 9, 54, 21, 4, 16, 21, 41, 37, 48, 63, 14, 35, 26, 23, 38, 9, 49, 44, 38, 41, 46, 46, 9, 41, 27, 52, 27, 49, 43, 47, 10, 48, 19, 47, 45, 9, 28, 27, 40, 55, 34, 43, 46, 32, 41, 47, 24, 55, 50, 61, 31, 44, 22, 27, 55, 49, 47, 37, 0, 24, 57, 29, 24, 5, 5, 19, 33, 15, 16, 5, 15, 51, 50, 39, 29, 49, 42, 46, 33, 45, 30, 44
            |6, 13, 12, 26, 7, 30, 28, 31, 18, 23, 12, 23, 35, 10, 16, 13, 35, 37, 44, 16, 32, 4, 21, 21, 5, 40, 31, 24, 42, 11, 10, 12, 21, 13, 17, 25, 21, 40, 35, 30, 24, 18, 17, 4, 30, 6, 25, 19, 24, 15, 38, 22, 24, 23, 16, 13, 24, 38, 37, 20, 26, 21, 28, 31, 28, 31, 37, 29, 40, 9, 21, 11, 29, 35, 26, 27, 17, 24, 0, 39, 30, 12, 22, 20, 20, 25, 11, 9, 26, 24, 29, 26, 16, 11, 32, 32, 25, 12, 23, 33, 45
            |45, 44, 50, 15, 45, 14, 44, 8, 42, 47, 47, 48, 10, 45, 49, 41, 17, 26, 36, 52, 13, 43, 55, 42, 44, 35, 27, 30, 10, 44, 34, 31, 36, 34, 48, 21, 22, 39, 27, 11, 17, 48, 35, 35, 14, 42, 25, 27, 21, 47, 19, 40, 19, 20, 49, 49, 34, 32, 2, 23, 14, 34, 31, 21, 11, 44, 2, 12, 8, 40, 22, 35, 38, 6, 16, 13, 22, 57, 39, 0, 38, 33, 52, 55, 40, 27, 48, 43, 56, 46, 15, 25, 27, 46, 8, 20, 15, 44, 43, 40, 39
            |35, 22, 41, 35, 30, 24, 9, 33, 15, 52, 42, 17, 28, 26, 26, 42, 22, 15, 16, 30, 41, 32, 29, 13, 33, 12, 11, 46, 46, 25, 37, 20, 9, 39, 23, 41, 37, 10, 13, 27, 36, 22, 43, 30, 40, 36, 44, 40, 39, 24, 22, 10, 38, 37, 26, 43, 7, 11, 36, 19, 25, 46, 6, 17, 31, 7, 35, 36, 44, 38, 36, 19, 2, 39, 38, 34, 27, 29, 30, 38, 0, 19, 24, 30, 12, 11, 31, 26, 25, 14, 40, 45, 36, 41, 30, 18, 34, 43, 51, 3, 16
            |17, 11, 24, 23, 14, 21, 18, 25, 10, 34, 24, 17, 27, 12, 16, 24, 25, 25, 32, 19, 31, 15, 22, 12, 16, 28, 19, 29, 39, 12, 18, 2, 10, 21, 15, 27, 23, 28, 23, 22, 23, 16, 25, 11, 29, 18, 28, 23, 25, 14, 27, 12, 24, 23, 16, 25, 12, 26, 31, 11, 19, 29, 16, 20, 23, 21, 31, 26, 37, 20, 22, 2, 17, 31, 25, 24, 13, 24, 12, 33, 19, 0, 20, 22, 10, 14, 17, 11, 24, 16, 28, 29, 19, 23, 25, 21, 22, 24, 33, 22, 33
            |22, 10, 26, 43, 16, 40, 16, 45, 11, 43, 30, 7, 45, 12, 7, 34, 42, 38, 40, 9, 50, 20, 6, 11, 20, 36, 32, 46, 59, 11, 33, 22, 18, 36, 5, 46, 41, 33, 36, 41, 43, 4, 39, 25, 48, 26, 46, 40, 44, 7, 43, 14, 43, 42, 7, 28, 22, 35, 50, 30, 38, 44, 27, 36, 42, 20, 50, 46, 57, 30, 40, 18, 22, 51, 45, 43, 33, 5, 22, 52, 24, 20, 0, 7, 14, 28, 15, 13, 4, 10, 48, 47, 36, 29, 44, 37, 42, 32, 44, 25, 39
            |18, 11, 20, 44, 13, 43, 23, 47, 16, 39, 25, 14, 48, 11, 6, 30, 46, 43, 46, 4, 51, 17, 1, 17, 16, 42, 37, 44, 60, 11, 30, 24, 23, 33, 8, 45, 41, 40, 41, 44, 43, 8, 37, 23, 49, 23, 45, 39, 44, 8, 47, 20, 43, 42, 6, 23, 27, 41, 53, 33, 41, 41, 32, 40, 44, 27, 53, 47, 58, 27, 40, 20, 28, 53, 45, 45, 34, 5, 20, 55, 30, 22, 7, 0, 19, 33, 10, 12, 9, 17, 48, 46, 36, 24, 47, 41, 43, 28, 40, 32, 46
            |23, 10, 29, 32, 18, 26, 9, 33, 3, 42, 31, 8, 31, 14, 14, 32, 28, 24, 28, 18, 39, 21, 18, 3, 21, 24, 18, 39, 47, 13, 28, 12, 4, 31, 11, 37, 32, 22, 22, 28, 33, 11, 35, 20, 38, 25, 38, 33, 35, 12, 29, 2, 34, 33, 14, 31, 8, 22, 38, 17, 26, 38, 13, 22, 30, 12, 37, 34, 45, 28, 31, 9, 10, 39, 35, 32, 23, 19, 20, 40, 12, 10, 14, 19, 0, 14, 19, 14, 17, 7, 37, 39, 29, 30, 31, 23, 31, 32, 42, 14, 28
            |31, 22, 37, 24, 27, 13, 17, 22, 17, 45, 38, 22, 18, 25, 27, 35, 13, 11, 19, 31, 30, 28, 32, 17, 29, 16, 5, 36, 35, 24, 29, 13, 10, 31, 25, 31, 27, 17, 10, 16, 25, 25, 35, 24, 29, 31, 33, 30, 29, 25, 15, 14, 27, 27, 27, 38, 7, 13, 25, 9, 14, 37, 5, 8, 19, 17, 25, 25, 33, 32, 26, 15, 12, 28, 27, 23, 17, 33, 25, 27, 11, 14, 28, 33, 14, 0, 30, 24, 31, 20, 29, 34, 26, 36, 19, 9, 23, 37, 43, 14, 21
            |8, 9, 11, 36, 4, 38, 26, 40, 17, 29, 15, 19, 43, 5, 8, 20, 42, 41, 47, 6, 43, 7, 11, 19, 6, 43, 35, 34, 52, 7, 21, 18, 22, 23, 11, 36, 32, 41, 40, 39, 35, 12, 27, 14, 40, 12, 36, 29, 35, 9, 44, 21, 35, 33, 8, 14, 26, 41, 46, 27, 35, 31, 31, 37, 38, 30, 47, 39, 50, 16, 31, 15, 30, 45, 37, 37, 26, 15, 11, 48, 31, 17, 15, 10, 19, 30, 0, 6, 18, 21, 40, 37, 26, 14, 40, 38, 35, 18, 30, 34, 47
            |10, 4, 16, 32, 4, 32, 21, 36, 11, 31, 18, 15, 38, 1, 7, 21, 36, 35, 41, 9, 39, 8, 12, 13, 8, 37, 29, 33, 48, 2, 19, 13, 17, 22, 8, 33, 29, 35, 34, 33, 31, 9, 26, 12, 37, 13, 34, 27, 32, 6, 38, 16, 31, 30, 7, 18, 20, 35, 41, 22, 30, 30, 25, 31, 33, 25, 42, 35, 46, 17, 28, 9, 24, 41, 33, 33, 22, 16, 9, 43, 26, 11, 13, 12, 14, 24, 6, 0, 17, 16, 36, 34, 24, 17, 35, 32, 31, 20, 31, 28, 41
            |26, 14, 29, 47, 20, 43, 17, 49, 14, 47, 34, 9, 48, 16, 11, 38, 44, 40, 41, 13, 54, 24, 8, 14, 24, 37, 35, 50, 62, 15, 37, 26, 21, 40, 9, 50, 45, 34, 38, 45, 47, 9, 43, 29, 52, 30, 50, 44, 48, 11, 45, 17, 47, 46, 11, 32, 24, 36, 54, 33, 42, 48, 29, 38, 46, 20, 54, 49, 60, 34, 44, 22, 23, 55, 49, 47, 37, 5, 26, 56, 25, 24, 4, 9, 17, 31, 18, 17, 0, 11, 52, 51, 40, 32, 47, 40, 46, 36, 48, 26, 40
            |26, 12, 31, 39, 20, 33, 6, 40, 6, 47, 34, 3, 38, 16, 14, 37, 33, 28, 30, 17, 46, 24, 16, 4, 24, 26, 23, 45, 54, 14, 33, 18, 10, 36, 10, 43, 39, 23, 26, 35, 39, 9, 40, 25, 44, 29, 45, 39, 41, 12, 34, 6, 41, 39, 14, 34, 13, 25, 44, 24, 32, 44, 17, 27, 37, 10, 44, 41, 51, 33, 38, 15, 12, 45, 41, 39, 29, 15, 24, 46, 14, 16, 10, 17, 7, 20, 21, 16, 11, 0, 44, 46, 35, 33, 38, 29, 38, 36, 47, 15, 29
            |34, 38, 38, 5, 36, 19, 44, 10, 38, 32, 35, 45, 20, 38, 43, 28, 26, 34, 44, 45, 3, 34, 48, 40, 34, 42, 31, 15, 14, 38, 22, 26, 35, 21, 42, 6, 9, 45, 34, 17, 5, 43, 21, 26, 1, 30, 9, 13, 6, 41, 29, 39, 5, 7, 43, 37, 34, 39, 14, 21, 15, 19, 34, 27, 11, 46, 15, 4, 12, 28, 9, 30, 40, 9, 3, 6, 15, 51, 29, 15, 40, 28, 48, 48, 37, 29, 40, 36, 52, 44, 0, 10, 14, 34, 14, 26, 6, 31, 28, 43, 47
            |30, 37, 33, 12, 33, 27, 47, 19, 40, 23, 28, 46, 29, 36, 41, 21, 34, 41, 51, 42, 12, 30, 47, 41, 31, 49, 38, 5, 22, 36, 16, 27, 38, 14, 42, 4, 7, 51, 41, 25, 10, 43, 13, 23, 11, 25, 1, 7, 6, 40, 37, 41, 7, 8, 41, 31, 38, 46, 24, 26, 22, 10, 39, 34, 19, 49, 25, 14, 21, 22, 8, 31, 44, 19, 9, 14, 17, 50, 26, 25, 45, 29, 47, 46, 39, 34, 37, 34, 51, 46, 10, 0, 11, 28, 23, 34, 13, 24, 19, 48, 54
            |20, 27, 24, 12, 23, 23, 37, 19, 29, 21, 21, 36, 27, 25, 30, 14, 30, 35, 45, 32, 17, 20, 36, 31, 21, 42, 31, 10, 28, 25, 7, 17, 28, 7, 31, 10, 6, 43, 35, 22, 10, 32, 9, 12, 15, 16, 10, 4, 9, 30, 33, 31, 9, 8, 30, 23, 29, 39, 25, 18, 18, 11, 31, 28, 17, 39, 26, 15, 26, 14, 5, 20, 35, 22, 12, 14, 9, 39, 16, 27, 36, 19, 36, 36, 29, 26, 26, 24, 40, 35, 14, 11, 0, 20, 22, 28, 12, 17, 18, 39, 47
            |7, 21, 5, 32, 13, 39, 38, 38, 28, 15, 1, 32, 44, 17, 22, 8, 45, 47, 55, 20, 37, 9, 25, 30, 9, 51, 42, 24, 48, 19, 13, 23, 32, 14, 24, 29, 26, 50, 46, 39, 30, 25, 16, 13, 35, 5, 27, 21, 28, 22, 48, 32, 29, 28, 22, 3, 35, 49, 44, 30, 35, 20, 39, 41, 36, 41, 45, 35, 46, 6, 25, 22, 40, 42, 32, 34, 25, 29, 11, 46, 41, 23, 29, 24, 30, 36, 14, 17, 32, 33, 34, 28, 20, 0, 40, 42, 32, 4, 16, 44, 56
            |37, 36, 43, 11, 37, 6, 36, 4, 33, 43, 41, 40, 6, 37, 41, 36, 12, 20, 31, 44, 14, 36, 46, 34, 37, 29, 19, 27, 17, 36, 28, 23, 28, 29, 39, 19, 18, 32, 21, 3, 14, 40, 31, 28, 14, 35, 23, 23, 18, 39, 14, 32, 16, 17, 41, 43, 26, 26, 6, 14, 6, 31, 23, 14, 4, 36, 6, 10, 15, 34, 18, 27, 30, 9, 14, 9, 15, 49, 32, 8, 30, 25, 44, 47, 31, 19, 40, 35, 47, 38, 14, 23, 22, 40, 0, 13, 11, 38, 39, 32, 33
            |38, 31, 44, 22, 35, 7, 25, 17, 26, 49, 43, 31, 10, 33, 36, 40, 4, 8, 18, 40, 26, 35, 41, 26, 36, 16, 7, 36, 29, 32, 33, 20, 19, 34, 34, 30, 27, 19, 8, 10, 24, 34, 38, 29, 26, 37, 33, 31, 28, 34, 6, 23, 26, 26, 36, 45, 16, 13, 18, 12, 11, 39, 12, 1, 16, 25, 18, 22, 27, 37, 26, 23, 19, 22, 25, 20, 19, 42, 32, 20, 18, 21, 37, 41, 23, 9, 38, 32, 40, 29, 26, 34, 28, 42, 13, 0, 21, 42, 46, 20, 21
            |30, 33, 35, 1, 32, 14, 38, 7, 33, 32, 32, 39, 16, 33, 37, 26, 21, 29, 39, 40, 8, 30, 43, 34, 30, 37, 26, 16, 17, 33, 19, 20, 29, 19, 37, 9, 8, 39, 29, 12, 3, 38, 21, 21, 6, 27, 12, 13, 7, 36, 24, 33, 6, 6, 37, 35, 28, 34, 13, 15, 10, 20, 28, 22, 6, 39, 14, 4, 15, 25, 7, 24, 34, 10, 4, 2, 9, 46, 25, 15, 34, 22, 42, 43, 31, 23, 35, 31, 46, 38, 6, 13, 12, 32, 11, 21, 0, 29, 29, 37, 41
            |10, 24, 9, 29, 16, 38, 40, 36, 30, 11, 4, 35, 43, 21, 25, 4, 45, 48, 56, 24, 34, 12, 29, 33, 12, 52, 42, 20, 45, 22, 10, 23, 33, 10, 28, 26, 23, 52, 46, 38, 27, 29, 11, 13, 32, 7, 24, 18, 25, 25, 47, 34, 26, 25, 25, 7, 36, 49, 42, 30, 34, 16, 40, 41, 34, 44, 43, 32, 43, 4, 22, 23, 41, 39, 29, 31, 24, 33, 12, 44, 43, 24, 32, 28, 32, 37, 18, 20, 36, 36, 31, 24, 17, 4, 38, 42, 29, 0, 12, 45, 57
            |22, 36, 21, 28, 28, 41, 50, 36, 41, 4, 16, 46, 45, 32, 37, 10, 48, 53, 62, 36, 31, 24, 41, 43, 24, 59, 48, 14, 41, 33, 14, 31, 42, 12, 39, 22, 21, 59, 52, 40, 26, 40, 9, 22, 29, 18, 19, 16, 23, 37, 51, 44, 24, 23, 37, 18, 44, 56, 41, 35, 36, 9, 47, 46, 35, 53, 43, 31, 40, 14, 22, 33, 50, 38, 27, 31, 27, 45, 23, 43, 51, 33, 44, 40, 42, 43, 30, 31, 48, 47, 28, 19, 18, 16, 39, 46, 29, 12, 0, 54, 64
            |38, 24, 43, 38, 32, 26, 9, 36, 17, 55, 45, 18, 30, 28, 28, 45, 24, 16, 15, 32, 44, 35, 31, 15, 35, 11, 13, 49, 49, 27, 40, 23, 12, 42, 24, 44, 41, 8, 14, 29, 39, 24, 47, 33, 43, 39, 47, 43, 42, 26, 23, 13, 41, 40, 28, 45, 10, 11, 38, 22, 28, 49, 9, 19, 33, 6, 38, 39, 47, 41, 40, 22, 4, 41, 41, 37, 31, 30, 33, 40, 3, 22, 25, 32, 14, 14, 34, 28, 26, 15, 43, 48, 39, 44, 32, 20, 37, 45, 54, 0, 14
            |50, 38, 56, 42, 45, 28, 23, 38, 31, 66, 57, 32, 29, 42, 42, 56, 22, 13, 3, 46, 47, 47, 45, 29, 48, 5, 16, 56, 49, 40, 50, 33, 25, 52, 38, 50, 47, 6, 13, 31, 44, 38, 56, 44, 47, 51, 53, 50, 48, 40, 20, 26, 47, 46, 42, 58, 21, 8, 38, 29, 32, 58, 17, 20, 36, 20, 37, 42, 47, 52, 46, 34, 18, 42, 46, 41, 38, 44, 45, 39, 16, 33, 39, 46, 28, 21, 47, 41, 40, 29, 47, 54, 47, 56, 33, 21, 41, 57, 64, 14, 0|];