% n100w160.002    56.44 971
n = 101;
duration = [|0, 22, 16, 22, 22, 9, 24, 32, 25, 24, 25, 9, 19, 32, 24, 13, 14, 20, 25, 21, 15, 15, 15, 26, 20, 31, 21, 8, 21, 24, 16, 15, 40, 14, 10, 2, 23, 28, 15, 15, 23, 11, 10, 30, 2, 21, 24, 26, 6, 23, 15, 2, 22, 30, 42, 26, 9, 37, 23, 9, 22, 25, 25, 4, 19, 27, 15, 10, 29, 12, 18, 14, 30, 5, 25, 35, 35, 17, 18, 21, 30, 14, 20, 31, 26, 24, 11, 18, 4, 2, 31, 20, 1, 6, 25, 16, 22, 21, 28, 17, 26
            |22, 0, 7, 24, 41, 22, 9, 13, 3, 10, 12, 31, 40, 15, 18, 31, 14, 22, 5, 39, 36, 37, 27, 4, 28, 27, 18, 15, 28, 6, 11, 16, 20, 11, 18, 21, 28, 29, 38, 22, 39, 26, 32, 21, 23, 36, 37, 40, 28, 15, 20, 20, 16, 9, 22, 39, 31, 17, 15, 13, 1, 46, 8, 27, 37, 40, 18, 13, 24, 10, 18, 30, 19, 28, 23, 17, 13, 15, 5, 41, 23, 37, 3, 9, 8, 31, 28, 9, 26, 24, 14, 33, 23, 16, 9, 30, 18, 40, 10, 33, 21
            |16, 7, 0, 18, 36, 15, 9, 16, 9, 14, 16, 25, 35, 21, 15, 24, 7, 21, 11, 34, 31, 31, 20, 10, 22, 29, 14, 8, 26, 11, 10, 14, 24, 4, 11, 15, 23, 29, 31, 19, 32, 22, 26, 19, 17, 30, 30, 33, 22, 17, 14, 14, 17, 14, 26, 32, 25, 21, 17, 7, 6, 40, 13, 21, 30, 34, 12, 6, 26, 4, 13, 23, 23, 21, 24, 20, 19, 9, 2, 36, 26, 30, 4, 15, 10, 25, 23, 4, 19, 17, 20, 27, 17, 10, 10, 23, 13, 35, 16, 29, 22
            |22, 24, 18, 0, 43, 13, 17, 22, 23, 33, 34, 30, 39, 38, 8, 18, 12, 37, 29, 43, 35, 35, 11, 25, 8, 47, 5, 19, 41, 29, 28, 30, 29, 14, 12, 23, 5, 46, 30, 34, 20, 33, 28, 12, 24, 19, 16, 19, 28, 35, 7, 21, 36, 24, 30, 18, 27, 28, 35, 18, 23, 45, 31, 25, 22, 19, 8, 19, 44, 19, 6, 16, 41, 25, 41, 23, 31, 9, 19, 43, 44, 32, 21, 26, 19, 8, 33, 15, 21, 21, 38, 14, 22, 18, 17, 13, 6, 42, 33, 39, 40
            |22, 41, 36, 43, 0, 30, 45, 53, 44, 38, 38, 13, 7, 45, 46, 28, 36, 25, 42, 3, 9, 10, 34, 45, 39, 34, 43, 29, 19, 40, 31, 27, 60, 36, 32, 22, 43, 28, 18, 21, 37, 15, 16, 52, 20, 35, 40, 41, 16, 34, 37, 24, 32, 50, 62, 41, 17, 57, 34, 30, 40, 6, 40, 19, 31, 42, 36, 30, 33, 32, 40, 31, 38, 18, 29, 56, 53, 39, 38, 1, 36, 15, 39, 50, 46, 43, 13, 39, 23, 22, 44, 37, 22, 28, 46, 34, 43, 1, 43, 9, 32
            |9, 22, 15, 13, 30, 0, 20, 28, 23, 27, 29, 17, 26, 35, 17, 9, 9, 27, 26, 29, 22, 21, 6, 25, 11, 38, 14, 9, 29, 26, 20, 21, 36, 11, 4, 10, 14, 36, 18, 23, 17, 20, 15, 23, 11, 15, 17, 19, 14, 28, 7, 9, 28, 27, 38, 19, 14, 34, 28, 10, 21, 32, 27, 11, 15, 20, 7, 11, 35, 13, 10, 8, 35, 12, 32, 31, 33, 11, 17, 29, 36, 19, 19, 29, 22, 15, 20, 14, 8, 8, 34, 13, 9, 8, 21, 9, 14, 29, 30, 26, 32
            |24, 9, 9, 17, 45, 20, 0, 8, 6, 19, 20, 33, 43, 23, 10, 29, 11, 29, 13, 43, 39, 39, 23, 8, 23, 36, 12, 16, 35, 14, 18, 22, 16, 10, 16, 23, 22, 37, 38, 28, 35, 31, 34, 12, 25, 33, 32, 35, 30, 23, 16, 22, 24, 7, 18, 34, 32, 13, 23, 15, 8, 49, 17, 28, 35, 35, 14, 15, 33, 13, 13, 27, 28, 29, 31, 11, 14, 10, 7, 45, 31, 38, 8, 9, 2, 25, 32, 6, 26, 25, 22, 29, 25, 18, 1, 26, 11, 44, 18, 38, 29
            |32, 13, 16, 22, 53, 28, 8, 0, 10, 23, 24, 41, 51, 24, 14, 36, 18, 35, 16, 51, 47, 47, 30, 10, 29, 40, 17, 24, 41, 18, 24, 29, 8, 18, 24, 31, 27, 42, 46, 35, 41, 38, 41, 13, 33, 40, 38, 41, 38, 28, 23, 30, 29, 5, 10, 40, 40, 6, 28, 23, 14, 57, 20, 36, 41, 41, 21, 23, 37, 21, 19, 34, 31, 37, 36, 4, 11, 17, 14, 52, 35, 46, 14, 7, 6, 30, 39, 14, 34, 33, 24, 35, 33, 25, 7, 33, 16, 52, 20, 45, 34
            |25, 3, 9, 23, 44, 23, 6, 10, 0, 13, 14, 33, 43, 16, 16, 32, 14, 25, 7, 42, 39, 39, 27, 2, 28, 30, 17, 17, 31, 8, 14, 19, 17, 12, 19, 23, 28, 32, 40, 25, 39, 29, 34, 18, 26, 37, 37, 40, 31, 18, 20, 22, 19, 6, 19, 39, 33, 14, 18, 15, 4, 48, 10, 29, 38, 40, 18, 15, 27, 13, 18, 31, 22, 30, 26, 14, 10, 15, 6, 44, 25, 39, 5, 6, 5, 30, 30, 9, 28, 26, 16, 34, 25, 18, 7, 30, 17, 43, 12, 36, 24
            |24, 10, 14, 33, 38, 27, 19, 23, 13, 0, 1, 30, 39, 8, 28, 35, 21, 14, 7, 35, 35, 36, 33, 13, 36, 17, 28, 18, 21, 5, 8, 11, 28, 18, 24, 22, 37, 20, 39, 17, 45, 23, 33, 31, 24, 42, 44, 47, 28, 5, 28, 22, 7, 18, 30, 46, 32, 25, 5, 17, 11, 43, 3, 28, 42, 47, 26, 16, 14, 15, 27, 35, 9, 29, 14, 27, 18, 23, 14, 38, 12, 37, 12, 17, 18, 39, 25, 18, 28, 26, 7, 40, 25, 20, 20, 36, 27, 37, 5, 29, 11
            |25, 12, 16, 34, 38, 29, 20, 24, 14, 1, 0, 31, 40, 7, 29, 37, 23, 14, 8, 35, 36, 37, 34, 14, 37, 16, 29, 19, 21, 6, 9, 11, 29, 20, 26, 23, 38, 19, 40, 17, 46, 23, 34, 32, 25, 43, 45, 48, 29, 5, 29, 23, 6, 19, 31, 47, 33, 25, 5, 19, 12, 43, 4, 29, 43, 48, 27, 17, 13, 16, 28, 37, 8, 30, 13, 28, 18, 25, 15, 38, 11, 38, 13, 18, 20, 40, 25, 19, 29, 27, 6, 41, 26, 21, 21, 37, 29, 38, 5, 30, 10
            |9, 31, 25, 30, 13, 17, 33, 41, 33, 30, 31, 0, 10, 38, 33, 16, 24, 22, 33, 13, 6, 6, 21, 35, 26, 33, 30, 17, 19, 32, 23, 20, 49, 23, 19, 10, 30, 29, 10, 16, 25, 10, 4, 39, 8, 23, 28, 29, 3, 28, 23, 11, 27, 39, 51, 29, 4, 46, 28, 18, 30, 16, 32, 5, 20, 30, 23, 19, 31, 21, 26, 18, 34, 5, 27, 45, 43, 26, 27, 13, 34, 7, 28, 40, 35, 30, 8, 27, 9, 9, 37, 25, 9, 16, 34, 21, 30, 12, 35, 11, 29
            |19, 40, 35, 39, 7, 26, 43, 51, 43, 39, 40, 10, 0, 47, 43, 22, 33, 28, 42, 9, 4, 4, 29, 45, 34, 38, 39, 27, 23, 41, 31, 28, 59, 33, 29, 20, 38, 33, 11, 23, 30, 16, 11, 49, 18, 28, 34, 34, 13, 36, 33, 21, 35, 48, 61, 34, 12, 56, 36, 28, 40, 6, 41, 15, 24, 35, 33, 28, 37, 31, 36, 25, 41, 14, 33, 54, 53, 36, 37, 6, 40, 8, 38, 49, 45, 38, 14, 37, 18, 19, 46, 31, 18, 25, 44, 28, 40, 6, 44, 12, 35
            |32, 15, 21, 38, 45, 35, 23, 24, 16, 8, 7, 38, 47, 0, 33, 43, 28, 20, 10, 42, 43, 44, 40, 15, 43, 18, 33, 26, 27, 9, 16, 18, 27, 25, 31, 30, 43, 23, 47, 24, 52, 30, 41, 35, 32, 50, 51, 54, 36, 11, 34, 30, 13, 19, 29, 53, 40, 24, 11, 25, 16, 50, 8, 36, 49, 54, 32, 24, 16, 22, 33, 43, 9, 37, 18, 28, 16, 29, 19, 45, 13, 45, 17, 18, 22, 45, 32, 24, 36, 34, 1, 47, 33, 28, 24, 43, 33, 44, 5, 36, 15
            |24, 18, 15, 8, 46, 17, 10, 14, 16, 28, 29, 33, 43, 33, 0, 24, 10, 35, 23, 45, 39, 38, 17, 18, 15, 44, 4, 18, 40, 24, 25, 28, 21, 12, 14, 24, 13, 44, 35, 33, 28, 34, 32, 6, 26, 26, 24, 27, 30, 31, 11, 22, 32, 16, 23, 26, 31, 20, 31, 17, 17, 49, 26, 28, 29, 27, 10, 18, 40, 17, 7, 22, 37, 28, 38, 15, 23, 7, 14, 46, 40, 36, 16, 18, 12, 16, 34, 10, 24, 24, 32, 22, 25, 19, 9, 20, 3, 45, 28, 41, 37
            |13, 31, 24, 18, 28, 9, 29, 36, 32, 35, 37, 16, 22, 43, 24, 0, 18, 33, 35, 28, 19, 18, 8, 34, 12, 44, 21, 17, 33, 34, 28, 28, 44, 20, 13, 15, 17, 41, 12, 28, 11, 23, 12, 30, 14, 8, 13, 14, 14, 35, 14, 14, 35, 36, 46, 13, 11, 42, 35, 18, 30, 28, 36, 12, 6, 15, 15, 19, 42, 21, 17, 3, 42, 11, 38, 39, 42, 19, 26, 27, 43, 14, 28, 38, 31, 16, 22, 23, 8, 11, 42, 9, 12, 16, 29, 6, 22, 27, 39, 27, 38
            |14, 14, 7, 12, 36, 9, 11, 18, 14, 21, 23, 24, 33, 28, 10, 18, 0, 26, 18, 35, 29, 29, 13, 16, 15, 35, 8, 8, 30, 18, 16, 19, 26, 3, 5, 14, 16, 35, 27, 23, 25, 24, 23, 16, 16, 23, 23, 26, 21, 24, 7, 13, 24, 17, 28, 25, 22, 24, 24, 7, 13, 39, 20, 18, 24, 27, 4, 8, 32, 8, 6, 17, 30, 19, 30, 21, 24, 3, 9, 36, 32, 28, 11, 19, 13, 18, 24, 5, 16, 15, 27, 20, 15, 9, 11, 16, 8, 35, 23, 30, 29
            |20, 22, 21, 37, 25, 27, 29, 35, 25, 14, 14, 22, 28, 20, 35, 33, 26, 0, 21, 22, 25, 26, 34, 26, 38, 12, 34, 19, 7, 18, 11, 7, 41, 24, 26, 18, 40, 9, 32, 5, 43, 12, 26, 40, 19, 40, 44, 46, 21, 9, 31, 19, 8, 31, 43, 45, 25, 38, 9, 19, 22, 31, 17, 22, 39, 47, 29, 18, 9, 18, 32, 34, 13, 23, 5, 39, 32, 29, 22, 26, 12, 29, 21, 30, 29, 42, 14, 25, 24, 22, 19, 40, 21, 20, 30, 35, 34, 25, 19, 16, 7
            |25, 5, 11, 29, 42, 26, 13, 16, 7, 7, 8, 33, 42, 10, 23, 35, 18, 21, 0, 40, 38, 39, 31, 6, 33, 24, 23, 18, 27, 2, 11, 16, 21, 16, 23, 24, 33, 27, 41, 22, 43, 27, 35, 25, 26, 41, 42, 45, 31, 12, 25, 23, 14, 11, 23, 44, 34, 18, 12, 17, 6, 47, 4, 30, 41, 45, 23, 16, 21, 14, 23, 35, 15, 31, 21, 20, 11, 20, 10, 42, 19, 40, 8, 10, 12, 36, 29, 14, 29, 27, 9, 38, 26, 20, 14, 34, 23, 42, 5, 34, 18
            |21, 39, 34, 43, 3, 29, 43, 51, 42, 35, 35, 13, 9, 42, 45, 28, 35, 22, 40, 0, 10, 11, 34, 43, 39, 31, 42, 27, 16, 38, 28, 24, 58, 34, 31, 21, 43, 25, 19, 18, 38, 13, 16, 51, 19, 35, 41, 41, 15, 31, 36, 22, 30, 48, 60, 41, 17, 55, 31, 29, 38, 9, 37, 18, 32, 42, 35, 28, 30, 30, 39, 31, 35, 18, 26, 55, 51, 38, 36, 4, 34, 16, 37, 48, 44, 43, 11, 37, 22, 21, 41, 37, 21, 26, 44, 34, 42, 3, 40, 6, 29
            |15, 36, 31, 35, 9, 22, 39, 47, 39, 35, 36, 6, 4, 43, 39, 19, 29, 25, 38, 10, 0, 1, 25, 40, 30, 36, 35, 23, 21, 37, 28, 25, 55, 29, 25, 16, 35, 31, 9, 20, 28, 13, 7, 44, 13, 25, 31, 32, 8, 32, 29, 17, 31, 44, 57, 32, 8, 52, 32, 24, 36, 10, 37, 11, 22, 33, 29, 24, 34, 26, 32, 22, 38, 10, 30, 50, 49, 32, 33, 8, 37, 6, 34, 45, 40, 34, 11, 33, 14, 14, 42, 28, 14, 21, 40, 25, 36, 8, 40, 11, 32
            |15, 37, 31, 35, 10, 21, 39, 47, 39, 36, 37, 6, 4, 44, 38, 18, 29, 26, 39, 11, 1, 0, 25, 41, 30, 37, 35, 23, 22, 37, 28, 25, 55, 29, 24, 16, 34, 32, 8, 21, 27, 14, 6, 44, 14, 24, 30, 31, 9, 33, 28, 17, 32, 44, 57, 30, 8, 52, 33, 24, 36, 11, 38, 11, 21, 32, 28, 24, 36, 27, 31, 21, 39, 10, 31, 50, 49, 31, 33, 9, 38, 4, 34, 45, 40, 33, 12, 33, 14, 14, 43, 27, 14, 21, 40, 24, 36, 9, 41, 12, 33
            |15, 27, 20, 11, 34, 6, 23, 30, 27, 33, 34, 21, 29, 40, 17, 8, 13, 34, 31, 34, 25, 25, 0, 29, 5, 45, 13, 16, 35, 31, 26, 28, 38, 16, 9, 17, 9, 42, 20, 29, 12, 26, 18, 22, 17, 10, 11, 13, 19, 34, 7, 15, 34, 30, 39, 13, 17, 36, 34, 16, 26, 35, 33, 16, 12, 14, 9, 17, 42, 18, 10, 5, 41, 16, 38, 32, 37, 13, 22, 33, 43, 22, 24, 32, 25, 9, 26, 18, 12, 13, 39, 7, 15, 14, 23, 3, 14, 33, 35, 31, 38
            |26, 4, 10, 25, 45, 25, 8, 10, 2, 13, 14, 35, 45, 15, 18, 34, 16, 26, 6, 43, 40, 41, 29, 0, 30, 30, 19, 18, 32, 8, 15, 20, 16, 14, 21, 25, 30, 32, 41, 26, 41, 30, 36, 19, 27, 39, 39, 42, 32, 18, 22, 24, 19, 5, 18, 41, 35, 13, 18, 17, 5, 50, 10, 31, 40, 42, 20, 17, 27, 14, 20, 33, 21, 32, 26, 14, 9, 16, 8, 45, 25, 41, 7, 5, 6, 32, 32, 11, 29, 28, 15, 36, 27, 20, 8, 32, 18, 45, 11, 38, 24
            |20, 28, 22, 8, 39, 11, 23, 29, 28, 36, 37, 26, 34, 43, 15, 12, 15, 38, 33, 39, 30, 30, 5, 30, 0, 48, 12, 19, 40, 33, 30, 31, 36, 17, 12, 21, 4, 47, 24, 34, 12, 31, 23, 20, 22, 11, 9, 12, 24, 37, 8, 19, 37, 30, 38, 11, 22, 35, 37, 19, 27, 40, 35, 21, 14, 12, 10, 21, 45, 21, 10, 9, 44, 21, 42, 31, 37, 14, 23, 38, 46, 26, 25, 32, 25, 4, 31, 19, 17, 18, 42, 6, 19, 18, 23, 6, 13, 38, 38, 36, 42
            |31, 27, 29, 47, 34, 38, 36, 40, 30, 17, 16, 33, 38, 18, 44, 44, 35, 12, 24, 31, 36, 37, 45, 30, 48, 0, 43, 29, 15, 22, 19, 17, 44, 33, 36, 29, 50, 6, 43, 17, 55, 23, 37, 48, 30, 52, 55, 57, 32, 12, 41, 30, 12, 35, 47, 57, 37, 41, 12, 29, 27, 40, 20, 34, 50, 58, 39, 28, 3, 28, 41, 45, 9, 34, 6, 44, 34, 38, 29, 35, 5, 40, 28, 34, 35, 52, 25, 33, 36, 34, 18, 51, 32, 30, 37, 47, 43, 34, 20, 26, 7
            |21, 18, 14, 5, 43, 14, 12, 17, 17, 28, 29, 30, 39, 33, 4, 21, 8, 34, 23, 42, 35, 35, 13, 19, 12, 43, 0, 16, 38, 24, 24, 27, 25, 10, 11, 22, 10, 43, 32, 31, 24, 31, 29, 9, 23, 23, 21, 24, 27, 31, 7, 20, 31, 18, 26, 23, 27, 23, 31, 15, 18, 46, 26, 25, 25, 24, 7, 16, 40, 16, 4, 18, 37, 25, 37, 19, 26, 5, 14, 43, 39, 33, 16, 21, 14, 13, 32, 10, 21, 21, 33, 18, 22, 16, 11, 16, 1, 42, 28, 38, 36
            |8, 15, 8, 19, 29, 9, 16, 24, 17, 18, 19, 17, 27, 26, 18, 17, 8, 19, 18, 27, 23, 23, 16, 18, 19, 29, 16, 0, 22, 17, 11, 12, 32, 7, 7, 7, 21, 28, 23, 15, 27, 16, 18, 24, 9, 24, 26, 29, 14, 19, 12, 6, 18, 22, 34, 28, 17, 29, 19, 1, 14, 33, 18, 13, 24, 29, 10, 2, 26, 4, 13, 17, 25, 13, 23, 28, 27, 11, 10, 29, 27, 22, 12, 23, 18, 23, 16, 10, 11, 9, 25, 22, 9, 2, 17, 18, 16, 28, 21, 22, 23
            |21, 28, 26, 41, 19, 29, 35, 41, 31, 21, 21, 19, 23, 27, 40, 33, 30, 7, 27, 16, 21, 22, 35, 32, 40, 15, 38, 22, 0, 25, 17, 13, 48, 28, 29, 19, 43, 9, 29, 7, 43, 10, 24, 45, 19, 41, 45, 47, 19, 16, 34, 21, 15, 37, 50, 46, 23, 45, 16, 23, 28, 25, 24, 21, 38, 47, 33, 22, 14, 23, 35, 35, 20, 22, 10, 46, 39, 33, 28, 20, 17, 26, 27, 37, 35, 44, 11, 30, 24, 22, 26, 41, 21, 23, 36, 37, 38, 19, 26, 11, 13
            |24, 6, 11, 29, 40, 26, 14, 18, 8, 5, 6, 32, 41, 9, 24, 34, 18, 18, 2, 38, 37, 37, 31, 8, 33, 22, 24, 17, 25, 0, 9, 13, 23, 16, 22, 22, 34, 25, 39, 20, 43, 25, 34, 26, 25, 41, 42, 44, 29, 10, 25, 22, 11, 13, 25, 43, 33, 20, 10, 16, 6, 45, 2, 28, 41, 45, 23, 15, 19, 13, 24, 34, 14, 29, 18, 22, 14, 20, 10, 40, 17, 38, 8, 12, 14, 36, 27, 14, 28, 26, 9, 38, 25, 19, 15, 34, 23, 40, 4, 32, 16
            |16, 11, 10, 28, 31, 20, 18, 24, 14, 8, 9, 23, 31, 16, 25, 28, 16, 11, 11, 28, 28, 28, 26, 15, 30, 19, 24, 11, 17, 9, 0, 4, 31, 13, 18, 14, 31, 19, 31, 11, 38, 16, 25, 29, 16, 35, 37, 40, 20, 8, 22, 14, 8, 20, 33, 39, 24, 28, 8, 11, 11, 36, 9, 20, 34, 40, 20, 9, 16, 9, 22, 28, 14, 21, 14, 28, 23, 19, 11, 31, 16, 29, 10, 20, 18, 33, 17, 14, 20, 18, 15, 33, 17, 13, 19, 29, 23, 30, 12, 23, 13
            |15, 16, 14, 30, 27, 21, 22, 29, 19, 11, 11, 20, 28, 18, 28, 28, 19, 7, 16, 24, 25, 25, 28, 20, 31, 17, 27, 12, 13, 13, 4, 0, 35, 16, 19, 13, 34, 16, 29, 6, 38, 12, 23, 33, 15, 35, 38, 40, 18, 8, 24, 14, 7, 25, 38, 40, 22, 32, 8, 13, 15, 32, 13, 18, 34, 41, 22, 11, 14, 11, 25, 29, 15, 19, 11, 33, 27, 22, 15, 27, 15, 27, 15, 25, 23, 35, 14, 18, 20, 17, 17, 34, 16, 13, 23, 30, 27, 26, 16, 19, 11
            |40, 20, 24, 29, 60, 36, 16, 8, 17, 28, 29, 49, 59, 27, 21, 44, 26, 41, 21, 58, 55, 55, 38, 16, 36, 44, 25, 32, 48, 23, 31, 35, 0, 26, 32, 39, 34, 48, 54, 42, 49, 46, 49, 18, 41, 47, 45, 48, 46, 33, 31, 38, 34, 11, 2, 47, 48, 3, 33, 30, 20, 64, 25, 44, 49, 48, 29, 30, 42, 28, 27, 42, 35, 45, 41, 6, 11, 25, 22, 60, 39, 54, 21, 11, 14, 37, 47, 22, 42, 41, 27, 43, 41, 33, 15, 41, 24, 59, 24, 53, 39
            |14, 11, 4, 14, 36, 11, 10, 18, 12, 18, 20, 23, 33, 25, 12, 20, 3, 24, 16, 34, 29, 29, 16, 14, 17, 33, 10, 7, 28, 16, 13, 16, 26, 0, 7, 14, 18, 32, 28, 21, 28, 22, 24, 17, 16, 25, 26, 29, 21, 21, 9, 12, 21, 16, 28, 28, 22, 23, 21, 5, 10, 39, 17, 18, 26, 29, 7, 6, 30, 5, 9, 19, 27, 19, 27, 21, 22, 5, 6, 35, 29, 28, 8, 18, 12, 21, 23, 4, 16, 15, 24, 22, 15, 8, 11, 18, 10, 35, 20, 29, 26
            |10, 18, 11, 12, 32, 4, 16, 24, 19, 24, 26, 19, 29, 31, 14, 13, 5, 26, 23, 31, 25, 24, 9, 21, 12, 36, 11, 7, 29, 22, 18, 19, 32, 7, 0, 11, 14, 35, 22, 22, 21, 21, 18, 20, 12, 18, 20, 22, 17, 25, 5, 9, 25, 23, 34, 21, 17, 30, 25, 7, 17, 35, 24, 14, 19, 23, 4, 8, 33, 9, 7, 12, 32, 14, 30, 27, 29, 7, 13, 32, 34, 23, 15, 25, 18, 16, 21, 10, 11, 10, 30, 16, 11, 6, 17, 12, 11, 31, 27, 27, 30
            |2, 21, 15, 23, 22, 10, 23, 31, 23, 22, 23, 10, 20, 30, 24, 15, 14, 18, 24, 21, 16, 16, 17, 25, 21, 29, 22, 7, 19, 22, 14, 13, 39, 14, 11, 0, 25, 26, 17, 13, 25, 10, 11, 30, 2, 23, 26, 28, 7, 21, 16, 2, 20, 29, 41, 28, 10, 36, 21, 8, 20, 25, 23, 6, 21, 29, 15, 9, 27, 11, 18, 16, 28, 7, 23, 35, 34, 17, 17, 22, 28, 16, 18, 30, 25, 25, 10, 17, 7, 4, 29, 22, 3, 6, 24, 18, 22, 21, 26, 16, 23
            |23, 28, 23, 5, 43, 14, 22, 27, 28, 37, 38, 30, 38, 43, 13, 17, 16, 40, 33, 43, 35, 34, 9, 30, 4, 50, 10, 21, 43, 34, 31, 34, 34, 18, 14, 25, 0, 49, 29, 36, 16, 35, 28, 16, 25, 15, 11, 14, 28, 39, 9, 23, 39, 29, 35, 13, 26, 33, 39, 21, 27, 45, 36, 25, 18, 14, 11, 22, 47, 23, 10, 13, 45, 25, 44, 28, 36, 14, 24, 43, 48, 31, 26, 31, 24, 3, 34, 19, 21, 22, 42, 10, 23, 21, 22, 10, 11, 42, 38, 40, 44
            |28, 29, 29, 46, 28, 36, 37, 42, 32, 20, 19, 29, 33, 23, 44, 41, 35, 9, 27, 25, 31, 32, 42, 32, 47, 6, 43, 28, 9, 25, 19, 16, 48, 32, 35, 26, 49, 0, 38, 13, 52, 19, 33, 48, 27, 49, 53, 55, 28, 14, 40, 28, 13, 37, 50, 54, 32, 44, 14, 28, 29, 34, 23, 30, 47, 55, 38, 27, 7, 27, 40, 43, 14, 31, 6, 46, 37, 38, 30, 29, 11, 35, 29, 37, 37, 51, 21, 34, 33, 30, 22, 48, 29, 29, 38, 44, 42, 28, 24, 20, 9
            |15, 38, 31, 30, 18, 18, 38, 46, 40, 39, 40, 10, 11, 47, 35, 12, 27, 32, 41, 19, 9, 8, 20, 41, 24, 43, 32, 23, 29, 39, 31, 29, 54, 28, 22, 17, 29, 38, 0, 26, 19, 20, 6, 41, 15, 17, 23, 23, 11, 37, 25, 17, 36, 44, 56, 23, 7, 51, 37, 24, 37, 17, 40, 11, 13, 24, 25, 25, 41, 27, 28, 15, 44, 10, 37, 49, 50, 29, 33, 17, 43, 4, 35, 46, 40, 28, 18, 32, 12, 14, 46, 20, 14, 21, 39, 18, 33, 17, 43, 20, 38
            |15, 22, 19, 34, 21, 23, 28, 35, 25, 17, 17, 16, 23, 24, 33, 28, 23, 5, 22, 18, 20, 21, 29, 26, 34, 17, 31, 15, 7, 20, 11, 6, 42, 21, 22, 13, 36, 13, 26, 0, 38, 7, 20, 38, 13, 35, 39, 41, 15, 13, 27, 14, 11, 31, 44, 40, 20, 39, 13, 16, 21, 27, 19, 17, 33, 42, 26, 15, 15, 16, 28, 29, 18, 17, 11, 39, 33, 26, 21, 22, 17, 24, 21, 31, 29, 38, 9, 23, 19, 17, 23, 35, 16, 16, 29, 31, 31, 21, 22, 13, 12
            |23, 39, 32, 20, 37, 17, 35, 41, 39, 45, 46, 25, 30, 52, 28, 11, 25, 43, 43, 38, 28, 27, 12, 41, 12, 55, 24, 27, 43, 43, 38, 38, 49, 28, 21, 25, 16, 52, 19, 38, 0, 34, 22, 32, 25, 3, 5, 4, 25, 45, 19, 24, 45, 42, 50, 4, 21, 47, 45, 27, 38, 36, 45, 22, 6, 5, 21, 29, 52, 30, 22, 9, 52, 22, 48, 43, 49, 25, 34, 36, 53, 22, 36, 44, 37, 13, 32, 30, 19, 21, 51, 6, 23, 25, 35, 9, 25, 36, 47, 37, 49
            |11, 26, 22, 33, 15, 20, 31, 38, 29, 23, 23, 10, 16, 30, 34, 23, 24, 12, 27, 13, 13, 14, 26, 30, 31, 23, 31, 16, 10, 25, 16, 12, 46, 22, 21, 10, 35, 19, 20, 7, 34, 0, 14, 39, 9, 31, 35, 37, 9, 19, 26, 12, 18, 35, 48, 36, 14, 43, 19, 17, 25, 20, 25, 11, 28, 38, 25, 16, 22, 18, 28, 25, 25, 12, 17, 42, 38, 26, 24, 15, 24, 17, 24, 35, 32, 35, 2, 25, 15, 13, 29, 31, 12, 15, 32, 27, 31, 14, 28, 7, 19
            |10, 32, 26, 28, 16, 15, 34, 41, 34, 33, 34, 4, 11, 41, 32, 12, 23, 26, 35, 16, 7, 6, 18, 36, 23, 37, 29, 18, 24, 34, 25, 23, 49, 24, 18, 11, 28, 33, 6, 20, 22, 14, 0, 38, 9, 19, 25, 25, 5, 31, 22, 12, 30, 39, 51, 25, 1, 47, 31, 19, 31, 17, 34, 5, 16, 26, 22, 20, 35, 22, 25, 15, 37, 4, 31, 45, 45, 25, 28, 15, 37, 4, 30, 41, 35, 27, 12, 27, 8, 9, 40, 21, 9, 16, 34, 18, 29, 15, 37, 15, 32
            |30, 21, 19, 12, 52, 23, 12, 13, 18, 31, 32, 39, 49, 35, 6, 30, 16, 40, 25, 51, 44, 44, 22, 19, 20, 48, 9, 24, 45, 26, 29, 33, 18, 17, 20, 30, 16, 48, 41, 38, 32, 39, 38, 0, 32, 31, 28, 31, 36, 35, 16, 28, 36, 16, 19, 30, 37, 18, 35, 23, 20, 55, 29, 34, 34, 31, 16, 23, 44, 22, 13, 27, 40, 34, 43, 12, 23, 13, 18, 51, 43, 42, 20, 18, 13, 19, 40, 15, 30, 30, 34, 26, 30, 24, 11, 25, 9, 51, 30, 46, 41
            |2, 23, 17, 24, 20, 11, 25, 33, 26, 24, 25, 8, 18, 32, 26, 14, 16, 19, 26, 19, 13, 14, 17, 27, 22, 30, 23, 9, 19, 25, 16, 15, 41, 16, 12, 2, 25, 27, 15, 13, 25, 9, 9, 32, 0, 22, 26, 28, 5, 23, 17, 4, 22, 31, 43, 27, 8, 38, 23, 11, 22, 23, 25, 4, 20, 29, 16, 11, 28, 13, 20, 16, 29, 5, 24, 37, 36, 19, 19, 20, 30, 14, 21, 32, 27, 26, 9, 19, 6, 4, 31, 22, 2, 8, 26, 18, 23, 19, 28, 15, 25
            |21, 36, 30, 19, 35, 15, 33, 40, 37, 42, 43, 23, 28, 50, 26, 8, 23, 40, 41, 35, 25, 24, 10, 39, 11, 52, 23, 24, 41, 41, 35, 35, 47, 25, 18, 23, 15, 49, 17, 35, 3, 31, 19, 31, 22, 0, 6, 6, 22, 43, 17, 21, 42, 40, 49, 6, 18, 46, 43, 25, 36, 34, 42, 19, 4, 7, 19, 26, 49, 28, 20, 7, 49, 19, 45, 41, 47, 23, 31, 33, 50, 20, 34, 42, 35, 13, 30, 28, 16, 18, 49, 5, 20, 22, 33, 7, 24, 34, 45, 34, 46
            |24, 37, 30, 16, 40, 17, 32, 38, 37, 44, 45, 28, 34, 51, 24, 13, 23, 44, 42, 41, 31, 30, 11, 39, 9, 55, 21, 26, 45, 42, 37, 38, 45, 26, 20, 26, 11, 53, 23, 39, 5, 35, 25, 28, 26, 6, 0, 3, 27, 45, 17, 25, 45, 39, 47, 2, 24, 44, 45, 27, 36, 40, 43, 24, 10, 3, 19, 28, 52, 29, 19, 10, 52, 24, 49, 39, 46, 23, 32, 39, 53, 26, 34, 41, 34, 9, 34, 28, 21, 22, 50, 4, 24, 25, 32, 8, 22, 39, 46, 39, 49
            |26, 40, 33, 19, 41, 19, 35, 41, 40, 47, 48, 29, 34, 54, 27, 14, 26, 46, 45, 41, 32, 31, 13, 42, 12, 57, 24, 29, 47, 44, 40, 40, 48, 29, 22, 28, 14, 55, 23, 41, 4, 37, 25, 31, 28, 6, 3, 0, 28, 47, 20, 27, 47, 42, 49, 1, 25, 47, 47, 29, 39, 40, 46, 26, 10, 1, 22, 31, 55, 32, 22, 12, 54, 25, 51, 42, 49, 25, 35, 40, 56, 26, 37, 44, 37, 11, 36, 31, 22, 24, 53, 7, 26, 27, 35, 11, 25, 40, 49, 40, 51
            |6, 28, 22, 28, 16, 14, 30, 38, 31, 28, 29, 3, 13, 36, 30, 14, 21, 21, 31, 15, 8, 9, 19, 32, 24, 32, 27, 14, 19, 29, 20, 18, 46, 21, 17, 7, 28, 28, 11, 15, 25, 9, 5, 36, 5, 22, 27, 28, 0, 26, 21, 8, 25, 36, 48, 28, 4, 43, 26, 16, 27, 19, 30, 3, 19, 29, 21, 16, 30, 18, 24, 17, 32, 3, 26, 42, 41, 23, 24, 15, 32, 9, 26, 37, 32, 28, 8, 24, 7, 6, 35, 23, 6, 13, 31, 19, 28, 15, 33, 12, 27
            |23, 15, 17, 35, 34, 28, 23, 28, 18, 5, 5, 28, 36, 11, 31, 35, 24, 9, 12, 31, 32, 33, 34, 18, 37, 12, 31, 19, 16, 10, 8, 8, 33, 21, 25, 21, 39, 14, 37, 13, 45, 19, 31, 35, 23, 43, 45, 47, 26, 0, 30, 22, 1, 23, 35, 47, 30, 30, 0, 18, 15, 39, 9, 26, 42, 48, 28, 17, 9, 16, 29, 36, 7, 27, 8, 32, 23, 26, 17, 34, 9, 35, 16, 23, 23, 41, 21, 21, 28, 25, 10, 41, 24, 20, 24, 37, 30, 33, 10, 25, 6
            |15, 20, 14, 7, 37, 7, 16, 23, 20, 28, 29, 23, 33, 34, 11, 14, 7, 31, 25, 36, 29, 28, 7, 22, 8, 41, 7, 12, 34, 25, 22, 24, 31, 9, 5, 16, 9, 40, 25, 27, 19, 26, 22, 16, 17, 17, 17, 20, 21, 30, 0, 14, 30, 23, 32, 19, 21, 29, 30, 12, 19, 39, 27, 18, 19, 20, 2, 13, 38, 13, 4, 12, 36, 18, 35, 25, 30, 6, 15, 36, 38, 26, 17, 25, 18, 11, 26, 11, 14, 15, 34, 13, 15, 11, 16, 10, 8, 36, 30, 32, 34
            |2, 20, 14, 21, 24, 9, 22, 30, 22, 22, 23, 11, 21, 30, 22, 14, 13, 19, 23, 22, 17, 17, 15, 24, 19, 30, 20, 6, 21, 22, 14, 14, 38, 12, 9, 2, 23, 28, 17, 14, 24, 12, 12, 28, 4, 21, 25, 27, 8, 22, 14, 0, 21, 27, 40, 26, 11, 35, 22, 7, 19, 27, 23, 7, 20, 28, 13, 8, 28, 10, 16, 15, 28, 8, 24, 33, 33, 15, 16, 23, 29, 17, 17, 29, 23, 23, 12, 16, 6, 4, 29, 21, 3, 4, 23, 16, 20, 23, 26, 18, 24
            |22, 16, 17, 36, 32, 28, 24, 29, 19, 7, 6, 27, 35, 13, 32, 35, 24, 8, 14, 30, 31, 32, 34, 19, 37, 12, 31, 18, 15, 11, 8, 7, 34, 21, 25, 20, 39, 13, 36, 11, 45, 18, 30, 36, 22, 42, 45, 47, 25, 1, 30, 21, 0, 24, 37, 46, 29, 31, 1, 18, 16, 38, 10, 26, 41, 48, 28, 17, 9, 16, 30, 36, 7, 27, 7, 33, 25, 26, 18, 33, 8, 34, 16, 24, 24, 41, 20, 22, 27, 25, 12, 41, 23, 20, 25, 36, 31, 32, 11, 24, 5
            |30, 9, 14, 24, 50, 27, 7, 5, 6, 18, 19, 39, 48, 19, 16, 36, 17, 31, 11, 48, 44, 44, 30, 5, 30, 35, 18, 22, 37, 13, 20, 25, 11, 16, 23, 29, 29, 37, 44, 31, 42, 35, 39, 16, 31, 40, 39, 42, 36, 23, 23, 27, 24, 0, 13, 41, 38, 8, 23, 20, 9, 54, 15, 34, 41, 42, 21, 20, 32, 18, 20, 34, 26, 35, 31, 9, 7, 17, 11, 49, 30, 44, 11, 2, 5, 32, 36, 13, 32, 31, 19, 36, 31, 23, 7, 33, 17, 49, 15, 42, 29
            |42, 22, 26, 30, 62, 38, 18, 10, 19, 30, 31, 51, 61, 29, 23, 46, 28, 43, 23, 60, 57, 57, 39, 18, 38, 47, 26, 34, 50, 25, 33, 38, 2, 28, 34, 41, 35, 50, 56, 44, 50, 48, 51, 19, 43, 49, 47, 49, 48, 35, 32, 40, 37, 13, 0, 49, 50, 5, 35, 33, 22, 66, 27, 46, 51, 49, 31, 33, 44, 30, 29, 44, 37, 47, 44, 7, 13, 27, 24, 62, 41, 56, 24, 13, 16, 38, 49, 24, 44, 43, 29, 44, 43, 35, 17, 42, 25, 62, 26, 55, 41
            |26, 39, 32, 18, 41, 19, 34, 40, 39, 46, 47, 29, 34, 53, 26, 13, 25, 45, 44, 41, 32, 30, 13, 41, 11, 57, 23, 28, 46, 43, 39, 40, 47, 28, 21, 28, 13, 54, 23, 40, 4, 36, 25, 30, 27, 6, 2, 1, 28, 47, 19, 26, 46, 41, 49, 0, 24, 46, 47, 28, 38, 40, 45, 25, 10, 1, 21, 30, 54, 31, 21, 11, 53, 25, 50, 41, 48, 25, 34, 39, 55, 26, 36, 43, 36, 10, 35, 30, 22, 24, 52, 6, 25, 26, 34, 10, 24, 40, 48, 40, 50
            |9, 31, 25, 27, 17, 14, 32, 40, 33, 32, 33, 4, 12, 40, 31, 11, 22, 25, 34, 17, 8, 8, 17, 35, 22, 37, 27, 17, 23, 33, 24, 22, 48, 22, 17, 10, 26, 32, 7, 20, 21, 14, 1, 37, 8, 18, 24, 25, 4, 30, 21, 11, 29, 38, 50, 24, 0, 45, 30, 18, 30, 18, 33, 4, 15, 26, 21, 18, 35, 21, 24, 14, 37, 3, 30, 43, 43, 24, 27, 16, 37, 6, 28, 39, 34, 26, 12, 26, 6, 7, 39, 20, 8, 15, 33, 17, 28, 16, 36, 16, 32
            |37, 17, 21, 28, 57, 34, 13, 6, 14, 25, 25, 46, 56, 24, 20, 42, 24, 38, 18, 55, 52, 52, 36, 13, 35, 41, 23, 29, 45, 20, 28, 32, 3, 23, 30, 36, 33, 44, 51, 39, 47, 43, 47, 18, 38, 46, 44, 47, 43, 30, 29, 35, 31, 8, 5, 46, 45, 0, 30, 28, 17, 62, 22, 42, 48, 47, 27, 28, 38, 25, 25, 41, 32, 42, 38, 6, 8, 23, 19, 57, 36, 51, 18, 8, 12, 36, 44, 20, 39, 38, 24, 41, 38, 31, 13, 39, 22, 57, 21, 50, 36
            |23, 15, 17, 35, 34, 28, 23, 28, 18, 5, 5, 28, 36, 11, 31, 35, 24, 9, 12, 31, 32, 33, 34, 18, 37, 12, 31, 19, 16, 10, 8, 8, 33, 21, 25, 21, 39, 14, 37, 13, 45, 19, 31, 35, 23, 43, 45, 47, 26, 0, 30, 22, 1, 23, 35, 47, 30, 30, 0, 18, 15, 39, 9, 26, 42, 48, 28, 17, 9, 16, 29, 36, 7, 27, 8, 32, 23, 26, 17, 34, 9, 35, 16, 23, 23, 41, 21, 21, 28, 25, 10, 41, 24, 20, 24, 37, 30, 33, 10, 25, 6
            |9, 13, 7, 18, 30, 10, 15, 23, 15, 17, 19, 18, 28, 25, 17, 18, 7, 19, 17, 29, 24, 24, 16, 17, 19, 29, 15, 1, 23, 16, 11, 13, 30, 5, 7, 8, 21, 28, 24, 16, 27, 17, 19, 23, 11, 25, 27, 29, 16, 18, 12, 7, 18, 20, 33, 28, 18, 28, 18, 0, 12, 34, 17, 14, 25, 30, 10, 1, 26, 3, 12, 18, 25, 15, 23, 26, 26, 10, 9, 30, 27, 24, 10, 21, 16, 23, 17, 9, 12, 11, 24, 22, 10, 3, 16, 18, 15, 29, 20, 24, 23
            |22, 1, 6, 23, 40, 21, 8, 14, 4, 11, 12, 30, 40, 16, 17, 30, 13, 22, 6, 38, 36, 36, 26, 5, 27, 27, 18, 14, 28, 6, 11, 15, 20, 10, 17, 20, 27, 29, 37, 21, 38, 25, 31, 20, 22, 36, 36, 39, 27, 15, 19, 19, 16, 9, 22, 38, 30, 17, 15, 12, 0, 45, 9, 26, 36, 39, 17, 12, 24, 9, 17, 29, 20, 27, 23, 18, 13, 14, 4, 40, 23, 36, 2, 10, 8, 30, 27, 8, 25, 23, 15, 32, 22, 16, 9, 29, 17, 40, 11, 33, 21
            |25, 46, 40, 45, 6, 32, 49, 57, 48, 43, 43, 16, 6, 50, 49, 28, 39, 31, 47, 9, 10, 11, 35, 50, 40, 40, 46, 33, 25, 45, 36, 32, 64, 39, 35, 25, 45, 34, 17, 27, 36, 20, 17, 55, 23, 34, 40, 40, 19, 39, 39, 27, 38, 54, 66, 40, 18, 62, 39, 34, 45, 0, 45, 21, 30, 41, 39, 34, 39, 36, 42, 32, 44, 21, 35, 60, 58, 42, 42, 5, 42, 14, 43, 55, 50, 44, 18, 43, 25, 25, 49, 37, 24, 31, 50, 35, 46, 6, 48, 14, 38
            |25, 8, 13, 31, 40, 27, 17, 20, 10, 3, 4, 32, 41, 8, 26, 36, 20, 17, 4, 37, 37, 38, 33, 10, 35, 20, 26, 18, 24, 2, 9, 13, 25, 17, 24, 23, 36, 23, 40, 19, 45, 25, 34, 29, 25, 42, 43, 46, 30, 9, 27, 23, 10, 15, 27, 45, 33, 22, 9, 17, 9, 45, 0, 29, 42, 47, 25, 16, 17, 15, 26, 35, 11, 30, 17, 24, 15, 22, 12, 40, 15, 39, 10, 14, 16, 38, 27, 16, 29, 27, 7, 39, 26, 20, 17, 35, 25, 39, 3, 32, 14
            |4, 27, 21, 25, 19, 11, 28, 36, 29, 28, 29, 5, 15, 36, 28, 12, 18, 22, 30, 18, 11, 11, 16, 31, 21, 34, 25, 13, 21, 28, 20, 18, 44, 18, 14, 6, 25, 30, 11, 17, 22, 11, 5, 34, 4, 19, 24, 26, 3, 26, 18, 7, 26, 34, 46, 25, 4, 42, 26, 14, 26, 21, 29, 0, 17, 26, 18, 14, 31, 17, 21, 14, 33, 1, 27, 40, 39, 21, 23, 18, 33, 10, 24, 35, 30, 25, 10, 22, 4, 4, 35, 20, 4, 11, 29, 16, 25, 18, 32, 15, 28
            |19, 37, 30, 22, 31, 15, 35, 41, 38, 42, 43, 20, 24, 49, 29, 6, 24, 39, 41, 32, 22, 21, 12, 40, 14, 50, 25, 24, 38, 41, 34, 34, 49, 26, 19, 21, 18, 47, 13, 33, 6, 28, 16, 34, 20, 4, 10, 10, 19, 42, 19, 20, 41, 41, 51, 10, 15, 48, 42, 25, 36, 30, 42, 17, 0, 11, 20, 26, 48, 27, 22, 7, 48, 16, 44, 44, 48, 25, 32, 30, 49, 16, 34, 43, 36, 16, 27, 29, 14, 17, 49, 9, 18, 22, 35, 9, 26, 30, 45, 31, 44
            |27, 40, 34, 19, 42, 20, 35, 41, 40, 47, 48, 30, 35, 54, 27, 15, 27, 47, 45, 42, 33, 32, 14, 42, 12, 58, 24, 29, 47, 45, 40, 41, 48, 29, 23, 29, 14, 55, 24, 42, 5, 38, 26, 31, 29, 7, 3, 1, 29, 48, 20, 28, 48, 42, 49, 1, 26, 47, 48, 30, 39, 41, 47, 26, 11, 0, 22, 31, 55, 32, 22, 13, 55, 26, 52, 42, 49, 26, 35, 41, 56, 27, 37, 44, 37, 11, 37, 31, 23, 25, 53, 7, 26, 28, 35, 11, 25, 41, 49, 41, 52
            |15, 18, 12, 8, 36, 7, 14, 21, 18, 26, 27, 23, 33, 32, 10, 15, 4, 29, 23, 35, 29, 28, 9, 20, 10, 39, 7, 10, 33, 23, 20, 22, 29, 7, 4, 15, 11, 38, 25, 26, 21, 25, 22, 16, 16, 19, 19, 22, 21, 28, 2, 13, 28, 21, 31, 21, 21, 27, 28, 10, 17, 39, 25, 18, 20, 22, 0, 11, 36, 11, 3, 13, 34, 18, 33, 24, 28, 4, 13, 36, 36, 26, 15, 23, 16, 13, 25, 9, 14, 14, 31, 15, 15, 10, 14, 12, 7, 35, 27, 31, 32
            |10, 13, 6, 19, 30, 11, 15, 23, 15, 16, 17, 19, 28, 24, 18, 19, 8, 18, 16, 28, 24, 24, 17, 17, 21, 28, 16, 2, 22, 15, 9, 11, 30, 6, 8, 9, 22, 27, 25, 15, 29, 16, 20, 23, 11, 26, 28, 31, 16, 17, 13, 8, 17, 20, 33, 30, 18, 28, 17, 1, 12, 34, 16, 14, 26, 31, 11, 0, 25, 2, 14, 19, 24, 15, 22, 26, 25, 11, 9, 30, 25, 24, 10, 21, 16, 24, 17, 9, 13, 11, 23, 24, 11, 4, 16, 20, 16, 29, 19, 23, 21
            |29, 24, 26, 44, 33, 35, 33, 37, 27, 14, 13, 31, 37, 16, 40, 42, 32, 9, 21, 30, 34, 36, 42, 27, 45, 3, 40, 26, 14, 19, 16, 14, 42, 30, 33, 27, 47, 7, 41, 15, 52, 22, 35, 44, 28, 49, 52, 55, 30, 9, 38, 28, 9, 32, 44, 54, 35, 38, 9, 26, 24, 39, 17, 31, 48, 55, 36, 25, 0, 25, 38, 43, 7, 32, 4, 41, 31, 35, 26, 34, 4, 38, 25, 31, 32, 49, 24, 30, 33, 31, 16, 48, 30, 28, 34, 44, 39, 33, 17, 25, 4
            |12, 10, 4, 19, 32, 13, 13, 21, 13, 15, 16, 21, 31, 22, 17, 21, 8, 18, 14, 30, 26, 27, 18, 14, 21, 28, 16, 4, 23, 13, 9, 11, 28, 5, 9, 11, 23, 27, 27, 16, 30, 18, 22, 22, 13, 28, 29, 32, 18, 16, 13, 10, 16, 18, 30, 31, 21, 25, 16, 3, 9, 36, 15, 17, 27, 32, 11, 2, 25, 0, 13, 21, 23, 17, 22, 24, 23, 10, 6, 32, 25, 26, 8, 19, 14, 25, 19, 7, 15, 14, 21, 25, 13, 6, 14, 21, 15, 31, 17, 25, 21
            |18, 18, 13, 6, 40, 10, 13, 19, 18, 27, 28, 26, 36, 33, 7, 17, 6, 32, 23, 39, 32, 31, 10, 20, 10, 41, 4, 13, 35, 24, 22, 25, 27, 9, 7, 18, 10, 40, 28, 28, 22, 28, 25, 13, 20, 20, 19, 22, 24, 29, 4, 16, 30, 20, 29, 21, 24, 25, 29, 12, 17, 42, 26, 21, 22, 22, 3, 14, 38, 13, 0, 15, 35, 21, 35, 22, 27, 4, 14, 39, 38, 29, 16, 22, 15, 13, 28, 9, 17, 17, 32, 16, 18, 13, 13, 13, 4, 39, 28, 35, 34
            |14, 30, 23, 16, 31, 8, 27, 34, 31, 35, 37, 18, 25, 43, 22, 3, 17, 34, 35, 31, 22, 21, 5, 33, 9, 45, 18, 17, 35, 34, 28, 29, 42, 19, 12, 16, 13, 43, 15, 29, 9, 25, 15, 27, 16, 7, 10, 12, 17, 36, 12, 15, 36, 34, 44, 11, 14, 41, 36, 18, 29, 32, 35, 14, 7, 13, 13, 19, 43, 21, 15, 0, 43, 14, 39, 37, 41, 17, 25, 30, 44, 17, 27, 36, 29, 12, 24, 22, 10, 12, 42, 6, 14, 16, 28, 3, 19, 30, 38, 29, 39
            |30, 19, 23, 41, 38, 35, 28, 31, 22, 9, 8, 34, 41, 9, 37, 42, 30, 13, 15, 35, 38, 39, 41, 21, 44, 9, 37, 25, 20, 14, 14, 15, 35, 27, 32, 28, 45, 14, 44, 18, 52, 25, 37, 40, 29, 49, 52, 54, 32, 7, 36, 28, 7, 26, 37, 53, 37, 32, 7, 25, 20, 44, 11, 33, 48, 55, 34, 24, 7, 23, 35, 43, 0, 34, 9, 35, 24, 32, 22, 39, 4, 41, 21, 25, 27, 47, 27, 27, 34, 32, 9, 47, 31, 27, 29, 43, 36, 38, 11, 30, 7
            |5, 28, 21, 25, 18, 12, 29, 37, 30, 29, 30, 5, 14, 37, 28, 11, 19, 23, 31, 18, 10, 10, 16, 32, 21, 34, 25, 13, 22, 29, 21, 19, 45, 19, 14, 7, 25, 31, 10, 17, 22, 12, 4, 34, 5, 19, 24, 25, 3, 27, 18, 8, 27, 35, 47, 25, 3, 42, 27, 15, 27, 21, 30, 1, 16, 26, 18, 15, 32, 17, 21, 14, 34, 0, 28, 40, 40, 21, 24, 18, 34, 9, 25, 36, 31, 25, 11, 23, 4, 4, 36, 20, 4, 12, 30, 16, 26, 17, 33, 16, 29
            |25, 23, 24, 41, 29, 32, 31, 36, 26, 14, 13, 27, 33, 18, 38, 38, 30, 5, 21, 26, 30, 31, 38, 26, 42, 6, 37, 23, 10, 18, 14, 11, 41, 27, 30, 23, 44, 6, 37, 11, 48, 17, 31, 43, 24, 45, 49, 51, 26, 8, 35, 24, 7, 31, 44, 50, 30, 38, 8, 23, 23, 35, 17, 27, 44, 52, 33, 22, 4, 22, 35, 39, 9, 28, 0, 40, 31, 32, 24, 30, 7, 34, 23, 31, 31, 46, 19, 28, 29, 27, 17, 45, 26, 24, 32, 40, 37, 29, 18, 21, 3
            |35, 17, 20, 23, 56, 31, 11, 4, 14, 27, 28, 45, 54, 28, 15, 39, 21, 39, 20, 55, 50, 50, 32, 14, 31, 44, 19, 28, 46, 22, 28, 33, 6, 21, 27, 35, 28, 46, 49, 39, 43, 42, 45, 12, 37, 41, 39, 42, 42, 32, 25, 33, 33, 9, 7, 41, 43, 6, 32, 26, 18, 60, 24, 40, 44, 42, 24, 26, 41, 24, 22, 37, 35, 40, 40, 0, 13, 20, 18, 56, 39, 49, 18, 10, 10, 31, 43, 18, 37, 36, 28, 37, 36, 29, 11, 35, 18, 56, 24, 49, 38
            |35, 13, 19, 31, 53, 33, 14, 11, 10, 18, 18, 43, 53, 16, 23, 42, 24, 32, 11, 51, 49, 49, 37, 9, 37, 34, 26, 27, 39, 14, 23, 27, 11, 22, 29, 34, 36, 37, 50, 33, 49, 38, 45, 23, 36, 47, 46, 49, 41, 23, 30, 33, 25, 7, 13, 48, 43, 8, 23, 26, 13, 58, 15, 39, 48, 49, 28, 25, 31, 23, 27, 41, 24, 40, 31, 13, 0, 24, 17, 53, 28, 49, 15, 5, 12, 39, 40, 19, 38, 36, 16, 43, 36, 29, 14, 40, 25, 53, 14, 45, 29
            |17, 15, 9, 9, 39, 11, 10, 17, 15, 23, 25, 26, 36, 29, 7, 19, 3, 29, 20, 38, 32, 31, 13, 16, 14, 38, 5, 11, 33, 20, 19, 22, 25, 5, 7, 17, 14, 38, 29, 26, 25, 26, 25, 13, 19, 23, 23, 25, 23, 26, 6, 15, 26, 17, 27, 25, 24, 23, 26, 10, 14, 42, 22, 21, 25, 26, 4, 11, 35, 10, 4, 17, 32, 21, 32, 20, 24, 0, 10, 38, 35, 30, 12, 19, 12, 16, 27, 6, 18, 17, 29, 19, 17, 11, 10, 16, 5, 38, 24, 33, 31
            |18, 5, 2, 19, 38, 17, 7, 14, 6, 14, 15, 27, 37, 19, 14, 26, 9, 22, 10, 36, 33, 33, 22, 8, 23, 29, 14, 10, 28, 10, 11, 15, 22, 6, 13, 17, 24, 30, 33, 21, 34, 24, 28, 18, 19, 31, 32, 35, 24, 17, 15, 16, 18, 11, 24, 34, 27, 19, 17, 9, 4, 42, 12, 23, 32, 35, 13, 9, 26, 6, 14, 25, 22, 24, 24, 18, 17, 10, 0, 38, 25, 33, 2, 13, 8, 26, 25, 4, 21, 20, 19, 28, 19, 12, 8, 25, 14, 38, 14, 31, 23
            |21, 41, 36, 43, 1, 29, 45, 52, 44, 38, 38, 13, 6, 45, 46, 27, 36, 26, 42, 4, 8, 9, 33, 45, 38, 35, 43, 29, 20, 40, 31, 27, 60, 35, 32, 22, 43, 29, 17, 22, 36, 15, 15, 51, 20, 33, 39, 40, 15, 34, 36, 23, 33, 49, 62, 39, 16, 57, 34, 30, 40, 5, 40, 18, 30, 41, 36, 30, 34, 32, 39, 30, 39, 18, 30, 56, 53, 38, 38, 0, 37, 13, 39, 50, 46, 42, 14, 39, 22, 22, 44, 36, 21, 27, 46, 33, 43, 1, 43, 9, 33
            |30, 23, 26, 44, 36, 36, 31, 35, 25, 12, 11, 34, 40, 13, 40, 43, 32, 12, 19, 34, 37, 38, 43, 25, 46, 5, 39, 27, 17, 17, 16, 15, 39, 29, 34, 28, 48, 11, 43, 17, 53, 24, 37, 43, 30, 50, 53, 56, 32, 9, 38, 29, 8, 30, 41, 55, 37, 36, 9, 27, 23, 42, 15, 33, 49, 56, 36, 25, 4, 25, 38, 44, 4, 34, 7, 39, 28, 35, 25, 37, 0, 41, 24, 29, 31, 50, 26, 30, 35, 33, 13, 49, 31, 28, 32, 45, 39, 36, 15, 28, 5
            |14, 37, 30, 32, 15, 19, 38, 46, 39, 37, 38, 7, 8, 45, 36, 14, 28, 29, 40, 16, 6, 4, 22, 41, 26, 40, 33, 22, 26, 38, 29, 27, 54, 28, 23, 16, 31, 35, 4, 24, 22, 17, 4, 42, 14, 20, 26, 26, 9, 35, 26, 17, 34, 44, 56, 26, 6, 51, 35, 24, 36, 14, 39, 10, 16, 27, 26, 24, 38, 26, 29, 17, 41, 9, 34, 49, 49, 30, 33, 13, 41, 0, 34, 45, 40, 30, 15, 32, 12, 13, 44, 23, 13, 21, 39, 21, 33, 14, 42, 16, 36
            |20, 3, 4, 21, 39, 19, 8, 14, 5, 12, 13, 28, 38, 17, 16, 28, 11, 21, 8, 37, 34, 34, 24, 7, 25, 28, 16, 12, 27, 8, 10, 15, 21, 8, 15, 18, 26, 29, 35, 21, 36, 24, 30, 20, 21, 34, 34, 37, 26, 16, 17, 17, 16, 11, 24, 36, 28, 18, 16, 10, 2, 43, 10, 24, 34, 37, 15, 10, 25, 8, 16, 27, 21, 25, 23, 18, 15, 12, 2, 39, 24, 34, 0, 11, 8, 28, 25, 6, 23, 21, 16, 30, 21, 14, 9, 27, 16, 38, 12, 31, 21
            |31, 9, 15, 26, 50, 29, 9, 7, 6, 17, 18, 40, 49, 18, 18, 38, 19, 30, 10, 48, 45, 45, 32, 5, 32, 34, 21, 23, 37, 12, 20, 25, 11, 18, 25, 30, 31, 37, 46, 31, 44, 35, 41, 18, 32, 42, 41, 44, 37, 23, 25, 29, 24, 2, 13, 43, 39, 8, 23, 21, 10, 55, 14, 35, 43, 44, 23, 21, 31, 19, 22, 36, 25, 36, 31, 10, 5, 19, 13, 50, 29, 45, 11, 0, 7, 34, 37, 14, 34, 32, 17, 38, 32, 25, 9, 35, 20, 50, 14, 43, 28
            |26, 8, 10, 19, 46, 22, 2, 6, 5, 18, 20, 35, 45, 22, 12, 31, 13, 29, 12, 44, 40, 40, 25, 6, 25, 35, 14, 18, 35, 14, 18, 23, 14, 12, 18, 25, 24, 37, 40, 29, 37, 32, 35, 13, 27, 35, 34, 37, 32, 23, 18, 23, 24, 5, 16, 36, 34, 12, 23, 16, 8, 50, 16, 30, 36, 37, 16, 16, 32, 14, 15, 29, 27, 31, 31, 10, 12, 12, 8, 46, 31, 40, 8, 7, 0, 27, 33, 8, 28, 27, 21, 31, 26, 19, 2, 28, 13, 45, 17, 39, 29
            |24, 31, 25, 8, 43, 15, 25, 30, 30, 39, 40, 30, 38, 45, 16, 16, 18, 42, 36, 43, 34, 33, 9, 32, 4, 52, 13, 23, 44, 36, 33, 35, 37, 21, 16, 25, 3, 51, 28, 38, 13, 35, 27, 19, 26, 13, 9, 11, 28, 41, 11, 23, 41, 32, 38, 10, 26, 36, 41, 23, 30, 44, 38, 25, 16, 11, 13, 24, 49, 25, 13, 12, 47, 25, 46, 31, 39, 16, 26, 42, 50, 30, 28, 34, 27, 0, 35, 22, 21, 22, 45, 8, 24, 22, 25, 9, 14, 42, 40, 40, 46
            |11, 28, 23, 33, 13, 20, 32, 39, 30, 25, 25, 8, 14, 32, 34, 22, 24, 14, 29, 11, 11, 12, 26, 32, 31, 25, 32, 16, 11, 27, 17, 14, 47, 23, 21, 10, 34, 21, 18, 9, 32, 2, 12, 40, 9, 30, 34, 36, 8, 21, 26, 12, 20, 36, 49, 35, 12, 44, 21, 17, 27, 18, 27, 10, 27, 37, 25, 17, 24, 19, 28, 24, 27, 11, 19, 43, 40, 27, 25, 14, 26, 15, 25, 37, 33, 35, 0, 26, 14, 12, 31, 30, 11, 16, 33, 27, 32, 13, 30, 6, 21
            |18, 9, 4, 15, 39, 14, 6, 14, 9, 18, 19, 27, 37, 24, 10, 23, 5, 25, 14, 37, 33, 33, 18, 11, 19, 33, 10, 10, 30, 14, 14, 18, 22, 4, 10, 17, 19, 34, 32, 23, 30, 25, 27, 15, 19, 28, 28, 31, 24, 21, 11, 16, 22, 13, 24, 30, 26, 20, 21, 9, 8, 43, 16, 22, 29, 31, 9, 9, 30, 7, 9, 22, 27, 23, 28, 18, 19, 6, 4, 39, 30, 32, 6, 14, 8, 22, 26, 0, 20, 19, 23, 25, 18, 11, 7, 21, 9, 38, 19, 32, 27
            |4, 26, 19, 21, 23, 8, 26, 34, 28, 28, 29, 9, 18, 36, 24, 8, 16, 24, 29, 22, 14, 14, 12, 29, 17, 36, 21, 11, 24, 28, 20, 20, 42, 16, 11, 7, 21, 33, 12, 19, 19, 15, 8, 30, 6, 16, 21, 22, 7, 28, 14, 6, 27, 32, 44, 22, 6, 39, 28, 12, 25, 25, 29, 4, 14, 23, 14, 13, 33, 15, 17, 10, 34, 4, 29, 37, 38, 18, 21, 22, 35, 12, 23, 34, 28, 21, 14, 20, 0, 2, 35, 17, 4, 9, 27, 13, 22, 22, 32, 19, 30
            |2, 24, 17, 21, 22, 8, 25, 33, 26, 26, 27, 9, 19, 34, 24, 11, 15, 22, 27, 21, 14, 14, 13, 28, 18, 34, 21, 9, 22, 26, 18, 17, 41, 15, 10, 4, 22, 30, 14, 17, 21, 13, 9, 30, 4, 18, 22, 24, 6, 25, 15, 4, 25, 31, 43, 24, 7, 38, 25, 11, 23, 25, 27, 4, 17, 25, 14, 11, 31, 14, 17, 12, 32, 4, 27, 36, 36, 17, 20, 22, 33, 13, 21, 32, 27, 22, 12, 19, 2, 0, 33, 18, 1, 8, 26, 14, 21, 21, 30, 18, 28
            |31, 14, 20, 38, 44, 34, 22, 24, 16, 7, 6, 37, 46, 1, 32, 42, 27, 19, 9, 41, 42, 43, 39, 15, 42, 18, 33, 25, 26, 9, 15, 17, 27, 24, 30, 29, 42, 22, 46, 23, 51, 29, 40, 34, 31, 49, 50, 53, 35, 10, 34, 29, 12, 19, 29, 52, 39, 24, 10, 24, 15, 49, 7, 35, 49, 53, 31, 23, 16, 21, 32, 42, 9, 36, 17, 28, 16, 29, 19, 44, 13, 44, 16, 17, 21, 45, 31, 23, 35, 33, 0, 46, 32, 27, 23, 42, 32, 43, 4, 35, 14
            |20, 33, 27, 14, 37, 13, 29, 35, 34, 40, 41, 25, 31, 47, 22, 9, 20, 40, 38, 37, 28, 27, 7, 36, 6, 51, 18, 22, 41, 38, 33, 34, 43, 22, 16, 22, 10, 48, 20, 35, 6, 31, 21, 26, 22, 5, 4, 7, 23, 41, 13, 21, 41, 36, 44, 6, 20, 41, 41, 22, 32, 37, 39, 20, 9, 7, 15, 24, 48, 25, 16, 6, 47, 20, 45, 37, 43, 19, 28, 36, 49, 23, 30, 38, 31, 8, 30, 25, 17, 18, 46, 0, 20, 21, 29, 4, 19, 36, 42, 35, 45
            |1, 23, 17, 22, 22, 9, 25, 33, 25, 25, 26, 9, 18, 33, 25, 12, 15, 21, 26, 21, 14, 14, 15, 27, 19, 32, 22, 9, 21, 25, 17, 16, 41, 15, 11, 3, 23, 29, 14, 16, 23, 12, 9, 30, 2, 20, 24, 26, 6, 24, 15, 3, 23, 31, 43, 25, 8, 38, 24, 10, 22, 24, 26, 4, 18, 26, 15, 11, 30, 13, 18, 14, 31, 4, 26, 36, 36, 17, 19, 21, 31, 13, 21, 32, 26, 24, 11, 18, 4, 1, 32, 20, 0, 7, 25, 16, 22, 21, 29, 17, 26
            |6, 16, 10, 18, 28, 8, 18, 25, 18, 20, 21, 16, 25, 28, 19, 16, 9, 20, 20, 26, 21, 21, 14, 20, 18, 30, 16, 2, 23, 19, 13, 13, 33, 8, 6, 6, 21, 29, 21, 16, 25, 15, 16, 24, 8, 22, 25, 27, 13, 20, 11, 4, 20, 23, 35, 26, 15, 31, 20, 3, 16, 31, 20, 11, 22, 28, 10, 4, 28, 6, 13, 16, 27, 12, 24, 29, 29, 11, 12, 27, 28, 21, 14, 25, 19, 22, 16, 11, 9, 8, 27, 21, 7, 0, 18, 16, 16, 27, 23, 22, 24
            |25, 9, 10, 17, 46, 21, 1, 7, 7, 20, 21, 34, 44, 24, 9, 29, 11, 30, 14, 44, 40, 40, 23, 8, 23, 37, 11, 17, 36, 15, 19, 23, 15, 11, 17, 24, 22, 38, 39, 29, 35, 32, 34, 11, 26, 33, 32, 35, 31, 24, 16, 23, 25, 7, 17, 34, 33, 13, 24, 16, 9, 50, 17, 29, 35, 35, 14, 16, 34, 14, 13, 28, 29, 30, 32, 11, 14, 10, 8, 46, 32, 39, 9, 9, 2, 25, 33, 7, 27, 26, 23, 29, 25, 18, 0, 26, 10, 45, 19, 39, 30
            |16, 30, 23, 13, 34, 9, 26, 33, 30, 36, 37, 21, 28, 43, 20, 6, 16, 35, 34, 34, 25, 24, 3, 32, 6, 47, 16, 18, 37, 34, 29, 30, 41, 18, 12, 18, 10, 44, 18, 31, 9, 27, 18, 25, 18, 7, 8, 11, 19, 37, 10, 16, 36, 33, 42, 10, 17, 39, 37, 18, 29, 35, 35, 16, 9, 11, 12, 20, 44, 21, 13, 3, 43, 16, 40, 35, 40, 16, 25, 33, 45, 21, 27, 35, 28, 9, 27, 21, 13, 14, 42, 4, 16, 16, 26, 0, 17, 33, 38, 32, 40
            |22, 18, 13, 6, 43, 14, 11, 16, 17, 27, 29, 30, 40, 33, 3, 22, 8, 34, 23, 42, 36, 36, 14, 18, 13, 43, 1, 16, 38, 23, 23, 27, 24, 10, 11, 22, 11, 42, 33, 31, 25, 31, 29, 9, 23, 24, 22, 25, 28, 30, 8, 20, 31, 17, 25, 24, 28, 22, 30, 15, 17, 46, 25, 25, 26, 25, 7, 16, 39, 15, 4, 19, 36, 26, 37, 18, 25, 5, 14, 43, 39, 33, 16, 20, 13, 14, 32, 9, 22, 21, 32, 19, 22, 16, 10, 17, 0, 43, 28, 38, 36
            |21, 40, 35, 42, 1, 29, 44, 52, 43, 37, 38, 12, 6, 44, 45, 27, 35, 25, 42, 3, 8, 9, 33, 45, 38, 34, 42, 28, 19, 40, 30, 26, 59, 35, 31, 21, 42, 28, 17, 21, 36, 14, 15, 51, 19, 34, 39, 40, 15, 33, 36, 23, 32, 49, 62, 40, 16, 57, 33, 29, 40, 6, 39, 18, 30, 41, 35, 29, 33, 31, 39, 30, 38, 17, 29, 56, 53, 38, 38, 1, 36, 14, 38, 50, 45, 42, 13, 38, 22, 21, 43, 36, 21, 27, 45, 33, 43, 0, 42, 8, 32
            |28, 10, 16, 33, 43, 30, 18, 20, 12, 5, 5, 35, 44, 5, 28, 39, 23, 19, 5, 40, 40, 41, 35, 11, 38, 20, 28, 21, 26, 4, 12, 16, 24, 20, 27, 26, 38, 24, 43, 22, 47, 28, 37, 30, 28, 45, 46, 49, 33, 10, 30, 26, 11, 15, 26, 48, 36, 21, 10, 20, 11, 48, 3, 32, 45, 49, 27, 19, 17, 17, 28, 38, 11, 33, 18, 24, 14, 24, 14, 43, 15, 42, 12, 14, 17, 40, 30, 19, 32, 30, 4, 42, 29, 23, 19, 38, 28, 42, 0, 34, 15
            |17, 33, 29, 39, 9, 26, 38, 45, 36, 29, 30, 11, 12, 36, 41, 27, 30, 16, 34, 6, 11, 12, 31, 38, 36, 26, 38, 22, 11, 32, 23, 19, 53, 29, 27, 16, 40, 20, 20, 13, 37, 7, 15, 46, 15, 34, 39, 40, 12, 25, 32, 18, 24, 42, 55, 40, 16, 50, 25, 24, 33, 14, 32, 15, 31, 41, 31, 23, 25, 25, 35, 29, 30, 16, 21, 49, 45, 33, 31, 9, 28, 16, 31, 43, 39, 40, 6, 32, 19, 18, 35, 35, 17, 22, 39, 32, 38, 8, 34, 0, 23
            |26, 21, 22, 40, 32, 32, 29, 34, 24, 11, 10, 29, 35, 15, 37, 38, 29, 7, 18, 29, 32, 33, 38, 24, 42, 7, 36, 23, 13, 16, 13, 11, 39, 26, 30, 23, 44, 9, 38, 12, 49, 19, 32, 41, 25, 46, 49, 51, 27, 6, 34, 24, 5, 29, 41, 50, 32, 36, 6, 23, 21, 38, 14, 28, 44, 52, 32, 21, 4, 21, 34, 39, 7, 29, 3, 38, 29, 31, 23, 33, 5, 36, 21, 28, 29, 46, 21, 27, 30, 28, 14, 45, 26, 24, 30, 40, 36, 32, 15, 23, 0|];