% n100w140.003    40.59 903
n = 101;
duration = [|0, 20, 25, 30, 11, 31, 12, 19, 34, 34, 20, 35, 45, 9, 22, 8, 34, 14, 38, 30, 27, 41, 16, 34, 28, 30, 31, 10, 13, 24, 32, 29, 19, 13, 37, 9, 34, 23, 6, 36, 26, 36, 20, 9, 36, 28, 32, 17, 37, 44, 29, 11, 37, 11, 19, 30, 35, 18, 31, 34, 34, 13, 15, 10, 25, 17, 10, 24, 20, 14, 9, 10, 29, 29, 11, 9, 15, 15, 6, 23, 9, 35, 6, 38, 31, 13, 6, 9, 6, 18, 19, 37, 19, 21, 8, 35, 25, 24, 38, 15, 34
            |20, 0, 11, 25, 28, 30, 32, 16, 17, 29, 21, 15, 25, 16, 20, 24, 17, 31, 18, 21, 26, 22, 36, 17, 9, 14, 17, 10, 24, 27, 24, 14, 1, 32, 18, 25, 21, 3, 25, 31, 29, 21, 17, 12, 17, 9, 30, 36, 18, 25, 10, 31, 19, 28, 24, 14, 29, 9, 27, 20, 21, 33, 16, 29, 11, 28, 27, 19, 9, 8, 20, 28, 12, 14, 30, 28, 8, 5, 20, 13, 29, 16, 24, 20, 16, 28, 26, 22, 16, 25, 27, 31, 24, 7, 21, 19, 23, 4, 19, 33, 19
            |25, 11, 0, 36, 35, 21, 37, 27, 25, 40, 32, 15, 24, 17, 31, 26, 26, 39, 18, 11, 18, 17, 41, 10, 8, 5, 26, 16, 24, 20, 13, 23, 12, 38, 17, 27, 31, 12, 31, 42, 40, 11, 11, 17, 23, 13, 21, 42, 17, 26, 15, 33, 13, 30, 35, 5, 40, 21, 17, 9, 31, 38, 26, 35, 21, 37, 29, 30, 20, 18, 21, 30, 21, 23, 34, 35, 10, 13, 27, 5, 32, 17, 31, 14, 25, 29, 30, 23, 19, 35, 37, 42, 20, 5, 23, 9, 15, 11, 25, 40, 28
            |30, 25, 36, 0, 28, 54, 37, 12, 19, 4, 11, 32, 38, 34, 8, 38, 18, 31, 33, 47, 50, 42, 39, 40, 31, 38, 14, 28, 42, 49, 49, 16, 24, 32, 34, 39, 12, 25, 30, 6, 11, 45, 41, 28, 24, 27, 54, 38, 34, 35, 25, 40, 40, 41, 13, 38, 5, 16, 52, 44, 13, 37, 15, 31, 16, 21, 40, 6, 16, 21, 37, 40, 19, 16, 39, 32, 30, 25, 24, 38, 38, 31, 29, 41, 16, 43, 34, 38, 31, 16, 17, 7, 45, 32, 37, 43, 47, 26, 25, 34, 16
            |11, 28, 35, 28, 0, 41, 9, 20, 38, 31, 17, 42, 52, 20, 21, 16, 37, 4, 45, 41, 38, 50, 11, 44, 36, 40, 34, 20, 22, 35, 43, 33, 27, 4, 45, 17, 36, 30, 5, 33, 20, 47, 31, 18, 41, 36, 43, 10, 45, 51, 36, 14, 46, 18, 15, 40, 33, 23, 42, 44, 36, 9, 16, 3, 29, 9, 17, 24, 24, 20, 20, 16, 34, 33, 13, 4, 25, 23, 8, 33, 13, 43, 5, 47, 35, 20, 10, 19, 17, 12, 12, 35, 30, 30, 18, 45, 36, 32, 43, 6, 37
            |31, 30, 21, 54, 41, 0, 38, 42, 46, 58, 46, 35, 43, 22, 47, 26, 46, 44, 38, 12, 4, 33, 42, 27, 29, 23, 46, 26, 20, 7, 11, 43, 30, 43, 37, 26, 51, 32, 36, 60, 54, 24, 13, 27, 44, 34, 2, 43, 37, 46, 36, 32, 30, 27, 48, 23, 58, 38, 5, 20, 51, 39, 41, 40, 40, 47, 27, 47, 38, 33, 22, 29, 41, 43, 33, 39, 23, 28, 36, 17, 32, 37, 36, 31, 45, 25, 32, 22, 25, 47, 49, 60, 12, 23, 24, 23, 7, 31, 46, 43, 48
            |12, 32, 37, 37, 9, 38, 0, 28, 45, 40, 26, 47, 57, 20, 29, 12, 44, 9, 50, 40, 35, 53, 4, 46, 40, 42, 41, 22, 18, 31, 42, 40, 31, 6, 49, 12, 44, 35, 8, 42, 30, 48, 30, 21, 47, 40, 40, 5, 49, 56, 41, 7, 49, 11, 24, 42, 42, 29, 40, 45, 44, 1, 24, 6, 36, 18, 11, 32, 30, 25, 17, 9, 40, 40, 5, 5, 27, 27, 14, 34, 6, 47, 9, 50, 42, 14, 7, 16, 17, 21, 22, 44, 26, 32, 15, 46, 33, 36, 49, 6, 44
            |19, 16, 27, 12, 20, 42, 28, 0, 18, 16, 6, 27, 35, 22, 4, 26, 18, 23, 28, 36, 39, 36, 31, 32, 23, 30, 14, 16, 30, 38, 38, 13, 15, 25, 29, 27, 16, 16, 20, 18, 13, 36, 30, 17, 22, 20, 43, 30, 29, 33, 20, 30, 33, 30, 9, 30, 17, 6, 41, 35, 16, 28, 4, 22, 10, 16, 29, 5, 7, 9, 25, 29, 15, 13, 29, 23, 19, 14, 14, 28, 28, 26, 19, 34, 15, 32, 24, 27, 20, 12, 13, 19, 34, 22, 25, 35, 35, 18, 24, 26, 17
            |34, 17, 25, 19, 38, 46, 45, 18, 0, 22, 24, 15, 19, 32, 20, 40, 1, 41, 15, 36, 43, 25, 48, 24, 17, 25, 5, 26, 41, 43, 37, 5, 17, 42, 16, 41, 8, 14, 37, 23, 28, 30, 34, 27, 5, 12, 46, 48, 16, 16, 10, 45, 23, 44, 27, 25, 20, 16, 42, 30, 7, 45, 22, 40, 9, 34, 43, 17, 14, 20, 36, 43, 5, 5, 45, 40, 25, 21, 31, 29, 43, 13, 36, 24, 4, 45, 40, 38, 31, 30, 31, 21, 41, 23, 37, 28, 39, 15, 6, 44, 4
            |34, 29, 40, 4, 31, 58, 40, 16, 22, 0, 14, 36, 41, 38, 12, 41, 21, 33, 36, 51, 54, 46, 42, 44, 35, 42, 17, 32, 46, 53, 53, 19, 29, 35, 37, 42, 14, 29, 33, 2, 12, 49, 45, 32, 27, 31, 59, 41, 37, 37, 29, 44, 44, 45, 16, 42, 3, 21, 56, 48, 15, 40, 19, 34, 20, 23, 44, 11, 21, 25, 41, 43, 23, 19, 43, 35, 35, 30, 28, 43, 42, 34, 32, 44, 19, 46, 38, 42, 35, 19, 19, 4, 50, 36, 41, 47, 51, 30, 28, 36, 18
            |20, 21, 32, 11, 17, 46, 26, 6, 24, 14, 0, 33, 41, 25, 4, 27, 23, 20, 34, 41, 43, 42, 28, 38, 29, 35, 18, 20, 32, 41, 43, 19, 20, 22, 35, 28, 19, 22, 19, 16, 8, 42, 34, 20, 28, 26, 47, 28, 35, 38, 26, 29, 39, 31, 4, 35, 16, 12, 45, 41, 20, 26, 6, 20, 16, 11, 30, 7, 13, 14, 27, 29, 21, 19, 28, 21, 24, 19, 14, 33, 27, 32, 18, 40, 20, 32, 24, 28, 22, 6, 8, 18, 37, 27, 27, 40, 39, 24, 30, 23, 21
            |35, 15, 15, 32, 42, 35, 47, 27, 15, 36, 33, 0, 10, 29, 30, 38, 16, 46, 3, 24, 33, 10, 51, 10, 8, 12, 19, 25, 37, 35, 25, 16, 16, 46, 3, 39, 23, 12, 40, 37, 39, 16, 26, 26, 11, 7, 35, 51, 3, 11, 7, 45, 9, 42, 36, 12, 34, 21, 31, 17, 22, 47, 29, 43, 17, 41, 41, 28, 20, 22, 33, 42, 13, 16, 45, 43, 21, 20, 34, 20, 43, 2, 39, 9, 17, 42, 40, 35, 30, 38, 40, 36, 35, 16, 35, 14, 30, 11, 11, 48, 19
            |45, 25, 24, 38, 52, 43, 57, 35, 19, 41, 41, 10, 0, 39, 38, 48, 20, 56, 7, 31, 41, 11, 61, 16, 17, 20, 24, 35, 47, 44, 32, 23, 25, 56, 7, 49, 27, 22, 50, 42, 47, 20, 35, 36, 14, 16, 42, 61, 7, 5, 16, 55, 13, 52, 44, 20, 39, 30, 38, 23, 26, 57, 38, 53, 25, 50, 51, 35, 29, 32, 43, 52, 20, 23, 55, 53, 31, 30, 44, 29, 53, 9, 49, 12, 22, 52, 50, 45, 40, 47, 48, 40, 44, 26, 45, 20, 38, 21, 13, 57, 23
            |9, 16, 17, 34, 20, 22, 20, 22, 32, 38, 25, 29, 39, 0, 26, 9, 32, 23, 32, 21, 19, 34, 24, 27, 22, 22, 30, 6, 9, 16, 23, 28, 15, 22, 32, 10, 35, 19, 15, 40, 32, 28, 11, 5, 33, 24, 24, 25, 32, 40, 25, 16, 30, 13, 26, 22, 38, 19, 23, 25, 34, 21, 19, 19, 24, 25, 12, 27, 19, 14, 4, 13, 27, 28, 16, 18, 8, 11, 14, 14, 15, 30, 15, 31, 30, 13, 13, 6, 3, 25, 26, 41, 12, 13, 6, 26, 16, 19, 35, 23, 33
            |22, 20, 31, 8, 21, 47, 29, 4, 20, 12, 4, 30, 38, 26, 0, 29, 19, 23, 32, 41, 43, 40, 32, 36, 27, 34, 15, 21, 34, 42, 43, 16, 19, 25, 33, 30, 16, 20, 22, 14, 9, 41, 34, 21, 25, 24, 48, 31, 33, 35, 23, 32, 37, 33, 7, 34, 13, 10, 45, 40, 16, 29, 7, 23, 13, 14, 32, 4, 11, 14, 29, 32, 18, 16, 31, 24, 24, 19, 16, 32, 30, 30, 21, 38, 17, 34, 26, 30, 23, 10, 11, 16, 38, 26, 29, 39, 40, 22, 26, 26, 18
            |8, 24, 26, 38, 16, 26, 12, 26, 40, 41, 27, 38, 48, 9, 29, 0, 40, 18, 41, 28, 23, 43, 16, 36, 31, 31, 37, 14, 6, 19, 30, 35, 24, 16, 41, 1, 41, 27, 11, 44, 33, 37, 18, 13, 41, 33, 28, 17, 41, 49, 34, 7, 39, 4, 27, 31, 43, 25, 28, 34, 41, 13, 23, 14, 31, 23, 3, 32, 26, 20, 6, 4, 35, 35, 8, 13, 17, 19, 14, 22, 6, 39, 11, 40, 37, 5, 6, 4, 9, 25, 26, 45, 14, 23, 4, 35, 21, 28, 43, 17, 40
            |34, 17, 26, 18, 37, 46, 44, 18, 1, 21, 23, 16, 20, 32, 19, 40, 0, 41, 16, 36, 43, 26, 48, 25, 18, 25, 4, 26, 41, 44, 38, 4, 17, 42, 17, 41, 7, 15, 37, 22, 27, 31, 34, 27, 6, 13, 46, 48, 17, 16, 11, 45, 24, 44, 26, 25, 19, 15, 43, 31, 6, 45, 21, 39, 9, 33, 43, 16, 14, 20, 36, 43, 5, 4, 44, 40, 25, 21, 30, 30, 43, 14, 36, 25, 3, 44, 39, 38, 31, 29, 31, 20, 42, 23, 37, 29, 40, 15, 7, 43, 3
            |14, 31, 39, 31, 4, 44, 9, 23, 41, 33, 20, 46, 56, 23, 23, 18, 41, 0, 49, 44, 41, 54, 9, 48, 40, 43, 37, 23, 24, 37, 46, 36, 31, 2, 49, 18, 39, 34, 8, 35, 22, 50, 34, 22, 45, 39, 46, 8, 49, 54, 40, 15, 50, 19, 17, 43, 35, 26, 45, 47, 39, 8, 19, 4, 33, 10, 18, 27, 28, 24, 22, 17, 38, 36, 13, 5, 28, 27, 12, 36, 14, 46, 8, 51, 38, 21, 12, 22, 20, 14, 14, 37, 32, 34, 20, 48, 38, 36, 47, 3, 40
            |38, 18, 18, 33, 45, 38, 50, 28, 15, 36, 34, 3, 7, 32, 32, 41, 16, 49, 0, 26, 36, 10, 54, 12, 11, 15, 19, 28, 40, 38, 28, 17, 18, 49, 1, 42, 23, 15, 42, 37, 41, 17, 29, 29, 10, 9, 37, 54, 1, 8, 9, 48, 10, 45, 38, 15, 35, 23, 34, 19, 22, 50, 31, 46, 18, 43, 44, 29, 22, 25, 36, 45, 14, 17, 48, 46, 24, 23, 37, 23, 46, 2, 42, 10, 17, 45, 43, 38, 33, 40, 42, 36, 38, 19, 38, 17, 33, 13, 10, 50, 19
            |30, 21, 11, 47, 41, 12, 40, 36, 36, 51, 41, 24, 31, 21, 41, 28, 36, 44, 26, 0, 11, 21, 45, 15, 18, 11, 37, 22, 24, 14, 2, 34, 22, 43, 25, 29, 42, 23, 36, 53, 49, 12, 10, 23, 33, 23, 11, 45, 25, 34, 26, 35, 18, 31, 43, 11, 50, 31, 7, 8, 41, 41, 35, 40, 32, 45, 30, 40, 30, 27, 23, 32, 31, 34, 36, 39, 18, 22, 34, 9, 35, 26, 36, 19, 36, 30, 34, 24, 24, 43, 45, 52, 17, 14, 25, 11, 9, 21, 35, 44, 39
            |27, 26, 18, 50, 38, 4, 35, 39, 43, 54, 43, 33, 41, 19, 43, 23, 43, 41, 36, 11, 0, 32, 39, 25, 26, 21, 43, 23, 17, 4, 11, 40, 27, 39, 35, 23, 48, 29, 33, 57, 50, 22, 9, 23, 41, 31, 5, 40, 35, 44, 33, 29, 28, 24, 44, 21, 55, 34, 6, 19, 47, 36, 37, 36, 37, 43, 24, 44, 34, 30, 18, 26, 38, 40, 30, 35, 20, 25, 33, 14, 29, 35, 33, 30, 42, 22, 29, 19, 22, 43, 45, 57, 9, 20, 20, 22, 4, 28, 43, 40, 45
            |41, 22, 17, 42, 50, 33, 53, 36, 25, 46, 42, 10, 11, 34, 40, 43, 26, 54, 10, 21, 32, 0, 57, 7, 14, 12, 29, 31, 41, 35, 22, 26, 23, 54, 9, 44, 33, 21, 47, 47, 49, 10, 28, 32, 20, 16, 32, 58, 9, 15, 17, 50, 4, 47, 46, 12, 44, 30, 28, 13, 32, 54, 38, 51, 27, 50, 46, 38, 29, 31, 37, 47, 23, 26, 50, 50, 26, 27, 42, 22, 49, 12, 46, 3, 27, 46, 46, 40, 36, 47, 49, 46, 36, 21, 40, 10, 30, 19, 20, 55, 29
            |16, 36, 41, 39, 11, 42, 4, 31, 48, 42, 28, 51, 61, 24, 32, 16, 48, 9, 54, 45, 39, 57, 0, 51, 44, 46, 44, 26, 22, 35, 46, 43, 35, 7, 54, 16, 47, 39, 11, 44, 31, 52, 34, 25, 51, 45, 44, 1, 54, 60, 45, 10, 53, 15, 26, 46, 44, 33, 44, 49, 47, 4, 27, 9, 39, 19, 15, 35, 34, 29, 22, 13, 44, 43, 9, 8, 31, 31, 17, 38, 10, 52, 12, 55, 45, 17, 11, 20, 22, 23, 23, 46, 30, 37, 20, 51, 37, 40, 53, 6, 47
            |34, 17, 10, 40, 44, 27, 46, 32, 24, 44, 38, 10, 16, 27, 36, 36, 25, 48, 12, 15, 25, 7, 51, 0, 9, 5, 27, 25, 33, 28, 16, 25, 18, 47, 11, 37, 32, 16, 40, 45, 45, 6, 21, 26, 21, 13, 26, 51, 11, 19, 15, 43, 3, 40, 41, 5, 43, 26, 22, 7, 31, 47, 33, 44, 24, 45, 39, 35, 25, 25, 30, 40, 21, 25, 43, 44, 20, 21, 36, 14, 42, 12, 40, 4, 26, 39, 40, 33, 29, 42, 44, 44, 29, 14, 33, 4, 23, 14, 21, 49, 28
            |28, 9, 8, 31, 36, 29, 40, 23, 17, 35, 29, 8, 17, 22, 27, 31, 18, 40, 11, 18, 26, 14, 44, 9, 0, 8, 19, 18, 30, 28, 20, 16, 9, 40, 10, 32, 24, 7, 33, 37, 36, 14, 19, 19, 15, 5, 29, 44, 10, 19, 7, 38, 10, 35, 32, 8, 34, 17, 25, 14, 23, 40, 24, 37, 15, 36, 34, 26, 16, 17, 26, 35, 13, 16, 38, 37, 14, 13, 28, 13, 36, 9, 32, 11, 18, 34, 33, 28, 23, 33, 35, 36, 27, 9, 27, 12, 23, 5, 16, 41, 21
            |30, 14, 5, 38, 40, 23, 42, 30, 25, 42, 35, 12, 20, 22, 34, 31, 25, 43, 15, 11, 21, 12, 46, 5, 8, 0, 27, 20, 28, 24, 13, 24, 15, 43, 14, 32, 32, 14, 36, 44, 43, 7, 16, 22, 22, 13, 22, 47, 14, 23, 15, 38, 8, 35, 38, 0, 42, 24, 18, 6, 31, 43, 30, 40, 23, 41, 34, 33, 23, 22, 25, 35, 21, 24, 39, 39, 15, 17, 32, 9, 37, 15, 35, 9, 25, 34, 35, 28, 24, 39, 41, 44, 24, 9, 28, 5, 18, 12, 23, 44, 28
            |31, 17, 26, 14, 34, 46, 41, 14, 5, 17, 18, 19, 24, 30, 15, 37, 4, 37, 19, 37, 43, 29, 44, 27, 19, 27, 0, 24, 39, 43, 39, 3, 16, 38, 20, 38, 5, 14, 33, 18, 23, 33, 34, 25, 10, 14, 46, 44, 20, 21, 13, 42, 27, 41, 22, 27, 16, 12, 43, 33, 4, 41, 17, 36, 6, 29, 40, 12, 11, 17, 34, 40, 6, 3, 41, 36, 24, 19, 27, 30, 40, 17, 32, 28, 2, 42, 36, 36, 29, 25, 26, 17, 41, 23, 35, 31, 39, 16, 12, 39, 3
            |10, 10, 16, 28, 20, 26, 22, 16, 26, 32, 20, 25, 35, 6, 21, 14, 26, 23, 28, 22, 23, 31, 26, 25, 18, 20, 24, 0, 15, 21, 25, 22, 10, 23, 28, 15, 28, 13, 16, 34, 27, 27, 14, 1, 27, 19, 27, 27, 28, 35, 20, 20, 27, 18, 21, 20, 33, 13, 25, 24, 28, 23, 14, 20, 18, 22, 17, 22, 13, 8, 10, 18, 21, 22, 20, 19, 5, 5, 12, 14, 19, 26, 15, 28, 24, 18, 16, 12, 5, 21, 23, 35, 17, 11, 11, 25, 19, 14, 29, 24, 27
            |13, 24, 24, 42, 22, 20, 18, 30, 41, 46, 32, 37, 47, 9, 34, 6, 41, 24, 40, 24, 17, 41, 22, 33, 30, 28, 39, 15, 0, 13, 25, 37, 24, 23, 40, 6, 43, 27, 17, 48, 38, 33, 14, 14, 42, 32, 22, 23, 40, 48, 34, 12, 36, 7, 32, 28, 47, 27, 22, 30, 43, 19, 27, 20, 33, 29, 7, 35, 28, 22, 5, 9, 36, 37, 13, 19, 16, 20, 19, 19, 12, 39, 17, 38, 39, 6, 13, 4, 10, 30, 32, 49, 8, 21, 5, 32, 16, 28, 44, 24, 42
            |24, 27, 20, 49, 35, 7, 31, 38, 43, 53, 41, 35, 44, 16, 42, 19, 44, 37, 38, 14, 4, 35, 35, 28, 28, 24, 43, 21, 13, 0, 15, 40, 27, 36, 37, 19, 48, 29, 29, 56, 48, 26, 9, 21, 42, 32, 9, 36, 37, 46, 34, 25, 31, 20, 42, 24, 54, 33, 10, 22, 48, 32, 35, 33, 37, 41, 20, 43, 34, 29, 15, 22, 39, 40, 26, 32, 19, 24, 30, 15, 25, 37, 30, 33, 42, 18, 25, 16, 19, 41, 43, 56, 5, 20, 17, 25, 5, 29, 44, 36, 46
            |32, 24, 13, 49, 43, 11, 42, 38, 37, 53, 43, 25, 32, 23, 43, 30, 38, 46, 28, 2, 11, 22, 46, 16, 20, 13, 39, 25, 25, 15, 0, 36, 24, 45, 27, 30, 44, 25, 38, 55, 51, 12, 12, 25, 35, 25, 10, 47, 27, 36, 27, 37, 19, 32, 46, 13, 53, 33, 6, 9, 43, 43, 38, 42, 34, 47, 32, 43, 32, 30, 25, 34, 33, 36, 38, 41, 20, 24, 36, 11, 36, 28, 38, 20, 38, 31, 36, 26, 26, 46, 48, 55, 18, 17, 27, 12, 10, 23, 36, 46, 41
            |29, 14, 23, 16, 33, 43, 40, 13, 5, 19, 19, 16, 23, 28, 16, 35, 4, 36, 17, 34, 40, 26, 43, 25, 16, 24, 3, 22, 37, 40, 36, 0, 14, 37, 18, 36, 8, 12, 32, 21, 24, 30, 31, 23, 9, 12, 44, 43, 18, 20, 10, 41, 24, 39, 22, 24, 18, 11, 40, 30, 7, 40, 17, 35, 4, 29, 38, 13, 9, 15, 32, 39, 3, 0, 40, 35, 22, 17, 26, 27, 39, 15, 31, 25, 2, 40, 35, 34, 27, 25, 27, 20, 38, 21, 33, 28, 37, 13, 11, 39, 5
            |19, 1, 12, 24, 27, 30, 31, 15, 17, 29, 20, 16, 25, 15, 19, 24, 17, 31, 18, 22, 27, 23, 35, 18, 9, 15, 16, 10, 24, 27, 24, 14, 0, 31, 18, 25, 21, 4, 24, 31, 28, 22, 18, 11, 17, 9, 31, 35, 18, 25, 10, 30, 20, 28, 23, 15, 28, 9, 28, 21, 21, 32, 15, 28, 10, 27, 27, 18, 8, 7, 19, 28, 12, 14, 30, 28, 8, 4, 19, 14, 28, 16, 23, 21, 16, 28, 25, 22, 15, 24, 26, 30, 25, 8, 21, 20, 23, 5, 20, 32, 19
            |13, 32, 38, 32, 4, 43, 6, 25, 42, 35, 22, 46, 56, 22, 25, 16, 42, 2, 49, 43, 39, 54, 7, 47, 40, 43, 38, 23, 23, 36, 45, 37, 31, 0, 49, 17, 40, 34, 7, 37, 24, 50, 33, 22, 45, 40, 44, 6, 49, 55, 40, 13, 50, 17, 19, 43, 37, 27, 44, 47, 41, 6, 21, 3, 34, 12, 17, 28, 28, 24, 21, 15, 38, 37, 11, 4, 28, 27, 12, 36, 12, 47, 8, 51, 39, 19, 10, 20, 19, 16, 16, 39, 31, 34, 19, 48, 37, 36, 48, 1, 41
            |37, 18, 17, 34, 45, 37, 49, 29, 16, 37, 35, 3, 7, 32, 33, 41, 17, 49, 1, 25, 35, 9, 54, 11, 10, 14, 20, 28, 40, 37, 27, 18, 18, 49, 0, 42, 24, 15, 43, 39, 41, 16, 29, 29, 11, 9, 36, 54, 0, 9, 9, 48, 9, 45, 39, 14, 36, 24, 32, 18, 23, 50, 31, 46, 19, 44, 44, 30, 22, 25, 36, 45, 15, 18, 48, 46, 24, 23, 37, 22, 46, 3, 42, 8, 18, 45, 43, 38, 33, 40, 42, 37, 37, 19, 38, 15, 32, 13, 11, 51, 20
            |9, 25, 27, 39, 17, 26, 12, 27, 41, 42, 28, 39, 49, 10, 30, 1, 41, 18, 42, 29, 23, 44, 16, 37, 32, 32, 38, 15, 6, 19, 30, 36, 25, 17, 42, 0, 42, 28, 11, 45, 34, 37, 18, 14, 42, 34, 28, 17, 42, 50, 35, 7, 40, 3, 28, 32, 44, 26, 28, 34, 42, 13, 24, 14, 32, 24, 2, 33, 27, 21, 6, 4, 36, 36, 7, 13, 18, 20, 15, 23, 6, 40, 12, 41, 38, 4, 7, 4, 9, 26, 27, 46, 14, 23, 4, 36, 21, 29, 44, 17, 41
            |34, 21, 31, 12, 36, 51, 44, 16, 8, 14, 19, 23, 27, 35, 16, 41, 7, 39, 23, 42, 48, 33, 47, 32, 24, 32, 5, 28, 43, 48, 44, 8, 21, 40, 24, 42, 0, 19, 36, 15, 22, 37, 39, 29, 13, 19, 51, 46, 24, 23, 17, 45, 31, 45, 23, 32, 12, 16, 48, 38, 1, 44, 20, 38, 11, 30, 44, 12, 15, 21, 38, 44, 11, 8, 45, 39, 29, 24, 30, 35, 43, 21, 35, 32, 6, 46, 39, 40, 33, 26, 27, 13, 45, 28, 39, 36, 44, 21, 14, 42, 4
            |23, 3, 12, 25, 30, 32, 35, 16, 14, 29, 22, 12, 22, 19, 20, 27, 15, 34, 15, 23, 29, 21, 39, 16, 7, 14, 14, 13, 27, 29, 25, 12, 4, 34, 15, 28, 19, 0, 28, 31, 29, 21, 20, 15, 14, 6, 32, 39, 15, 22, 7, 34, 17, 31, 25, 14, 28, 10, 29, 20, 19, 35, 17, 31, 9, 29, 30, 19, 9, 10, 23, 31, 9, 12, 33, 31, 11, 8, 22, 15, 32, 13, 27, 18, 13, 32, 29, 25, 19, 26, 28, 30, 27, 9, 24, 19, 25, 2, 16, 36, 17
            |6, 25, 31, 30, 5, 36, 8, 20, 37, 33, 19, 40, 50, 15, 22, 11, 37, 8, 42, 36, 33, 47, 11, 40, 33, 36, 33, 16, 17, 29, 38, 32, 24, 7, 43, 11, 36, 28, 0, 36, 24, 42, 26, 14, 40, 33, 38, 11, 43, 49, 34, 10, 43, 13, 18, 36, 35, 21, 37, 40, 36, 8, 16, 4, 28, 13, 12, 25, 23, 18, 14, 11, 33, 32, 9, 4, 21, 20, 6, 29, 9, 40, 1, 44, 34, 15, 5, 14, 12, 15, 16, 37, 24, 26, 13, 40, 30, 29, 42, 9, 36
            |36, 31, 42, 6, 33, 60, 42, 18, 23, 2, 16, 37, 42, 40, 14, 44, 22, 35, 37, 53, 57, 47, 44, 45, 37, 44, 18, 34, 48, 56, 55, 21, 31, 37, 39, 45, 15, 31, 36, 0, 13, 51, 47, 35, 28, 32, 61, 43, 39, 38, 31, 46, 45, 47, 18, 44, 3, 23, 58, 50, 16, 42, 21, 36, 21, 25, 46, 13, 23, 27, 43, 46, 24, 21, 45, 37, 37, 32, 30, 45, 44, 36, 35, 46, 20, 49, 40, 44, 38, 21, 21, 3, 52, 38, 43, 49, 53, 32, 29, 38, 19
            |26, 29, 40, 11, 20, 54, 30, 13, 28, 12, 8, 39, 47, 32, 9, 33, 27, 22, 41, 49, 50, 49, 31, 45, 36, 43, 23, 27, 38, 48, 51, 24, 28, 24, 41, 34, 22, 29, 24, 13, 0, 50, 41, 27, 33, 33, 55, 30, 41, 44, 32, 34, 46, 36, 6, 43, 14, 19, 53, 48, 23, 29, 13, 24, 22, 12, 35, 11, 20, 22, 34, 34, 27, 24, 33, 25, 31, 27, 19, 40, 32, 38, 23, 47, 25, 38, 29, 35, 29, 9, 8, 16, 44, 35, 33, 48, 47, 31, 35, 25, 25
            |36, 21, 11, 45, 47, 24, 48, 36, 30, 49, 42, 16, 20, 28, 41, 37, 31, 50, 17, 12, 22, 10, 52, 6, 14, 7, 33, 27, 33, 26, 12, 30, 22, 50, 16, 37, 37, 21, 42, 51, 50, 0, 20, 28, 26, 18, 22, 53, 16, 24, 20, 44, 8, 40, 45, 7, 48, 30, 18, 4, 37, 49, 37, 46, 29, 48, 39, 40, 30, 29, 31, 41, 27, 30, 44, 46, 22, 24, 39, 14, 43, 18, 42, 8, 31, 39, 41, 33, 30, 46, 48, 50, 28, 16, 33, 2, 21, 19, 27, 51, 34
            |20, 17, 11, 41, 31, 13, 30, 30, 34, 45, 34, 26, 35, 11, 34, 18, 34, 34, 29, 10, 9, 28, 34, 21, 19, 16, 34, 14, 14, 9, 12, 31, 18, 33, 29, 18, 39, 20, 26, 47, 41, 20, 0, 14, 33, 23, 14, 35, 29, 37, 25, 25, 24, 21, 35, 16, 45, 25, 12, 16, 38, 31, 28, 30, 28, 35, 20, 35, 25, 21, 12, 22, 29, 31, 26, 29, 11, 16, 25, 6, 24, 28, 26, 25, 33, 19, 23, 14, 14, 35, 37, 48, 9, 11, 15, 18, 6, 19, 35, 34, 36
            |9, 12, 17, 28, 18, 27, 21, 17, 27, 32, 20, 26, 36, 5, 21, 13, 27, 22, 29, 23, 23, 32, 25, 26, 19, 22, 25, 1, 14, 21, 25, 23, 11, 22, 29, 14, 29, 15, 14, 35, 27, 28, 14, 0, 28, 20, 28, 25, 29, 36, 21, 19, 28, 17, 21, 22, 33, 13, 26, 25, 29, 21, 14, 18, 19, 21, 16, 22, 14, 8, 9, 17, 22, 23, 19, 18, 6, 7, 11, 15, 17, 27, 14, 30, 25, 17, 14, 11, 4, 21, 22, 35, 17, 12, 10, 26, 20, 16, 31, 23, 28
            |36, 17, 23, 24, 41, 44, 47, 22, 5, 27, 28, 11, 14, 33, 25, 41, 6, 45, 10, 33, 41, 20, 51, 21, 15, 22, 10, 27, 42, 42, 35, 9, 17, 45, 11, 42, 13, 14, 40, 28, 33, 26, 33, 28, 0, 10, 44, 51, 11, 11, 8, 47, 19, 45, 31, 22, 25, 18, 40, 27, 12, 48, 25, 43, 12, 38, 44, 22, 17, 22, 37, 45, 7, 9, 47, 43, 25, 22, 34, 28, 45, 9, 39, 19, 8, 46, 42, 39, 33, 34, 36, 26, 41, 22, 38, 25, 38, 14, 2, 47, 9
            |28, 9, 13, 27, 36, 34, 40, 20, 12, 31, 26, 7, 16, 24, 24, 33, 13, 39, 9, 23, 31, 16, 45, 13, 5, 13, 14, 19, 32, 32, 25, 12, 9, 40, 9, 34, 19, 6, 33, 32, 33, 18, 23, 20, 10, 0, 34, 45, 9, 16, 2, 39, 13, 37, 30, 13, 30, 15, 30, 18, 18, 41, 22, 37, 11, 35, 36, 22, 13, 16, 28, 37, 9, 12, 39, 37, 16, 14, 28, 17, 37, 7, 33, 14, 13, 37, 34, 30, 24, 31, 33, 31, 31, 12, 30, 17, 28, 4, 12, 41, 16
            |32, 30, 21, 54, 43, 2, 40, 43, 46, 59, 47, 35, 42, 24, 48, 28, 46, 46, 37, 11, 5, 32, 44, 26, 29, 22, 46, 27, 22, 9, 10, 44, 31, 44, 36, 28, 51, 32, 38, 61, 55, 22, 14, 28, 44, 34, 0, 45, 36, 45, 36, 34, 29, 29, 49, 22, 59, 38, 4, 19, 51, 41, 42, 42, 41, 48, 29, 48, 38, 34, 24, 31, 41, 44, 35, 40, 24, 29, 38, 17, 34, 37, 38, 30, 45, 27, 34, 24, 27, 48, 50, 61, 14, 23, 25, 22, 8, 31, 45, 45, 48
            |17, 36, 42, 38, 10, 43, 5, 30, 48, 41, 28, 51, 61, 25, 31, 17, 48, 8, 54, 45, 40, 58, 1, 51, 44, 47, 44, 27, 23, 36, 47, 43, 35, 6, 54, 17, 46, 39, 11, 43, 30, 53, 35, 25, 51, 45, 45, 0, 54, 60, 45, 11, 54, 16, 25, 47, 43, 32, 45, 50, 47, 4, 26, 8, 39, 18, 16, 34, 34, 29, 23, 14, 44, 43, 10, 8, 31, 31, 17, 39, 11, 52, 12, 55, 45, 18, 12, 21, 22, 22, 22, 45, 31, 37, 20, 51, 38, 40, 53, 5, 47
            |37, 18, 17, 34, 45, 37, 49, 29, 16, 37, 35, 3, 7, 32, 33, 41, 17, 49, 1, 25, 35, 9, 54, 11, 10, 14, 20, 28, 40, 37, 27, 18, 18, 49, 0, 42, 24, 15, 43, 39, 41, 16, 29, 29, 11, 9, 36, 54, 0, 9, 9, 48, 9, 45, 39, 14, 36, 24, 32, 18, 23, 50, 31, 46, 19, 44, 44, 30, 22, 25, 36, 45, 15, 18, 48, 46, 24, 23, 37, 22, 46, 3, 42, 8, 18, 45, 43, 38, 33, 40, 42, 37, 37, 19, 38, 15, 32, 13, 11, 51, 20
            |44, 25, 26, 35, 51, 46, 56, 33, 16, 37, 38, 11, 5, 40, 35, 49, 16, 54, 8, 34, 44, 15, 60, 19, 19, 23, 21, 35, 48, 46, 36, 20, 25, 55, 9, 50, 23, 22, 49, 38, 44, 24, 37, 36, 11, 16, 45, 60, 9, 0, 15, 55, 17, 53, 42, 23, 35, 28, 41, 27, 22, 57, 36, 52, 22, 48, 52, 32, 27, 31, 44, 53, 17, 20, 55, 52, 32, 30, 43, 31, 54, 9, 48, 16, 19, 53, 50, 46, 40, 44, 46, 36, 46, 27, 46, 24, 41, 21, 9, 57, 19
            |29, 10, 15, 25, 36, 36, 41, 20, 10, 29, 26, 7, 16, 25, 23, 34, 11, 40, 9, 26, 33, 17, 45, 15, 7, 15, 13, 20, 34, 34, 27, 10, 10, 40, 9, 35, 17, 7, 34, 31, 32, 20, 25, 21, 8, 2, 36, 45, 9, 15, 0, 40, 15, 38, 29, 15, 28, 14, 32, 21, 16, 42, 22, 37, 10, 34, 37, 21, 13, 16, 29, 38, 7, 10, 40, 37, 17, 15, 28, 20, 39, 7, 33, 15, 11, 38, 35, 32, 25, 31, 33, 30, 33, 14, 31, 19, 30, 6, 10, 42, 13
            |11, 31, 33, 40, 14, 32, 7, 30, 45, 44, 29, 45, 55, 16, 32, 7, 45, 15, 48, 35, 29, 50, 10, 43, 38, 38, 42, 20, 12, 25, 37, 41, 30, 13, 48, 7, 45, 34, 10, 46, 34, 44, 25, 19, 47, 39, 34, 11, 48, 55, 40, 0, 46, 5, 28, 38, 45, 30, 35, 41, 46, 8, 26, 11, 36, 23, 5, 35, 31, 25, 13, 3, 40, 41, 1, 10, 24, 26, 16, 30, 2, 46, 11, 47, 42, 7, 6, 11, 15, 26, 26, 48, 20, 30, 11, 42, 28, 35, 49, 13, 45
            |37, 19, 13, 40, 46, 30, 49, 33, 23, 44, 39, 9, 13, 30, 37, 39, 24, 50, 10, 18, 28, 4, 53, 3, 10, 8, 27, 27, 36, 31, 19, 24, 20, 50, 9, 40, 31, 17, 43, 45, 46, 8, 24, 28, 19, 13, 29, 54, 9, 17, 15, 46, 0, 42, 42, 8, 42, 27, 25, 10, 30, 50, 34, 47, 24, 46, 42, 35, 26, 27, 33, 43, 21, 24, 46, 46, 22, 23, 38, 17, 45, 11, 42, 1, 25, 42, 42, 35, 31, 44, 46, 44, 32, 16, 35, 7, 26, 15, 20, 51, 27
            |11, 28, 30, 41, 18, 27, 11, 30, 44, 45, 31, 42, 52, 13, 33, 4, 44, 19, 45, 31, 24, 47, 15, 40, 35, 35, 41, 18, 7, 20, 32, 39, 28, 17, 45, 3, 45, 31, 13, 47, 36, 40, 21, 17, 45, 37, 29, 16, 45, 53, 38, 5, 42, 0, 30, 35, 46, 29, 30, 37, 45, 12, 26, 15, 35, 26, 1, 36, 30, 24, 9, 2, 39, 39, 6, 14, 21, 23, 17, 26, 5, 43, 14, 44, 41, 2, 8, 7, 13, 28, 29, 49, 15, 26, 7, 38, 23, 32, 47, 17, 44
            |19, 24, 35, 13, 15, 48, 24, 9, 27, 16, 4, 36, 44, 26, 7, 27, 26, 17, 38, 43, 44, 46, 26, 41, 32, 38, 22, 21, 32, 42, 46, 22, 23, 19, 39, 28, 23, 25, 18, 18, 6, 45, 35, 21, 31, 30, 49, 25, 39, 42, 29, 28, 42, 30, 0, 38, 18, 15, 47, 43, 23, 24, 8, 18, 20, 8, 29, 11, 16, 16, 28, 28, 25, 22, 27, 19, 26, 22, 13, 35, 26, 36, 17, 43, 24, 32, 22, 28, 23, 3, 4, 20, 38, 30, 27, 43, 41, 27, 33, 20, 25
            |30, 14, 5, 38, 40, 23, 42, 30, 25, 42, 35, 12, 20, 22, 34, 31, 25, 43, 15, 11, 21, 12, 46, 5, 8, 0, 27, 20, 28, 24, 13, 24, 15, 43, 14, 32, 32, 14, 36, 44, 43, 7, 16, 22, 22, 13, 22, 47, 14, 23, 15, 38, 8, 35, 38, 0, 42, 24, 18, 6, 31, 43, 30, 40, 23, 41, 34, 33, 23, 22, 25, 35, 21, 24, 39, 39, 15, 17, 32, 9, 37, 15, 35, 9, 25, 34, 35, 28, 24, 39, 41, 44, 24, 9, 28, 5, 18, 12, 23, 44, 28
            |35, 29, 40, 5, 33, 58, 42, 17, 20, 3, 16, 34, 39, 38, 13, 43, 19, 35, 35, 50, 55, 44, 44, 43, 34, 42, 16, 33, 47, 54, 53, 18, 28, 37, 36, 44, 12, 28, 35, 3, 14, 48, 45, 33, 25, 30, 59, 43, 36, 35, 28, 45, 42, 46, 18, 42, 0, 21, 56, 48, 13, 42, 20, 36, 19, 25, 45, 11, 21, 25, 42, 45, 21, 18, 44, 37, 35, 30, 29, 42, 43, 33, 34, 43, 17, 48, 39, 43, 36, 21, 22, 2, 50, 36, 42, 46, 51, 30, 26, 38, 16
            |18, 9, 21, 16, 23, 38, 29, 6, 16, 21, 12, 21, 30, 19, 10, 25, 15, 26, 23, 31, 34, 30, 33, 26, 17, 24, 12, 13, 27, 33, 33, 11, 9, 27, 24, 26, 16, 10, 21, 23, 19, 30, 25, 13, 18, 15, 38, 32, 24, 28, 14, 30, 27, 29, 15, 24, 21, 0, 35, 29, 16, 30, 8, 24, 7, 20, 28, 10, 1, 5, 22, 28, 11, 11, 29, 25, 14, 9, 15, 22, 28, 21, 21, 28, 13, 30, 24, 24, 17, 17, 19, 23, 30, 16, 23, 28, 30, 12, 21, 28, 15
            |31, 27, 17, 52, 42, 5, 40, 41, 42, 56, 45, 31, 38, 23, 45, 28, 43, 45, 34, 7, 6, 28, 44, 22, 25, 18, 43, 25, 22, 10, 6, 40, 28, 44, 32, 28, 48, 29, 37, 58, 53, 18, 12, 26, 40, 30, 4, 45, 32, 41, 32, 35, 25, 30, 47, 18, 56, 35, 0, 15, 47, 41, 39, 41, 38, 47, 29, 45, 35, 32, 23, 31, 38, 40, 35, 40, 22, 26, 36, 13, 34, 33, 37, 26, 42, 28, 34, 24, 26, 47, 48, 58, 15, 20, 25, 18, 7, 27, 41, 45, 45
            |34, 20, 9, 44, 44, 20, 45, 35, 30, 48, 41, 17, 23, 25, 40, 34, 31, 47, 19, 8, 19, 13, 49, 7, 14, 6, 33, 24, 30, 22, 9, 30, 21, 47, 18, 34, 38, 20, 40, 50, 48, 4, 16, 25, 27, 18, 19, 50, 18, 27, 21, 41, 10, 37, 43, 6, 48, 29, 15, 0, 37, 46, 35, 44, 29, 46, 36, 39, 28, 27, 28, 38, 27, 30, 41, 43, 19, 22, 36, 11, 40, 19, 39, 11, 31, 36, 38, 30, 28, 44, 46, 49, 24, 14, 30, 3, 17, 18, 28, 48, 34
            |34, 21, 31, 13, 36, 51, 44, 16, 7, 15, 20, 22, 26, 34, 16, 41, 6, 39, 22, 41, 47, 32, 47, 31, 23, 31, 4, 28, 43, 48, 43, 7, 21, 41, 23, 42, 1, 19, 36, 16, 23, 37, 38, 29, 12, 18, 51, 47, 23, 22, 16, 46, 30, 45, 23, 31, 13, 16, 47, 37, 0, 44, 20, 39, 10, 31, 44, 13, 15, 21, 38, 44, 10, 7, 45, 39, 28, 24, 30, 34, 44, 20, 35, 31, 6, 46, 40, 40, 33, 26, 28, 14, 45, 28, 39, 35, 44, 20, 13, 42, 3
            |13, 33, 38, 37, 9, 39, 1, 28, 45, 40, 26, 47, 57, 21, 29, 13, 45, 8, 50, 41, 36, 54, 4, 47, 40, 43, 41, 23, 19, 32, 43, 40, 32, 6, 50, 13, 44, 35, 8, 42, 29, 49, 31, 21, 48, 41, 41, 4, 50, 57, 42, 8, 50, 12, 24, 43, 42, 30, 41, 46, 44, 0, 24, 6, 36, 17, 12, 33, 31, 26, 18, 10, 41, 40, 6, 5, 27, 28, 14, 35, 7, 48, 9, 51, 42, 15, 8, 17, 18, 21, 21, 44, 27, 33, 16, 47, 34, 37, 50, 6, 44
            |15, 16, 26, 15, 16, 41, 24, 4, 22, 19, 6, 29, 38, 19, 7, 23, 21, 19, 31, 35, 37, 38, 27, 33, 24, 30, 17, 14, 27, 35, 38, 17, 15, 21, 31, 24, 20, 17, 16, 21, 13, 37, 28, 14, 25, 22, 42, 26, 31, 36, 22, 26, 34, 26, 8, 30, 20, 8, 39, 35, 20, 24, 0, 18, 13, 13, 25, 9, 9, 8, 22, 25, 18, 17, 25, 19, 18, 14, 10, 27, 24, 29, 15, 36, 19, 28, 20, 23, 17, 9, 11, 22, 31, 22, 22, 35, 34, 19, 28, 22, 21
            |10, 29, 35, 31, 3, 40, 6, 22, 40, 34, 20, 43, 53, 19, 23, 14, 39, 4, 46, 40, 36, 51, 9, 44, 37, 40, 36, 20, 20, 33, 42, 35, 28, 3, 46, 14, 38, 31, 4, 36, 24, 46, 30, 18, 43, 37, 42, 8, 46, 52, 37, 11, 47, 15, 18, 40, 36, 24, 41, 44, 39, 6, 18, 0, 31, 12, 14, 27, 26, 21, 18, 13, 36, 35, 10, 1, 25, 24, 9, 33, 10, 44, 4, 48, 37, 17, 8, 17, 16, 15, 16, 38, 28, 30, 16, 45, 34, 33, 45, 4, 39
            |25, 11, 21, 16, 29, 40, 36, 10, 9, 20, 16, 17, 25, 24, 13, 31, 9, 33, 18, 32, 37, 27, 39, 24, 15, 23, 6, 18, 33, 37, 34, 4, 10, 34, 19, 32, 11, 9, 28, 21, 22, 29, 28, 19, 12, 11, 41, 39, 19, 22, 10, 36, 24, 35, 20, 23, 19, 7, 38, 29, 10, 36, 13, 31, 0, 26, 34, 11, 5, 11, 28, 35, 5, 4, 36, 31, 18, 13, 22, 24, 34, 16, 27, 25, 6, 36, 31, 30, 23, 22, 24, 21, 34, 18, 29, 27, 34, 11, 14, 35, 9
            |17, 28, 37, 21, 9, 47, 18, 16, 34, 23, 11, 41, 50, 25, 14, 23, 33, 10, 43, 45, 43, 50, 19, 45, 36, 41, 29, 22, 29, 41, 47, 29, 27, 12, 44, 24, 30, 29, 13, 25, 12, 48, 35, 21, 38, 35, 48, 18, 44, 48, 34, 23, 46, 26, 8, 41, 25, 20, 47, 46, 31, 17, 13, 12, 26, 0, 25, 18, 21, 19, 26, 24, 31, 29, 21, 13, 27, 24, 11, 36, 21, 41, 12, 48, 30, 28, 18, 26, 22, 4, 4, 27, 36, 32, 24, 46, 40, 31, 40, 13, 32
            |10, 27, 29, 40, 17, 27, 11, 29, 43, 44, 30, 41, 51, 12, 32, 3, 43, 18, 44, 30, 24, 46, 15, 39, 34, 34, 40, 17, 7, 20, 32, 38, 27, 17, 44, 2, 44, 30, 12, 46, 35, 39, 20, 16, 44, 36, 29, 16, 44, 52, 37, 5, 42, 1, 29, 34, 45, 28, 29, 36, 44, 12, 25, 14, 34, 25, 0, 35, 29, 23, 8, 2, 38, 38, 6, 13, 20, 22, 16, 25, 5, 43, 13, 43, 40, 3, 7, 6, 12, 27, 28, 48, 15, 26, 6, 38, 23, 31, 46, 17, 43
            |24, 19, 30, 6, 24, 47, 32, 5, 17, 11, 7, 28, 35, 27, 4, 32, 16, 27, 29, 40, 44, 38, 35, 35, 26, 33, 12, 22, 35, 43, 43, 13, 18, 28, 30, 33, 12, 19, 25, 13, 11, 40, 35, 22, 22, 22, 48, 34, 30, 32, 21, 35, 35, 36, 11, 33, 11, 10, 45, 39, 13, 33, 9, 27, 11, 18, 35, 0, 10, 14, 30, 34, 15, 13, 34, 27, 24, 19, 19, 32, 33, 27, 24, 36, 13, 37, 29, 32, 25, 14, 15, 13, 39, 26, 31, 38, 40, 21, 23, 30, 14
            |20, 9, 20, 16, 24, 38, 30, 7, 14, 21, 13, 20, 29, 19, 11, 26, 14, 28, 22, 30, 34, 29, 34, 25, 16, 23, 11, 13, 28, 34, 32, 9, 8, 28, 22, 27, 15, 9, 23, 23, 20, 30, 25, 14, 17, 13, 38, 34, 22, 27, 13, 31, 26, 30, 16, 23, 21, 1, 35, 28, 15, 31, 9, 26, 5, 21, 29, 10, 0, 6, 23, 29, 10, 9, 30, 26, 14, 9, 17, 22, 29, 20, 22, 27, 11, 31, 25, 25, 18, 18, 20, 23, 30, 16, 24, 28, 31, 11, 19, 30, 14
            |14, 8, 18, 21, 20, 33, 25, 9, 20, 25, 14, 22, 32, 14, 14, 20, 20, 24, 25, 27, 30, 31, 29, 25, 17, 22, 17, 8, 22, 29, 30, 15, 7, 24, 25, 21, 21, 10, 18, 27, 22, 29, 21, 8, 22, 16, 34, 29, 25, 31, 16, 25, 27, 24, 16, 22, 25, 5, 32, 27, 21, 26, 8, 21, 11, 19, 23, 14, 6, 0, 17, 24, 15, 15, 25, 21, 10, 5, 12, 19, 23, 23, 17, 28, 17, 25, 20, 19, 12, 17, 19, 27, 25, 13, 18, 27, 26, 12, 24, 25, 20
            |9, 20, 21, 37, 20, 22, 17, 25, 36, 41, 27, 33, 43, 4, 29, 6, 36, 22, 36, 23, 18, 37, 22, 30, 26, 25, 34, 10, 5, 15, 25, 32, 19, 21, 36, 6, 38, 23, 14, 43, 34, 31, 12, 9, 37, 28, 24, 23, 36, 44, 29, 13, 33, 9, 28, 25, 42, 22, 23, 28, 38, 18, 22, 18, 28, 26, 8, 30, 23, 17, 0, 10, 31, 32, 13, 17, 12, 15, 15, 17, 12, 34, 15, 35, 34, 9, 11, 2, 5, 26, 28, 44, 10, 17, 2, 29, 16, 23, 39, 22, 37
            |10, 28, 30, 40, 16, 29, 9, 29, 43, 43, 29, 42, 52, 13, 32, 4, 43, 17, 45, 32, 26, 47, 13, 40, 35, 35, 40, 18, 9, 22, 34, 39, 28, 15, 45, 4, 44, 31, 11, 46, 34, 41, 22, 17, 45, 37, 31, 14, 45, 53, 38, 3, 43, 2, 28, 35, 45, 28, 31, 38, 44, 10, 25, 13, 35, 24, 2, 34, 29, 24, 10, 0, 39, 39, 4, 11, 21, 23, 16, 27, 3, 44, 12, 45, 41, 4, 6, 8, 13, 26, 27, 47, 17, 27, 8, 39, 25, 32, 47, 15, 44
            |29, 12, 21, 19, 34, 41, 40, 15, 5, 23, 21, 13, 20, 27, 18, 35, 5, 38, 14, 31, 38, 23, 44, 21, 13, 21, 6, 21, 36, 39, 33, 3, 12, 38, 15, 36, 11, 9, 33, 24, 27, 27, 29, 22, 7, 9, 41, 44, 15, 17, 7, 40, 21, 39, 25, 21, 21, 11, 38, 27, 10, 41, 18, 36, 5, 31, 38, 15, 10, 15, 31, 39, 0, 3, 40, 36, 20, 16, 27, 25, 39, 12, 32, 22, 4, 40, 35, 33, 26, 27, 29, 23, 36, 18, 32, 25, 35, 10, 9, 40, 7
            |29, 14, 23, 16, 33, 43, 40, 13, 5, 19, 19, 16, 23, 28, 16, 35, 4, 36, 17, 34, 40, 26, 43, 25, 16, 24, 3, 22, 37, 40, 36, 0, 14, 37, 18, 36, 8, 12, 32, 21, 24, 30, 31, 23, 9, 12, 44, 43, 18, 20, 10, 41, 24, 39, 22, 24, 18, 11, 40, 30, 7, 40, 17, 35, 4, 29, 38, 13, 9, 15, 32, 39, 3, 0, 40, 35, 22, 17, 26, 27, 39, 15, 31, 25, 2, 40, 35, 34, 27, 25, 27, 20, 38, 21, 33, 28, 37, 13, 11, 39, 5
            |11, 30, 34, 39, 13, 33, 5, 29, 45, 43, 28, 45, 55, 16, 31, 8, 44, 13, 48, 36, 30, 50, 9, 43, 38, 39, 41, 20, 13, 26, 38, 40, 30, 11, 48, 7, 45, 33, 9, 45, 33, 44, 26, 19, 47, 39, 35, 10, 48, 55, 40, 1, 46, 6, 27, 39, 44, 29, 35, 41, 45, 6, 25, 10, 36, 21, 6, 34, 30, 25, 13, 4, 40, 40, 0, 9, 24, 25, 15, 30, 1, 46, 10, 48, 42, 8, 5, 12, 15, 24, 25, 46, 21, 30, 11, 43, 28, 34, 49, 12, 44
            |9, 28, 35, 32, 4, 39, 5, 23, 40, 35, 21, 43, 53, 18, 24, 13, 40, 5, 46, 39, 35, 50, 8, 44, 37, 39, 36, 19, 19, 32, 41, 35, 28, 4, 46, 13, 39, 31, 4, 37, 25, 46, 29, 18, 43, 37, 40, 8, 46, 52, 37, 10, 46, 14, 19, 39, 37, 25, 40, 43, 39, 5, 19, 1, 31, 13, 13, 27, 26, 21, 17, 11, 36, 35, 9, 0, 24, 24, 9, 32, 8, 44, 4, 48, 37, 16, 6, 16, 16, 16, 17, 39, 27, 30, 15, 44, 33, 33, 45, 5, 39
            |15, 8, 10, 30, 25, 23, 27, 19, 25, 35, 24, 21, 31, 8, 24, 17, 25, 28, 24, 18, 20, 26, 31, 20, 14, 15, 24, 5, 16, 19, 20, 22, 8, 28, 24, 18, 29, 11, 21, 37, 31, 22, 11, 6, 25, 16, 24, 31, 24, 32, 17, 24, 22, 21, 26, 15, 35, 14, 22, 19, 28, 27, 18, 25, 18, 27, 20, 24, 14, 10, 12, 21, 20, 22, 24, 24, 0, 5, 17, 9, 23, 22, 20, 24, 24, 21, 20, 14, 9, 26, 28, 37, 16, 6, 14, 20, 16, 11, 27, 29, 27
            |15, 5, 13, 25, 23, 28, 27, 14, 21, 30, 19, 20, 30, 11, 19, 19, 21, 27, 23, 22, 25, 27, 31, 21, 13, 17, 19, 5, 20, 24, 24, 17, 4, 27, 23, 20, 24, 8, 20, 32, 27, 24, 16, 7, 22, 14, 29, 31, 23, 30, 15, 26, 23, 23, 22, 17, 30, 9, 26, 22, 24, 28, 14, 24, 13, 24, 22, 19, 9, 5, 15, 23, 16, 17, 25, 24, 5, 0, 15, 13, 24, 21, 19, 24, 19, 24, 21, 17, 11, 22, 24, 32, 21, 8, 16, 22, 21, 9, 24, 28, 22
            |6, 20, 27, 24, 8, 36, 14, 14, 31, 28, 14, 34, 44, 14, 16, 14, 30, 12, 37, 34, 33, 42, 17, 36, 28, 32, 27, 12, 19, 30, 36, 26, 19, 12, 37, 15, 30, 22, 6, 30, 19, 39, 25, 11, 34, 28, 38, 17, 37, 43, 28, 16, 38, 17, 13, 32, 29, 15, 36, 36, 30, 14, 10, 9, 22, 11, 16, 19, 17, 12, 15, 16, 27, 26, 15, 9, 17, 15, 0, 26, 14, 35, 5, 39, 28, 19, 10, 16, 11, 11, 13, 32, 25, 23, 14, 37, 30, 24, 36, 13, 30
            |23, 13, 5, 38, 33, 17, 34, 28, 29, 43, 33, 20, 29, 14, 32, 22, 30, 36, 23, 9, 14, 22, 38, 14, 13, 9, 30, 14, 19, 15, 11, 27, 14, 36, 22, 23, 35, 15, 29, 45, 40, 14, 6, 15, 28, 17, 17, 39, 22, 31, 20, 30, 17, 26, 35, 9, 42, 22, 13, 11, 34, 35, 27, 33, 24, 36, 25, 32, 22, 19, 17, 27, 25, 27, 30, 32, 9, 13, 26, 0, 29, 22, 28, 19, 29, 25, 27, 19, 16, 35, 37, 45, 15, 6, 19, 13, 10, 14, 29, 37, 32
            |9, 29, 32, 38, 13, 32, 6, 28, 43, 42, 27, 43, 53, 15, 30, 6, 43, 14, 46, 35, 29, 49, 10, 42, 36, 37, 40, 19, 12, 25, 36, 39, 28, 12, 46, 6, 43, 32, 9, 44, 32, 43, 24, 17, 45, 37, 34, 11, 46, 54, 39, 2, 45, 5, 26, 37, 43, 28, 34, 40, 44, 7, 24, 10, 34, 21, 5, 33, 29, 23, 12, 3, 39, 39, 1, 8, 23, 24, 14, 29, 0, 44, 9, 46, 41, 8, 4, 10, 13, 24, 25, 46, 20, 28, 10, 41, 27, 33, 47, 12, 43
            |35, 16, 17, 31, 43, 37, 47, 26, 13, 34, 32, 2, 9, 30, 30, 39, 14, 46, 2, 26, 35, 12, 52, 12, 9, 15, 17, 26, 39, 37, 28, 15, 16, 47, 3, 40, 21, 13, 40, 36, 38, 18, 28, 27, 9, 7, 37, 52, 3, 9, 7, 46, 11, 43, 36, 15, 33, 21, 33, 19, 20, 48, 29, 44, 16, 41, 43, 27, 20, 23, 34, 44, 12, 15, 46, 44, 22, 21, 35, 22, 44, 0, 40, 11, 15, 43, 41, 37, 31, 38, 40, 34, 36, 18, 36, 17, 32, 11, 9, 48, 17
            |6, 24, 31, 29, 5, 36, 9, 19, 36, 32, 18, 39, 49, 15, 21, 11, 36, 8, 42, 36, 33, 46, 12, 40, 32, 35, 32, 15, 17, 30, 38, 31, 23, 8, 42, 12, 35, 27, 1, 35, 23, 42, 26, 14, 39, 33, 38, 12, 42, 48, 33, 11, 42, 14, 17, 35, 34, 21, 37, 39, 35, 9, 15, 4, 27, 12, 13, 24, 22, 17, 15, 12, 32, 31, 10, 4, 20, 19, 5, 28, 9, 40, 0, 43, 33, 16, 6, 14, 12, 14, 15, 36, 25, 26, 13, 40, 30, 28, 41, 9, 35
            |38, 20, 14, 41, 47, 31, 50, 34, 24, 44, 40, 9, 12, 31, 38, 40, 25, 51, 10, 19, 30, 3, 55, 4, 11, 9, 28, 28, 38, 33, 20, 25, 21, 51, 8, 41, 32, 18, 44, 46, 47, 8, 25, 30, 19, 14, 30, 55, 8, 16, 15, 47, 1, 44, 43, 9, 43, 28, 26, 11, 31, 51, 36, 48, 25, 48, 43, 36, 27, 28, 35, 45, 22, 25, 48, 48, 24, 24, 39, 19, 46, 11, 43, 0, 26, 43, 44, 37, 33, 45, 47, 45, 34, 18, 37, 8, 27, 16, 20, 52, 28
            |31, 16, 25, 16, 35, 45, 42, 15, 4, 19, 20, 17, 22, 30, 17, 37, 3, 38, 17, 36, 42, 27, 45, 26, 18, 25, 2, 24, 39, 42, 38, 2, 16, 39, 18, 38, 6, 13, 34, 20, 25, 31, 33, 25, 8, 13, 45, 45, 18, 19, 11, 42, 25, 41, 24, 25, 17, 13, 42, 31, 6, 42, 19, 37, 6, 30, 40, 13, 11, 17, 34, 41, 4, 2, 42, 37, 24, 19, 28, 29, 41, 15, 33, 26, 0, 42, 37, 36, 29, 26, 28, 19, 40, 22, 35, 29, 38, 14, 10, 40, 3
            |13, 28, 29, 43, 20, 25, 14, 32, 45, 46, 32, 42, 52, 13, 34, 5, 44, 21, 45, 30, 22, 46, 17, 39, 34, 34, 42, 18, 6, 18, 31, 40, 28, 19, 45, 4, 46, 32, 15, 49, 38, 39, 19, 17, 46, 37, 27, 18, 45, 53, 38, 7, 42, 2, 32, 34, 48, 30, 28, 36, 46, 15, 28, 17, 36, 28, 3, 37, 31, 25, 9, 4, 40, 40, 8, 16, 21, 24, 19, 25, 8, 43, 16, 43, 42, 0, 10, 7, 13, 30, 31, 50, 13, 26, 7, 38, 21, 32, 48, 20, 45
            |6, 26, 30, 34, 10, 32, 7, 24, 40, 38, 24, 40, 50, 13, 26, 6, 39, 12, 43, 34, 29, 46, 11, 40, 33, 35, 36, 16, 13, 25, 36, 35, 25, 10, 43, 7, 39, 29, 5, 40, 29, 41, 23, 14, 42, 34, 34, 12, 43, 50, 35, 6, 42, 8, 22, 35, 39, 24, 34, 38, 40, 8, 20, 8, 31, 18, 7, 29, 25, 20, 11, 6, 35, 35, 5, 6, 20, 21, 10, 27, 4, 41, 6, 44, 37, 10, 0, 10, 11, 20, 21, 42, 20, 26, 9, 39, 27, 30, 44, 11, 39
            |9, 22, 23, 38, 19, 22, 16, 27, 38, 42, 28, 35, 45, 6, 30, 4, 38, 22, 38, 24, 19, 40, 20, 33, 28, 28, 36, 12, 4, 16, 26, 34, 22, 20, 38, 4, 40, 25, 14, 44, 35, 33, 14, 11, 39, 30, 24, 21, 38, 46, 32, 11, 35, 7, 28, 28, 43, 24, 24, 30, 40, 17, 23, 17, 30, 26, 6, 32, 25, 19, 2, 8, 33, 34, 12, 16, 14, 17, 16, 19, 10, 37, 14, 37, 36, 7, 10, 0, 7, 27, 28, 45, 10, 19, 1, 31, 17, 26, 41, 21, 39
            |6, 16, 19, 31, 17, 25, 17, 20, 31, 35, 22, 30, 40, 3, 23, 9, 31, 20, 33, 24, 22, 36, 22, 29, 23, 24, 29, 5, 10, 19, 26, 27, 15, 19, 33, 9, 33, 19, 12, 38, 29, 30, 14, 4, 33, 24, 27, 22, 33, 40, 25, 15, 31, 13, 23, 24, 36, 17, 26, 28, 33, 18, 17, 16, 23, 22, 12, 25, 18, 12, 5, 13, 26, 27, 15, 16, 9, 11, 11, 16, 13, 31, 12, 33, 29, 13, 11, 7, 0, 22, 23, 38, 15, 15, 6, 29, 19, 20, 35, 21, 32
            |18, 25, 35, 16, 12, 47, 21, 12, 30, 19, 6, 38, 47, 25, 10, 25, 29, 14, 40, 43, 43, 47, 23, 42, 33, 39, 25, 21, 30, 41, 46, 25, 24, 16, 40, 26, 26, 26, 15, 21, 9, 46, 35, 21, 34, 31, 48, 22, 40, 44, 31, 26, 44, 28, 3, 39, 21, 17, 47, 44, 26, 21, 9, 15, 22, 4, 27, 14, 18, 17, 26, 26, 27, 25, 24, 16, 26, 22, 11, 35, 24, 38, 14, 45, 26, 30, 20, 27, 22, 0, 2, 23, 36, 30, 25, 44, 40, 28, 36, 17, 28
            |19, 27, 37, 17, 12, 49, 22, 13, 31, 19, 8, 40, 48, 26, 11, 26, 31, 14, 42, 45, 45, 49, 23, 44, 35, 41, 26, 23, 32, 43, 48, 27, 26, 16, 42, 27, 27, 28, 16, 21, 8, 48, 37, 22, 36, 33, 50, 22, 42, 46, 33, 26, 46, 29, 4, 41, 22, 19, 48, 46, 28, 21, 11, 16, 24, 4, 28, 15, 20, 19, 28, 27, 29, 27, 25, 17, 28, 24, 13, 37, 25, 40, 15, 47, 28, 31, 21, 28, 23, 2, 0, 23, 38, 32, 27, 46, 42, 30, 37, 17, 29
            |37, 31, 42, 7, 35, 60, 44, 19, 21, 4, 18, 36, 40, 41, 16, 45, 20, 37, 36, 52, 57, 46, 46, 44, 36, 44, 17, 35, 49, 56, 55, 20, 30, 39, 37, 46, 13, 30, 37, 3, 16, 50, 48, 35, 26, 31, 61, 45, 37, 36, 30, 48, 44, 49, 20, 44, 2, 23, 58, 49, 14, 44, 22, 38, 21, 27, 48, 13, 23, 27, 44, 47, 23, 20, 46, 39, 37, 32, 32, 45, 46, 34, 36, 45, 19, 50, 42, 45, 38, 23, 23, 0, 52, 38, 44, 48, 53, 32, 27, 40, 17
            |19, 24, 20, 45, 30, 12, 26, 34, 41, 50, 37, 35, 44, 12, 38, 14, 42, 32, 38, 17, 9, 36, 30, 29, 27, 24, 41, 17, 8, 5, 18, 38, 25, 31, 37, 14, 45, 27, 24, 52, 44, 28, 9, 17, 41, 31, 14, 31, 37, 46, 33, 20, 32, 15, 38, 24, 50, 30, 15, 24, 45, 27, 31, 28, 34, 36, 15, 39, 30, 25, 10, 17, 36, 38, 21, 27, 16, 21, 25, 15, 20, 36, 25, 34, 40, 13, 20, 10, 15, 36, 38, 52, 0, 19, 12, 27, 8, 27, 43, 31, 43
            |21, 7, 5, 32, 30, 23, 32, 22, 23, 36, 27, 16, 26, 13, 26, 23, 23, 34, 19, 14, 20, 21, 37, 14, 9, 9, 23, 11, 21, 20, 17, 21, 8, 34, 19, 23, 28, 9, 26, 38, 35, 16, 11, 12, 22, 12, 23, 37, 19, 27, 14, 30, 16, 26, 30, 9, 36, 16, 20, 14, 28, 33, 22, 30, 18, 32, 26, 26, 16, 13, 17, 27, 18, 21, 30, 30, 6, 8, 23, 6, 28, 18, 26, 18, 22, 26, 26, 19, 15, 30, 32, 38, 19, 0, 19, 14, 16, 8, 24, 35, 25
            |8, 21, 23, 37, 18, 24, 15, 25, 37, 41, 27, 35, 45, 6, 29, 4, 37, 20, 38, 25, 20, 40, 20, 33, 27, 28, 35, 11, 5, 17, 27, 33, 21, 19, 38, 4, 39, 24, 13, 43, 33, 33, 15, 10, 38, 30, 25, 20, 38, 46, 31, 11, 35, 7, 27, 28, 42, 23, 25, 30, 39, 16, 22, 16, 29, 24, 6, 31, 24, 18, 2, 8, 32, 33, 11, 15, 14, 16, 14, 19, 10, 36, 13, 37, 35, 7, 9, 1, 6, 25, 27, 44, 12, 19, 0, 32, 18, 25, 41, 20, 38
            |35, 19, 9, 43, 45, 23, 46, 35, 28, 47, 40, 14, 20, 26, 39, 35, 29, 48, 17, 11, 22, 10, 51, 4, 12, 5, 31, 25, 32, 25, 12, 28, 20, 48, 15, 36, 36, 19, 40, 49, 48, 2, 18, 26, 25, 17, 22, 51, 15, 24, 19, 42, 7, 38, 43, 5, 46, 28, 18, 3, 35, 47, 35, 45, 27, 46, 38, 38, 28, 27, 29, 39, 25, 28, 43, 44, 20, 22, 37, 13, 41, 17, 40, 8, 29, 38, 39, 31, 29, 44, 46, 48, 27, 14, 32, 0, 20, 17, 26, 49, 32
            |25, 23, 15, 47, 36, 7, 33, 35, 39, 51, 39, 30, 38, 16, 40, 21, 40, 38, 33, 9, 4, 30, 37, 23, 23, 18, 39, 19, 16, 5, 10, 37, 23, 37, 32, 21, 44, 25, 30, 53, 47, 21, 6, 20, 38, 28, 8, 38, 32, 41, 30, 28, 26, 23, 41, 18, 51, 30, 7, 17, 44, 34, 34, 34, 34, 40, 23, 40, 31, 26, 16, 25, 35, 37, 28, 33, 16, 21, 30, 10, 27, 32, 30, 27, 38, 21, 27, 17, 19, 40, 42, 53, 8, 16, 18, 20, 0, 24, 40, 38, 42
            |24, 4, 11, 26, 32, 31, 36, 18, 15, 30, 24, 11, 21, 19, 22, 28, 15, 36, 13, 21, 28, 19, 40, 14, 5, 12, 16, 14, 28, 29, 23, 13, 5, 36, 13, 29, 21, 2, 29, 32, 31, 19, 19, 16, 14, 4, 31, 40, 13, 21, 6, 35, 15, 32, 27, 12, 30, 12, 27, 18, 20, 37, 19, 33, 11, 31, 31, 21, 11, 12, 23, 32, 10, 13, 34, 33, 11, 9, 24, 14, 33, 11, 28, 16, 14, 32, 30, 26, 20, 28, 30, 32, 27, 8, 25, 17, 24, 0, 16, 37, 17
            |38, 19, 25, 25, 43, 46, 49, 24, 6, 28, 30, 11, 13, 35, 26, 43, 7, 47, 10, 35, 43, 20, 53, 21, 16, 23, 12, 29, 44, 44, 36, 11, 20, 48, 11, 44, 14, 16, 42, 29, 35, 27, 35, 31, 2, 12, 45, 53, 11, 9, 10, 49, 20, 47, 33, 23, 26, 21, 41, 28, 13, 50, 28, 45, 14, 40, 46, 23, 19, 24, 39, 47, 9, 11, 49, 45, 27, 24, 36, 29, 47, 9, 41, 20, 10, 48, 44, 41, 35, 36, 37, 27, 43, 24, 41, 26, 40, 16, 0, 49, 10
            |15, 33, 40, 34, 6, 43, 6, 26, 44, 36, 23, 48, 57, 23, 26, 17, 43, 3, 50, 44, 40, 55, 6, 49, 41, 44, 39, 24, 24, 36, 46, 39, 32, 1, 51, 17, 42, 36, 9, 38, 25, 51, 34, 23, 47, 41, 45, 5, 51, 57, 42, 13, 51, 17, 20, 44, 38, 28, 45, 48, 42, 6, 22, 4, 35, 13, 17, 30, 30, 25, 22, 15, 40, 39, 12, 5, 29, 28, 13, 37, 12, 48, 9, 52, 40, 20, 11, 21, 21, 17, 17, 40, 31, 35, 20, 49, 38, 37, 49, 0, 43
            |34, 19, 28, 16, 37, 48, 44, 17, 4, 18, 21, 19, 23, 33, 18, 40, 3, 40, 19, 39, 45, 29, 47, 28, 21, 28, 3, 27, 42, 46, 41, 5, 19, 41, 20, 41, 4, 17, 36, 19, 25, 34, 36, 28, 9, 16, 48, 47, 20, 19, 13, 45, 27, 44, 25, 28, 16, 15, 45, 34, 3, 44, 21, 39, 9, 32, 43, 14, 14, 20, 37, 44, 7, 5, 44, 39, 27, 22, 30, 32, 43, 17, 35, 28, 3, 45, 39, 39, 32, 28, 29, 17, 43, 25, 38, 32, 42, 17, 10, 43, 0|];
early = [0, 200, 126, 552, 16, 90, 16, 581, 388, 558, 579, 362, 477, 0, 574, 0, 457, 18, 186, 275, 80, 150, 6, 153, 239, 118, 411, 835, 48, 70, 93, 470, 245, 4, 155, 0, 441, 206, 0, 729, 610, 127, 316, 0, 382, 196, 92, 686, 177, 470, 379, 0, 374, 0, 587, 254, 558, 214, 96, 144, 402, 18, 585, 0, 436, 601, 695, 533, 209, 232, 0, 0, 428, 437, 47, 24, 333, 231, 645, 109, 0, 150, 655, 131, 418, 29, 0, 0, 0, 591, 596, 536, 64, 303, 0, 123, 76, 179, 462, 645, 393];
late = [978, 322, 248, 674, 133, 224, 146, 717, 542, 680, 731, 513, 619, 85, 711, 84, 571, 156, 310, 421, 210, 303, 161, 297, 399, 255, 558, 959, 189, 203, 228, 589, 378, 148, 318, 125, 594, 344, 146, 886, 752, 299, 427, 107, 534, 346, 224, 820, 304, 621, 516, 119, 522, 112, 743, 395, 675, 350, 261, 272, 544, 154, 719, 156, 593, 763, 806, 667, 342, 382, 80, 128, 585, 566, 173, 165, 468, 381, 762, 250, 116, 323, 783, 294, 557, 161, 82, 109, 86, 752, 734, 710, 193, 464, 75, 276, 206, 352, 623, 802, 561];