% n100w120.001    20.39 1037
n = 101;
duration = [|0, 15, 47, 20, 19, 31, 43, 43, 39, 16, 50, 37, 45, 37, 47, 36, 49, 42, 36, 50, 28, 20, 5, 38, 36, 29, 50, 20, 22, 25, 23, 30, 25, 19, 48, 23, 11, 21, 20, 31, 7, 23, 28, 16, 51, 15, 14, 11, 19, 31, 14, 32, 44, 12, 47, 49, 41, 48, 43, 31, 49, 47, 31, 10, 28, 12, 51, 17, 33, 30, 36, 26, 30, 34, 37, 22, 48, 46, 21, 51, 18, 42, 26, 35, 28, 17, 10, 13, 51, 50, 18, 21, 3, 30, 30, 6, 44, 40, 44, 4, 45
            |15, 0, 36, 10, 13, 30, 32, 29, 25, 1, 35, 30, 30, 26, 42, 22, 44, 30, 31, 37, 26, 11, 13, 36, 33, 27, 36, 13, 7, 22, 22, 31, 13, 26, 43, 11, 6, 6, 9, 23, 18, 13, 17, 20, 38, 27, 25, 14, 21, 17, 11, 23, 31, 25, 33, 35, 27, 37, 28, 19, 44, 44, 27, 10, 22, 13, 37, 30, 21, 16, 23, 18, 30, 19, 22, 16, 33, 37, 9, 38, 7, 28, 29, 22, 22, 8, 22, 11, 37, 35, 3, 15, 14, 16, 16, 15, 38, 36, 34, 13, 41
            |47, 36, 0, 27, 28, 28, 4, 17, 18, 36, 21, 13, 23, 10, 21, 18, 20, 7, 19, 8, 27, 44, 42, 25, 21, 26, 20, 47, 31, 26, 28, 32, 23, 42, 21, 41, 42, 32, 42, 52, 45, 24, 19, 37, 9, 50, 47, 37, 34, 36, 47, 14, 9, 50, 22, 13, 23, 3, 23, 17, 21, 25, 22, 46, 21, 35, 13, 53, 15, 30, 14, 21, 30, 29, 25, 49, 22, 6, 27, 8, 30, 17, 35, 17, 21, 43, 47, 47, 15, 21, 36, 26, 44, 26, 21, 42, 14, 22, 3, 47, 21
            |20, 10, 27, 0, 5, 21, 23, 24, 20, 11, 31, 19, 27, 17, 32, 17, 34, 22, 21, 30, 17, 21, 16, 26, 23, 18, 32, 23, 9, 13, 13, 23, 6, 22, 33, 20, 16, 9, 19, 32, 20, 3, 8, 16, 31, 27, 24, 12, 15, 21, 22, 13, 24, 26, 29, 29, 24, 28, 25, 12, 34, 34, 17, 19, 12, 11, 31, 30, 13, 17, 16, 8, 21, 19, 21, 26, 30, 27, 4, 31, 4, 23, 22, 16, 12, 19, 23, 21, 31, 31, 11, 5, 17, 15, 11, 17, 28, 26, 25, 20, 31
            |19, 13, 28, 5, 0, 17, 25, 28, 24, 14, 35, 18, 31, 18, 30, 21, 32, 24, 18, 32, 13, 24, 14, 23, 19, 14, 35, 26, 14, 9, 9, 18, 11, 18, 30, 24, 17, 14, 23, 36, 17, 5, 10, 12, 33, 23, 21, 9, 10, 26, 24, 14, 27, 23, 33, 32, 28, 30, 30, 15, 31, 31, 14, 21, 9, 8, 34, 27, 15, 22, 19, 7, 17, 24, 25, 29, 34, 27, 9, 33, 8, 27, 17, 20, 9, 22, 19, 23, 34, 35, 15, 2, 16, 19, 16, 15, 26, 23, 25, 20, 28
            |31, 30, 28, 21, 17, 0, 27, 36, 33, 31, 43, 15, 42, 22, 17, 31, 20, 28, 9, 35, 4, 41, 26, 7, 8, 3, 43, 43, 30, 8, 8, 4, 25, 17, 18, 41, 33, 30, 39, 53, 26, 19, 20, 16, 36, 26, 24, 20, 12, 42, 40, 18, 32, 28, 42, 38, 39, 31, 40, 25, 19, 16, 6, 36, 11, 19, 38, 29, 23, 37, 27, 15, 2, 38, 38, 45, 43, 23, 25, 35, 24, 36, 8, 30, 11, 38, 25, 39, 40, 43, 32, 16, 28, 33, 28, 25, 17, 10, 25, 34, 15
            |43, 32, 4, 23, 25, 27, 0, 13, 13, 32, 18, 12, 19, 6, 23, 14, 23, 3, 18, 8, 26, 39, 39, 26, 21, 25, 18, 42, 26, 24, 26, 31, 19, 40, 23, 37, 38, 27, 38, 48, 42, 21, 15, 35, 9, 47, 44, 34, 31, 32, 43, 11, 6, 47, 18, 11, 19, 5, 19, 13, 24, 27, 21, 42, 18, 32, 12, 51, 11, 26, 10, 18, 29, 24, 21, 45, 19, 9, 23, 8, 26, 13, 33, 13, 18, 39, 44, 43, 13, 18, 31, 23, 41, 21, 17, 39, 16, 22, 4, 43, 23
            |43, 29, 17, 24, 28, 36, 13, 0, 4, 29, 7, 23, 6, 14, 36, 7, 36, 10, 29, 12, 34, 33, 39, 37, 32, 34, 8, 36, 22, 31, 33, 40, 18, 45, 36, 30, 35, 23, 32, 39, 44, 23, 18, 39, 12, 51, 48, 36, 37, 23, 39, 18, 7, 50, 6, 7, 6, 15, 6, 13, 36, 40, 30, 39, 26, 35, 9, 54, 13, 17, 9, 23, 38, 14, 10, 38, 7, 22, 22, 13, 25, 1, 41, 8, 26, 33, 47, 39, 8, 7, 27, 26, 41, 14, 13, 41, 29, 34, 17, 42, 36
            |39, 25, 18, 20, 24, 33, 13, 4, 0, 24, 11, 21, 8, 12, 35, 3, 35, 11, 27, 15, 31, 29, 35, 35, 30, 31, 12, 32, 18, 28, 29, 37, 13, 41, 35, 26, 31, 19, 28, 36, 40, 19, 14, 35, 15, 47, 44, 32, 33, 19, 35, 15, 9, 46, 9, 11, 6, 17, 7, 9, 36, 39, 27, 34, 23, 30, 13, 50, 10, 13, 6, 19, 35, 11, 8, 34, 10, 22, 17, 16, 21, 4, 38, 4, 23, 29, 42, 35, 12, 11, 23, 22, 37, 10, 9, 36, 28, 32, 18, 38, 34
            |16, 1, 36, 11, 14, 31, 32, 29, 24, 0, 35, 30, 30, 26, 43, 22, 45, 30, 31, 37, 27, 10, 14, 37, 33, 28, 36, 12, 7, 23, 22, 32, 13, 27, 44, 10, 6, 5, 9, 22, 19, 14, 18, 21, 38, 28, 26, 15, 22, 16, 11, 23, 31, 26, 32, 35, 26, 37, 27, 19, 45, 45, 28, 10, 23, 14, 37, 31, 21, 15, 23, 19, 31, 18, 21, 15, 33, 37, 9, 38, 7, 28, 30, 22, 23, 8, 23, 11, 37, 35, 2, 16, 15, 15, 16, 16, 38, 37, 35, 14, 41
            |50, 35, 21, 31, 35, 43, 18, 7, 11, 35, 0, 29, 6, 21, 41, 14, 41, 16, 36, 13, 41, 38, 46, 43, 38, 40, 1, 41, 28, 38, 40, 47, 25, 52, 41, 35, 41, 30, 37, 42, 51, 30, 25, 46, 13, 58, 55, 43, 44, 26, 44, 25, 12, 57, 3, 8, 9, 18, 8, 20, 41, 45, 37, 45, 33, 42, 9, 62, 21, 22, 16, 30, 45, 18, 14, 42, 3, 26, 28, 14, 32, 8, 48, 15, 33, 39, 54, 45, 6, 0, 33, 34, 48, 20, 20, 48, 34, 40, 22, 48, 41
            |37, 30, 13, 19, 18, 15, 12, 23, 21, 30, 29, 0, 29, 9, 14, 20, 16, 13, 6, 20, 14, 39, 32, 14, 9, 13, 29, 42, 26, 14, 16, 19, 18, 30, 15, 38, 35, 27, 38, 50, 34, 16, 13, 25, 21, 38, 35, 26, 22, 36, 41, 8, 17, 39, 29, 23, 27, 16, 28, 15, 16, 17, 9, 39, 9, 25, 24, 41, 13, 29, 16, 11, 17, 30, 28, 44, 30, 9, 21, 20, 23, 23, 22, 19, 9, 38, 35, 40, 25, 29, 30, 16, 34, 25, 19, 32, 9, 11, 10, 38, 13
            |45, 30, 23, 27, 31, 42, 19, 6, 8, 30, 6, 29, 0, 20, 42, 11, 42, 17, 35, 17, 39, 32, 42, 43, 38, 39, 7, 35, 23, 36, 37, 45, 21, 49, 42, 29, 36, 24, 31, 36, 47, 26, 22, 43, 17, 54, 51, 39, 41, 20, 39, 23, 13, 53, 3, 11, 4, 21, 2, 17, 43, 46, 35, 39, 31, 38, 13, 58, 18, 16, 14, 28, 43, 12, 9, 36, 3, 28, 24, 18, 28, 6, 46, 12, 31, 33, 50, 39, 11, 6, 28, 30, 43, 14, 16, 43, 35, 40, 24, 43, 42
            |37, 26, 10, 17, 18, 22, 6, 14, 12, 26, 21, 9, 20, 0, 23, 11, 23, 6, 15, 14, 21, 34, 32, 23, 18, 20, 21, 37, 21, 18, 21, 26, 13, 34, 23, 32, 32, 22, 33, 44, 36, 14, 9, 29, 15, 41, 38, 27, 25, 28, 37, 5, 9, 41, 20, 15, 18, 11, 19, 8, 24, 26, 16, 36, 13, 26, 16, 45, 5, 22, 7, 12, 24, 21, 19, 40, 21, 12, 17, 14, 20, 14, 28, 10, 13, 33, 38, 37, 17, 21, 26, 17, 34, 18, 12, 33, 16, 20, 8, 37, 22
            |47, 42, 21, 32, 30, 17, 23, 36, 35, 43, 41, 14, 42, 23, 0, 34, 3, 25, 12, 29, 19, 53, 42, 10, 10, 18, 41, 55, 40, 22, 24, 20, 33, 34, 1, 52, 47, 40, 51, 64, 43, 29, 27, 32, 30, 43, 41, 35, 28, 50, 53, 22, 29, 45, 42, 34, 41, 24, 42, 30, 2, 4, 16, 51, 20, 35, 34, 46, 27, 44, 30, 24, 19, 44, 42, 58, 43, 15, 35, 29, 36, 36, 24, 33, 20, 51, 42, 53, 36, 41, 43, 28, 44, 40, 34, 41, 7, 7, 19, 49, 2
            |36, 22, 18, 17, 21, 31, 14, 7, 3, 22, 14, 20, 11, 11, 34, 0, 34, 11, 25, 16, 28, 27, 32, 33, 28, 28, 15, 30, 15, 25, 27, 35, 11, 39, 34, 24, 28, 16, 26, 35, 37, 16, 12, 32, 17, 44, 41, 29, 30, 18, 32, 13, 10, 43, 12, 13, 8, 17, 9, 6, 35, 37, 25, 32, 20, 28, 15, 47, 8, 12, 4, 17, 32, 11, 8, 32, 13, 22, 14, 17, 18, 6, 35, 1, 20, 27, 40, 32, 15, 14, 20, 20, 34, 8, 6, 33, 27, 31, 18, 35, 33
            |49, 44, 20, 34, 32, 20, 23, 36, 35, 45, 41, 16, 42, 23, 3, 34, 0, 25, 14, 28, 22, 54, 44, 13, 13, 21, 40, 57, 42, 25, 26, 23, 34, 37, 2, 53, 49, 42, 53, 65, 45, 31, 28, 35, 29, 46, 44, 38, 31, 51, 55, 23, 29, 48, 41, 33, 41, 23, 42, 31, 1, 6, 19, 53, 22, 37, 33, 49, 28, 45, 30, 26, 22, 45, 43, 60, 42, 14, 36, 28, 38, 36, 27, 34, 22, 53, 45, 55, 35, 41, 45, 30, 46, 41, 35, 44, 7, 10, 18, 52, 5
            |42, 30, 7, 22, 24, 28, 3, 10, 11, 30, 16, 13, 17, 6, 25, 11, 25, 0, 20, 8, 26, 37, 37, 27, 23, 26, 16, 40, 24, 24, 26, 32, 17, 40, 26, 34, 36, 25, 36, 45, 41, 19, 14, 34, 9, 47, 44, 33, 31, 29, 41, 11, 4, 47, 16, 10, 16, 7, 17, 11, 26, 29, 21, 40, 18, 31, 11, 50, 9, 23, 7, 17, 30, 21, 18, 42, 17, 12, 21, 9, 24, 11, 34, 10, 18, 36, 43, 41, 12, 16, 29, 22, 39, 19, 14, 38, 18, 24, 7, 42, 25
            |36, 31, 19, 21, 18, 9, 18, 29, 27, 31, 36, 6, 35, 15, 12, 25, 14, 20, 0, 26, 9, 41, 31, 8, 3, 9, 36, 43, 29, 11, 13, 13, 22, 25, 13, 40, 35, 29, 40, 52, 32, 18, 16, 22, 27, 34, 32, 24, 18, 39, 42, 12, 24, 35, 35, 29, 33, 22, 34, 20, 13, 13, 5, 39, 9, 24, 30, 37, 17, 34, 21, 13, 11, 34, 33, 46, 36, 14, 23, 26, 24, 29, 17, 24, 9, 39, 32, 41, 32, 36, 32, 16, 33, 30, 24, 30, 9, 6, 16, 38, 10
            |50, 37, 8, 30, 32, 35, 8, 12, 15, 37, 13, 20, 17, 14, 29, 16, 28, 8, 26, 0, 33, 43, 45, 33, 29, 33, 13, 46, 31, 32, 34, 39, 25, 48, 29, 40, 43, 32, 42, 50, 49, 27, 22, 42, 1, 55, 52, 41, 39, 34, 48, 19, 6, 55, 15, 6, 18, 5, 18, 18, 29, 33, 29, 47, 26, 39, 5, 58, 17, 28, 14, 25, 37, 26, 22, 48, 16, 14, 29, 1, 32, 13, 41, 16, 26, 43, 51, 48, 7, 13, 36, 30, 47, 24, 21, 46, 22, 29, 10, 49, 29
            |28, 26, 27, 17, 13, 4, 26, 34, 31, 27, 41, 14, 39, 21, 19, 28, 22, 26, 9, 33, 0, 37, 23, 10, 9, 1, 41, 39, 27, 4, 5, 6, 21, 16, 20, 37, 30, 26, 36, 49, 23, 16, 17, 13, 35, 25, 22, 17, 9, 39, 36, 16, 30, 26, 40, 36, 36, 30, 38, 22, 21, 19, 5, 33, 8, 16, 37, 28, 21, 34, 25, 12, 4, 35, 35, 42, 41, 23, 21, 34, 21, 34, 8, 27, 8, 35, 23, 35, 38, 41, 28, 12, 25, 30, 25, 22, 18, 12, 24, 30, 17
            |20, 11, 44, 21, 24, 41, 39, 33, 29, 10, 38, 39, 32, 34, 53, 27, 54, 37, 41, 43, 37, 0, 21, 47, 43, 38, 39, 3, 13, 33, 32, 42, 21, 36, 53, 4, 10, 13, 1, 12, 26, 23, 26, 30, 44, 35, 33, 24, 32, 13, 8, 32, 37, 32, 35, 40, 29, 44, 30, 26, 54, 54, 37, 11, 33, 23, 42, 37, 29, 16, 30, 28, 40, 20, 24, 5, 35, 46, 18, 44, 17, 32, 40, 27, 33, 3, 30, 9, 41, 38, 9, 25, 21, 19, 23, 23, 48, 47, 42, 17, 51
            |5, 13, 42, 16, 14, 26, 39, 39, 35, 14, 46, 32, 42, 32, 42, 32, 44, 37, 31, 45, 23, 21, 0, 33, 31, 24, 47, 21, 19, 20, 18, 25, 22, 15, 43, 23, 11, 18, 20, 33, 5, 18, 23, 11, 47, 14, 12, 6, 14, 30, 16, 28, 40, 12, 44, 45, 38, 44, 40, 27, 44, 42, 26, 12, 23, 7, 47, 17, 28, 28, 32, 21, 25, 32, 34, 24, 45, 41, 18, 46, 14, 39, 22, 32, 23, 18, 9, 15, 47, 46, 16, 16, 2, 28, 26, 2, 39, 35, 40, 8, 40
            |38, 36, 25, 26, 23, 7, 26, 37, 35, 37, 43, 14, 43, 23, 10, 33, 13, 27, 8, 33, 10, 47, 33, 0, 5, 9, 44, 49, 36, 14, 15, 10, 29, 24, 11, 46, 40, 35, 45, 58, 33, 24, 23, 23, 35, 33, 31, 27, 19, 47, 46, 20, 32, 35, 43, 37, 41, 29, 42, 28, 12, 9, 9, 43, 15, 26, 38, 36, 25, 41, 29, 19, 9, 42, 41, 52, 44, 20, 30, 34, 30, 37, 14, 32, 15, 45, 32, 46, 39, 43, 38, 21, 35, 37, 31, 32, 13, 4, 23, 41, 8
            |36, 33, 21, 23, 19, 8, 21, 32, 30, 33, 38, 9, 38, 18, 10, 28, 13, 23, 3, 29, 9, 43, 31, 5, 0, 8, 39, 45, 31, 12, 13, 12, 24, 25, 11, 43, 37, 31, 42, 55, 32, 20, 19, 22, 30, 33, 31, 25, 18, 42, 43, 15, 27, 35, 38, 32, 36, 24, 37, 23, 12, 11, 6, 40, 11, 24, 33, 37, 20, 36, 24, 15, 10, 37, 36, 48, 39, 16, 26, 29, 26, 32, 15, 27, 11, 41, 32, 43, 34, 38, 34, 18, 33, 32, 27, 31, 10, 4, 18, 39, 9
            |29, 27, 26, 18, 14, 3, 25, 34, 31, 28, 40, 13, 39, 20, 18, 28, 21, 26, 9, 33, 1, 38, 24, 9, 8, 0, 41, 40, 27, 5, 6, 6, 21, 17, 19, 38, 30, 27, 36, 50, 24, 16, 17, 14, 34, 25, 23, 17, 10, 39, 37, 16, 30, 27, 40, 35, 36, 29, 37, 22, 20, 18, 4, 34, 8, 17, 36, 29, 20, 34, 25, 12, 4, 35, 35, 43, 41, 22, 22, 33, 21, 33, 8, 27, 8, 35, 24, 36, 38, 40, 29, 13, 26, 30, 25, 23, 17, 11, 23, 31, 16
            |50, 36, 20, 32, 35, 43, 18, 8, 12, 36, 1, 29, 7, 21, 41, 15, 40, 16, 36, 13, 41, 39, 47, 44, 39, 41, 0, 42, 29, 38, 40, 47, 25, 53, 41, 36, 42, 30, 38, 43, 52, 30, 26, 47, 13, 59, 56, 44, 45, 27, 45, 25, 12, 58, 4, 7, 10, 18, 9, 21, 41, 45, 37, 46, 33, 42, 8, 62, 21, 23, 17, 31, 45, 19, 15, 43, 4, 26, 29, 13, 33, 8, 49, 16, 33, 40, 54, 46, 6, 1, 34, 34, 49, 21, 21, 48, 34, 40, 22, 49, 41
            |20, 13, 47, 23, 26, 43, 42, 36, 32, 12, 41, 42, 35, 37, 55, 30, 57, 40, 43, 46, 39, 3, 21, 49, 45, 40, 42, 0, 16, 35, 34, 43, 24, 36, 56, 6, 10, 15, 4, 11, 26, 26, 29, 31, 47, 35, 33, 25, 33, 16, 6, 34, 40, 32, 38, 43, 32, 47, 33, 29, 57, 57, 40, 10, 35, 25, 45, 37, 32, 19, 33, 31, 42, 23, 26, 3, 38, 48, 21, 47, 19, 35, 41, 30, 35, 4, 30, 7, 44, 41, 12, 28, 21, 22, 25, 23, 50, 49, 45, 16, 53
            |22, 7, 31, 9, 14, 30, 26, 22, 18, 7, 28, 26, 23, 21, 40, 15, 42, 24, 29, 31, 27, 13, 19, 36, 31, 27, 29, 16, 0, 22, 23, 32, 8, 30, 41, 11, 13, 1, 12, 23, 25, 12, 14, 24, 32, 33, 30, 19, 24, 12, 17, 19, 25, 31, 26, 29, 19, 31, 21, 13, 42, 43, 26, 17, 21, 17, 31, 36, 16, 9, 17, 16, 31, 12, 15, 18, 26, 33, 6, 32, 7, 21, 31, 15, 21, 12, 28, 17, 30, 28, 5, 15, 21, 9, 10, 21, 35, 35, 29, 20, 39
            |25, 22, 26, 13, 9, 8, 24, 31, 28, 23, 38, 14, 36, 18, 22, 25, 25, 24, 11, 32, 4, 33, 20, 14, 12, 5, 38, 35, 22, 0, 2, 10, 17, 16, 23, 33, 26, 22, 31, 45, 21, 11, 13, 11, 33, 24, 21, 13, 8, 34, 32, 14, 28, 25, 37, 34, 33, 29, 34, 19, 24, 23, 6, 29, 6, 13, 35, 27, 17, 29, 22, 8, 8, 31, 31, 38, 38, 23, 17, 33, 16, 30, 10, 24, 6, 30, 21, 31, 36, 38, 24, 8, 22, 26, 21, 19, 20, 15, 23, 27, 20
            |23, 22, 28, 13, 9, 8, 26, 33, 29, 22, 40, 16, 37, 21, 24, 27, 26, 26, 13, 34, 5, 32, 18, 15, 13, 6, 40, 34, 23, 2, 0, 9, 18, 14, 25, 33, 25, 22, 31, 44, 19, 12, 15, 9, 35, 22, 19, 12, 5, 35, 31, 16, 30, 23, 38, 36, 34, 31, 36, 20, 26, 24, 8, 28, 8, 11, 37, 25, 19, 30, 24, 10, 8, 32, 32, 37, 39, 26, 17, 35, 16, 32, 9, 26, 8, 30, 19, 30, 38, 40, 24, 8, 20, 27, 22, 17, 22, 17, 26, 25, 22
            |30, 31, 32, 23, 18, 4, 31, 40, 37, 32, 47, 19, 45, 26, 20, 35, 23, 32, 13, 39, 6, 42, 25, 10, 12, 6, 47, 43, 32, 10, 9, 0, 27, 14, 21, 42, 33, 32, 40, 54, 24, 21, 23, 14, 40, 23, 21, 19, 11, 44, 40, 22, 36, 25, 46, 42, 43, 35, 44, 28, 22, 19, 10, 36, 14, 19, 43, 26, 27, 39, 31, 18, 2, 41, 41, 46, 47, 28, 27, 39, 26, 40, 4, 34, 14, 39, 23, 39, 44, 47, 33, 17, 27, 36, 31, 24, 21, 14, 29, 33, 18
            |25, 13, 23, 6, 11, 25, 19, 18, 13, 13, 25, 18, 21, 13, 33, 11, 34, 17, 22, 25, 21, 21, 22, 29, 24, 21, 25, 24, 8, 17, 18, 27, 0, 29, 33, 19, 19, 9, 20, 31, 26, 6, 6, 22, 26, 33, 31, 18, 21, 18, 24, 11, 19, 33, 23, 23, 17, 24, 19, 6, 34, 35, 19, 23, 14, 17, 25, 37, 8, 12, 10, 9, 25, 14, 15, 26, 23, 25, 4, 25, 8, 17, 27, 10, 14, 20, 29, 24, 25, 25, 12, 10, 23, 9, 5, 23, 27, 27, 22, 25, 31
            |19, 26, 42, 22, 18, 17, 40, 45, 41, 27, 52, 30, 49, 34, 34, 39, 37, 40, 25, 48, 16, 36, 15, 24, 25, 17, 53, 36, 30, 16, 14, 14, 29, 0, 35, 37, 26, 29, 35, 48, 12, 23, 27, 6, 49, 9, 7, 12, 8, 42, 31, 29, 43, 11, 51, 49, 46, 44, 47, 32, 36, 33, 21, 27, 21, 13, 50, 12, 32, 39, 36, 23, 15, 42, 43, 39, 52, 39, 26, 48, 24, 45, 10, 38, 21, 33, 9, 30, 51, 52, 29, 19, 16, 37, 34, 13, 34, 27, 39, 22, 32
            |48, 43, 21, 33, 30, 18, 23, 36, 35, 44, 41, 15, 42, 23, 1, 34, 2, 26, 13, 29, 20, 53, 43, 11, 11, 19, 41, 56, 41, 23, 25, 21, 33, 35, 0, 52, 48, 41, 52, 64, 44, 30, 28, 33, 30, 44, 42, 36, 29, 51, 54, 23, 29, 46, 42, 34, 41, 24, 42, 30, 1, 4, 17, 51, 21, 36, 34, 47, 27, 44, 30, 25, 20, 44, 42, 59, 43, 15, 35, 29, 37, 36, 25, 34, 21, 52, 43, 54, 36, 41, 44, 29, 45, 40, 34, 42, 7, 8, 19, 50, 3
            |23, 11, 41, 20, 24, 41, 37, 30, 26, 10, 35, 38, 29, 32, 52, 24, 53, 34, 40, 40, 37, 4, 23, 46, 43, 38, 36, 6, 11, 33, 33, 42, 19, 37, 52, 0, 12, 11, 4, 12, 28, 23, 25, 32, 41, 37, 35, 25, 33, 9, 11, 30, 35, 35, 32, 37, 25, 41, 26, 24, 53, 54, 37, 14, 32, 25, 39, 40, 27, 13, 27, 28, 41, 16, 20, 8, 32, 44, 17, 41, 17, 29, 40, 25, 32, 6, 32, 12, 38, 35, 9, 25, 23, 16, 20, 25, 46, 46, 40, 20, 50
            |11, 6, 42, 16, 17, 33, 38, 35, 31, 6, 41, 35, 36, 32, 47, 28, 49, 36, 35, 43, 30, 10, 11, 40, 37, 30, 42, 10, 13, 26, 25, 33, 19, 26, 48, 12, 0, 12, 9, 22, 16, 19, 23, 21, 45, 25, 23, 15, 23, 20, 6, 28, 37, 22, 38, 41, 32, 43, 34, 25, 49, 48, 31, 4, 27, 14, 43, 27, 27, 21, 29, 23, 33, 24, 27, 13, 39, 43, 15, 44, 12, 34, 31, 28, 27, 7, 20, 6, 43, 41, 8, 19, 11, 21, 23, 13, 43, 40, 40, 8, 45
            |21, 6, 32, 9, 14, 30, 27, 23, 19, 5, 30, 27, 24, 22, 40, 16, 42, 25, 29, 32, 26, 13, 18, 35, 31, 27, 30, 15, 1, 22, 22, 32, 9, 29, 41, 11, 12, 0, 11, 23, 23, 11, 14, 23, 33, 32, 29, 17, 23, 13, 16, 19, 26, 30, 27, 30, 21, 32, 22, 14, 42, 42, 26, 16, 21, 16, 32, 35, 16, 10, 18, 16, 30, 14, 16, 18, 27, 33, 6, 33, 6, 22, 31, 16, 21, 11, 27, 16, 31, 30, 4, 14, 19, 10, 11, 20, 35, 35, 30, 19, 39
            |20, 9, 42, 19, 23, 39, 38, 32, 28, 9, 37, 38, 31, 33, 51, 26, 53, 36, 40, 42, 36, 1, 20, 45, 42, 36, 38, 4, 12, 31, 31, 40, 20, 35, 52, 4, 9, 11, 0, 13, 25, 22, 25, 29, 43, 34, 32, 23, 30, 13, 8, 30, 36, 31, 34, 39, 28, 43, 29, 25, 53, 53, 36, 10, 31, 22, 41, 36, 28, 16, 28, 27, 39, 19, 23, 7, 34, 44, 17, 43, 16, 31, 38, 26, 31, 2, 29, 8, 40, 37, 8, 24, 20, 18, 21, 22, 46, 45, 41, 16, 50
            |31, 23, 52, 32, 36, 53, 48, 39, 36, 22, 42, 50, 36, 44, 64, 35, 65, 45, 52, 50, 49, 12, 33, 58, 55, 50, 43, 11, 23, 45, 44, 54, 31, 48, 64, 12, 22, 23, 13, 0, 37, 35, 37, 42, 51, 46, 44, 36, 44, 16, 17, 42, 45, 43, 39, 46, 33, 52, 34, 36, 65, 66, 49, 21, 44, 35, 48, 48, 38, 22, 38, 40, 52, 25, 29, 9, 39, 55, 29, 51, 29, 38, 52, 35, 44, 15, 41, 18, 47, 42, 21, 37, 32, 26, 31, 35, 58, 58, 51, 27, 62
            |7, 18, 45, 20, 17, 26, 42, 44, 40, 19, 51, 34, 47, 36, 43, 37, 45, 41, 32, 49, 23, 26, 5, 33, 32, 24, 52, 26, 25, 21, 19, 24, 26, 12, 44, 28, 16, 23, 25, 37, 0, 22, 27, 10, 51, 9, 7, 9, 14, 35, 20, 31, 44, 7, 49, 49, 43, 47, 45, 32, 45, 42, 27, 16, 25, 10, 51, 12, 32, 34, 36, 24, 24, 37, 39, 28, 49, 44, 23, 50, 19, 43, 21, 36, 25, 23, 4, 19, 51, 51, 22, 19, 5, 33, 31, 4, 41, 36, 43, 11, 41
            |23, 13, 24, 3, 5, 19, 21, 23, 19, 14, 30, 16, 26, 14, 29, 16, 31, 19, 18, 27, 16, 23, 18, 24, 20, 16, 30, 26, 12, 11, 12, 21, 6, 23, 30, 23, 19, 11, 22, 35, 22, 0, 5, 17, 29, 28, 25, 14, 15, 23, 25, 10, 22, 28, 28, 27, 23, 26, 25, 10, 31, 31, 14, 23, 9, 12, 29, 32, 10, 18, 14, 5, 19, 20, 21, 29, 29, 24, 6, 28, 7, 22, 21, 15, 9, 22, 24, 24, 29, 30, 14, 4, 20, 15, 11, 19, 25, 23, 22, 23, 28
            |28, 17, 19, 8, 10, 20, 15, 18, 14, 18, 25, 13, 22, 9, 27, 12, 28, 14, 16, 22, 17, 26, 23, 23, 19, 17, 26, 29, 14, 13, 15, 23, 6, 27, 28, 25, 23, 14, 25, 37, 27, 5, 0, 21, 23, 33, 30, 19, 19, 23, 29, 5, 17, 33, 24, 22, 20, 20, 21, 5, 28, 29, 14, 27, 9, 17, 24, 37, 5, 17, 9, 5, 21, 18, 18, 32, 25, 20, 9, 23, 11, 17, 24, 11, 9, 25, 29, 29, 24, 25, 17, 8, 25, 14, 8, 24, 21, 22, 17, 28, 26
            |16, 20, 37, 16, 12, 16, 35, 39, 35, 21, 46, 25, 43, 29, 32, 32, 35, 34, 22, 42, 13, 30, 11, 23, 22, 14, 47, 31, 24, 11, 9, 14, 22, 6, 33, 32, 21, 23, 29, 42, 10, 17, 21, 0, 44, 13, 10, 6, 4, 36, 27, 24, 38, 13, 45, 43, 40, 39, 41, 26, 34, 32, 17, 23, 17, 7, 45, 16, 26, 33, 30, 17, 14, 35, 37, 34, 45, 35, 20, 43, 17, 39, 11, 32, 17, 28, 10, 26, 45, 46, 23, 13, 13, 31, 27, 10, 31, 25, 34, 19, 30
            |51, 38, 9, 31, 33, 36, 9, 12, 15, 38, 13, 21, 17, 15, 30, 17, 29, 9, 27, 1, 35, 44, 47, 35, 30, 34, 13, 47, 32, 33, 35, 40, 26, 49, 30, 41, 45, 33, 43, 51, 51, 29, 23, 44, 0, 56, 53, 42, 40, 34, 49, 20, 7, 56, 15, 6, 18, 6, 18, 20, 30, 34, 30, 49, 28, 41, 4, 60, 18, 29, 15, 27, 38, 26, 22, 49, 16, 15, 30, 1, 33, 13, 43, 17, 28, 44, 52, 49, 7, 13, 37, 31, 48, 25, 22, 47, 23, 31, 12, 51, 30
            |15, 27, 50, 27, 23, 26, 47, 51, 47, 28, 58, 38, 54, 41, 43, 44, 46, 47, 34, 55, 25, 35, 14, 33, 33, 25, 59, 35, 33, 24, 22, 23, 33, 9, 44, 37, 25, 32, 34, 46, 9, 28, 33, 13, 56, 0, 3, 15, 16, 44, 29, 36, 50, 4, 56, 55, 51, 52, 52, 38, 45, 42, 29, 25, 29, 16, 57, 4, 38, 42, 42, 29, 24, 45, 47, 37, 57, 47, 30, 55, 27, 50, 19, 43, 29, 32, 5, 28, 57, 58, 30, 25, 14, 41, 38, 12, 43, 36, 47, 19, 41
            |14, 25, 47, 24, 21, 24, 44, 48, 44, 26, 55, 35, 51, 38, 41, 41, 44, 44, 32, 52, 22, 33, 12, 31, 31, 23, 56, 33, 30, 21, 19, 21, 31, 7, 42, 35, 23, 29, 32, 44, 7, 25, 30, 10, 53, 3, 0, 12, 14, 41, 27, 33, 47, 4, 53, 52, 48, 49, 49, 35, 43, 40, 27, 23, 26, 14, 54, 6, 35, 39, 40, 27, 22, 42, 44, 35, 54, 45, 27, 53, 24, 47, 17, 40, 26, 30, 3, 26, 55, 55, 28, 22, 12, 38, 36, 10, 41, 34, 44, 18, 39
            |11, 14, 37, 12, 9, 20, 34, 36, 32, 15, 43, 26, 39, 27, 35, 29, 38, 33, 24, 41, 17, 24, 6, 27, 25, 17, 44, 25, 19, 13, 12, 19, 18, 12, 36, 25, 15, 17, 23, 36, 9, 14, 19, 6, 42, 15, 12, 0, 8, 30, 21, 22, 36, 14, 41, 41, 36, 39, 37, 23, 37, 36, 19, 17, 17, 1, 42, 18, 24, 28, 28, 16, 19, 30, 32, 28, 42, 35, 15, 42, 12, 35, 16, 28, 17, 21, 11, 20, 43, 43, 17, 11, 8, 26, 23, 6, 33, 28, 34, 14, 34
            |19, 21, 34, 15, 10, 12, 31, 37, 33, 22, 44, 22, 41, 25, 28, 30, 31, 31, 18, 39, 9, 32, 14, 19, 18, 10, 45, 33, 24, 8, 5, 11, 21, 8, 29, 33, 23, 23, 30, 44, 14, 15, 19, 4, 40, 16, 14, 8, 0, 36, 29, 21, 35, 17, 43, 40, 38, 36, 39, 24, 30, 28, 13, 25, 13, 9, 42, 20, 24, 32, 28, 14, 10, 35, 35, 36, 43, 31, 19, 40, 17, 36, 8, 30, 13, 29, 14, 28, 43, 44, 24, 11, 16, 30, 26, 13, 27, 21, 31, 22, 26
            |31, 17, 36, 21, 26, 42, 32, 23, 19, 16, 26, 36, 20, 28, 50, 18, 51, 29, 39, 34, 39, 13, 30, 47, 42, 39, 27, 16, 12, 34, 35, 44, 18, 42, 51, 9, 20, 13, 13, 16, 35, 23, 23, 36, 34, 44, 41, 30, 36, 0, 21, 28, 28, 42, 23, 30, 17, 36, 18, 21, 51, 53, 37, 23, 32, 29, 32, 47, 23, 6, 22, 27, 42, 8, 12, 17, 23, 40, 17, 35, 19, 22, 43, 19, 32, 15, 39, 21, 30, 26, 14, 27, 30, 11, 16, 32, 44, 45, 36, 28, 49
            |14, 11, 47, 22, 24, 40, 43, 39, 35, 11, 44, 41, 39, 37, 53, 32, 55, 41, 42, 48, 36, 8, 16, 46, 43, 37, 45, 6, 17, 32, 31, 40, 24, 31, 54, 11, 6, 16, 8, 17, 20, 25, 29, 27, 49, 29, 27, 21, 29, 21, 0, 34, 42, 26, 41, 46, 35, 48, 36, 30, 55, 55, 37, 4, 33, 21, 48, 31, 32, 23, 34, 30, 39, 26, 30, 8, 42, 49, 20, 49, 18, 38, 37, 32, 33, 6, 24, 1, 47, 44, 12, 26, 16, 25, 27, 18, 49, 47, 46, 10, 52
            |32, 23, 14, 13, 14, 18, 11, 18, 15, 23, 25, 8, 23, 5, 22, 13, 23, 11, 12, 19, 16, 32, 28, 20, 15, 16, 25, 34, 19, 14, 16, 22, 11, 29, 23, 30, 28, 19, 30, 42, 31, 10, 5, 24, 20, 36, 33, 22, 21, 28, 34, 0, 14, 36, 24, 20, 21, 16, 22, 8, 23, 25, 12, 32, 8, 21, 21, 40, 5, 22, 9, 7, 20, 22, 21, 37, 25, 14, 14, 19, 16, 17, 24, 12, 8, 30, 33, 34, 22, 25, 23, 12, 30, 17, 12, 28, 16, 18, 12, 33, 21
            |44, 31, 9, 24, 27, 32, 6, 7, 9, 31, 12, 17, 13, 9, 29, 10, 29, 4, 24, 6, 30, 37, 40, 32, 27, 30, 12, 40, 25, 28, 30, 36, 19, 43, 29, 35, 37, 26, 36, 45, 44, 22, 17, 38, 7, 50, 47, 36, 35, 28, 42, 14, 0, 50, 12, 6, 13, 8, 14, 13, 30, 33, 25, 41, 22, 34, 7, 53, 12, 22, 8, 21, 34, 20, 17, 42, 13, 15, 23, 7, 26, 8, 38, 10, 22, 37, 46, 42, 8, 12, 30, 25, 42, 18, 15, 41, 22, 28, 10, 44, 29
            |12, 25, 50, 26, 23, 28, 47, 50, 46, 26, 57, 39, 53, 41, 45, 43, 48, 47, 35, 55, 26, 32, 12, 35, 35, 27, 58, 32, 31, 25, 23, 25, 33, 11, 46, 35, 22, 30, 31, 43, 7, 28, 33, 13, 56, 4, 4, 14, 17, 42, 26, 36, 50, 0, 55, 55, 50, 52, 51, 38, 47, 44, 30, 22, 30, 16, 57, 5, 38, 40, 42, 30, 26, 44, 46, 34, 56, 48, 29, 56, 26, 50, 21, 42, 30, 29, 4, 25, 57, 57, 28, 25, 11, 39, 37, 10, 44, 38, 48, 16, 43
            |47, 33, 22, 29, 33, 42, 18, 6, 9, 32, 3, 29, 3, 20, 42, 12, 41, 16, 35, 15, 40, 35, 44, 43, 38, 40, 4, 38, 26, 37, 38, 46, 23, 51, 42, 32, 38, 27, 34, 39, 49, 28, 24, 45, 15, 56, 53, 41, 43, 23, 41, 24, 12, 55, 0, 9, 6, 19, 5, 18, 42, 45, 36, 42, 32, 40, 11, 60, 19, 19, 15, 29, 44, 15, 11, 39, 1, 27, 26, 16, 30, 6, 47, 13, 32, 36, 52, 42, 9, 3, 30, 32, 45, 17, 18, 45, 35, 40, 23, 46, 41
            |49, 35, 13, 29, 32, 38, 11, 7, 11, 35, 8, 23, 11, 15, 34, 13, 33, 10, 29, 6, 36, 40, 45, 37, 32, 35, 7, 43, 29, 34, 36, 42, 23, 49, 34, 37, 41, 30, 39, 46, 49, 27, 22, 43, 6, 55, 52, 41, 40, 30, 46, 20, 6, 55, 9, 0, 13, 10, 13, 17, 34, 38, 31, 45, 28, 39, 2, 59, 17, 24, 13, 26, 39, 21, 17, 45, 10, 19, 27, 6, 31, 8, 44, 14, 28, 40, 51, 46, 2, 8, 34, 30, 47, 21, 19, 46, 27, 34, 15, 48, 34
            |41, 27, 23, 24, 28, 39, 19, 6, 6, 26, 9, 27, 4, 18, 41, 8, 41, 16, 33, 18, 36, 29, 38, 41, 36, 36, 10, 32, 19, 33, 34, 43, 17, 46, 41, 25, 32, 21, 28, 33, 43, 23, 20, 40, 18, 51, 48, 36, 38, 17, 35, 21, 13, 50, 6, 13, 0, 21, 1, 14, 42, 45, 33, 36, 28, 34, 15, 54, 16, 12, 12, 25, 40, 9, 5, 33, 7, 28, 21, 19, 24, 6, 43, 9, 28, 29, 46, 35, 13, 9, 24, 27, 40, 11, 13, 40, 34, 38, 23, 40, 41
            |48, 37, 3, 28, 30, 31, 5, 15, 17, 37, 18, 16, 21, 11, 24, 17, 23, 7, 22, 5, 30, 44, 44, 29, 24, 29, 18, 47, 31, 29, 31, 35, 24, 44, 24, 41, 43, 32, 43, 52, 47, 26, 20, 39, 6, 52, 49, 39, 36, 36, 48, 16, 8, 52, 19, 10, 21, 0, 21, 18, 24, 28, 25, 47, 23, 37, 10, 56, 16, 30, 14, 23, 33, 28, 24, 49, 20, 9, 28, 5, 31, 16, 37, 17, 23, 43, 49, 48, 12, 18, 36, 28, 46, 26, 21, 44, 17, 25, 6, 49, 24
            |43, 28, 23, 25, 30, 40, 19, 6, 7, 27, 8, 28, 2, 19, 42, 9, 42, 17, 34, 18, 38, 30, 40, 42, 37, 37, 9, 33, 21, 34, 36, 44, 19, 47, 42, 26, 34, 22, 29, 34, 45, 25, 21, 41, 18, 52, 49, 37, 39, 18, 36, 22, 14, 51, 5, 13, 1, 21, 0, 16, 42, 45, 34, 37, 29, 36, 14, 56, 17, 14, 13, 26, 42, 10, 6, 34, 5, 28, 22, 19, 25, 6, 45, 10, 29, 31, 48, 37, 13, 8, 26, 29, 41, 12, 14, 41, 35, 39, 24, 41, 41
            |31, 19, 17, 12, 15, 25, 13, 13, 9, 19, 20, 15, 17, 8, 30, 6, 31, 11, 20, 18, 22, 26, 27, 28, 23, 22, 21, 29, 13, 19, 20, 28, 6, 32, 30, 24, 25, 14, 25, 36, 32, 10, 5, 26, 20, 38, 35, 23, 24, 21, 30, 8, 13, 38, 18, 17, 14, 18, 16, 0, 31, 33, 19, 29, 14, 22, 19, 42, 3, 14, 4, 10, 26, 14, 13, 32, 19, 20, 10, 19, 14, 12, 29, 5, 14, 25, 34, 30, 19, 20, 18, 14, 29, 10, 4, 28, 23, 26, 16, 31, 29
            |49, 44, 21, 34, 31, 19, 24, 36, 36, 45, 41, 16, 43, 24, 2, 35, 1, 26, 13, 29, 21, 54, 44, 12, 12, 20, 41, 57, 42, 24, 26, 22, 34, 36, 1, 53, 49, 42, 53, 65, 45, 31, 28, 34, 30, 45, 43, 37, 30, 51, 55, 23, 30, 47, 42, 34, 42, 24, 42, 31, 0, 5, 18, 52, 22, 37, 34, 48, 28, 45, 30, 26, 21, 45, 43, 59, 43, 15, 36, 29, 37, 37, 26, 34, 22, 52, 44, 55, 36, 41, 45, 30, 46, 41, 35, 43, 8, 9, 19, 51, 4
            |47, 44, 25, 34, 31, 16, 27, 40, 39, 45, 45, 17, 46, 26, 4, 37, 6, 29, 13, 33, 19, 54, 42, 9, 11, 18, 45, 57, 43, 23, 24, 19, 35, 33, 4, 54, 48, 42, 53, 66, 42, 31, 29, 32, 34, 42, 40, 36, 28, 53, 55, 25, 33, 44, 45, 38, 45, 28, 45, 33, 5, 0, 17, 52, 22, 35, 38, 45, 30, 47, 33, 26, 18, 47, 45, 60, 46, 19, 37, 33, 38, 40, 23, 36, 22, 52, 42, 54, 40, 45, 45, 29, 44, 43, 37, 41, 11, 8, 23, 50, 4
            |31, 27, 22, 17, 14, 6, 21, 30, 27, 28, 37, 9, 35, 16, 16, 25, 19, 21, 5, 29, 5, 37, 26, 9, 6, 4, 37, 40, 26, 6, 8, 10, 19, 21, 17, 37, 31, 26, 36, 49, 27, 14, 14, 17, 30, 29, 27, 19, 13, 37, 37, 12, 25, 30, 36, 31, 33, 25, 34, 19, 18, 17, 0, 34, 5, 19, 32, 33, 17, 32, 21, 10, 8, 33, 32, 42, 37, 18, 20, 29, 21, 30, 13, 24, 5, 35, 27, 37, 34, 37, 28, 12, 28, 28, 22, 25, 14, 9, 19, 33, 14
            |10, 10, 46, 19, 21, 36, 42, 39, 34, 10, 45, 39, 39, 36, 51, 32, 53, 40, 39, 47, 33, 11, 12, 43, 40, 34, 46, 10, 17, 29, 28, 36, 23, 27, 51, 14, 4, 16, 10, 21, 16, 23, 27, 23, 49, 25, 23, 17, 25, 23, 4, 32, 41, 22, 42, 45, 36, 47, 37, 29, 52, 52, 34, 0, 30, 17, 47, 27, 31, 24, 33, 27, 35, 27, 31, 12, 42, 47, 19, 48, 16, 38, 33, 32, 30, 8, 20, 3, 47, 45, 12, 23, 11, 25, 26, 14, 47, 44, 44, 6, 49
            |28, 22, 21, 12, 9, 11, 18, 26, 23, 23, 33, 9, 31, 13, 20, 20, 22, 18, 9, 26, 8, 33, 23, 15, 11, 8, 33, 35, 21, 6, 8, 14, 14, 21, 21, 32, 27, 21, 31, 44, 25, 9, 9, 17, 28, 29, 26, 17, 13, 32, 33, 8, 22, 30, 32, 28, 28, 23, 29, 14, 22, 22, 5, 30, 0, 16, 29, 33, 12, 26, 17, 4, 12, 27, 27, 38, 33, 18, 15, 27, 16, 25, 16, 19, 0, 31, 26, 33, 30, 33, 23, 8, 25, 23, 17, 23, 16, 14, 18, 30, 19
            |12, 13, 35, 11, 8, 19, 32, 35, 30, 14, 42, 25, 38, 26, 35, 28, 37, 31, 24, 39, 16, 23, 7, 26, 24, 17, 42, 25, 17, 13, 11, 19, 17, 13, 36, 25, 14, 16, 22, 35, 10, 12, 17, 7, 41, 16, 14, 1, 9, 29, 21, 21, 34, 16, 40, 39, 34, 37, 36, 22, 37, 35, 19, 17, 16, 0, 41, 20, 22, 26, 26, 15, 18, 29, 31, 27, 40, 34, 14, 40, 11, 34, 17, 27, 16, 21, 12, 20, 41, 42, 16, 9, 9, 25, 22, 7, 32, 28, 33, 14, 33
            |51, 37, 13, 31, 34, 38, 12, 9, 13, 37, 9, 24, 13, 16, 34, 15, 33, 11, 30, 5, 37, 42, 47, 38, 33, 36, 8, 45, 31, 35, 37, 43, 25, 50, 34, 39, 43, 32, 41, 48, 51, 29, 24, 45, 4, 57, 54, 42, 42, 32, 48, 21, 7, 57, 11, 2, 15, 10, 14, 19, 34, 38, 32, 47, 29, 41, 0, 60, 19, 26, 15, 28, 40, 23, 19, 47, 11, 19, 29, 5, 33, 10, 45, 16, 29, 42, 53, 48, 2, 9, 36, 32, 48, 23, 21, 48, 27, 34, 15, 50, 34
            |17, 30, 53, 30, 27, 29, 51, 54, 50, 31, 62, 41, 58, 45, 46, 47, 49, 50, 37, 58, 28, 37, 17, 36, 37, 29, 62, 37, 36, 27, 25, 26, 37, 12, 47, 40, 27, 35, 36, 48, 12, 32, 37, 16, 60, 4, 6, 18, 20, 47, 31, 40, 53, 5, 60, 59, 54, 56, 56, 42, 48, 45, 33, 27, 33, 20, 60, 0, 42, 45, 46, 33, 27, 48, 50, 39, 60, 51, 34, 59, 30, 54, 22, 47, 33, 34, 8, 30, 61, 62, 33, 28, 16, 44, 42, 15, 46, 39, 51, 21, 44
            |33, 21, 15, 13, 15, 23, 11, 13, 10, 21, 21, 13, 18, 5, 27, 8, 28, 9, 17, 17, 21, 29, 28, 25, 20, 20, 21, 32, 16, 17, 19, 27, 8, 32, 27, 27, 27, 16, 28, 38, 32, 10, 5, 26, 18, 38, 35, 24, 24, 23, 32, 5, 12, 38, 19, 17, 16, 16, 17, 3, 28, 30, 17, 31, 12, 22, 19, 42, 0, 17, 4, 9, 25, 17, 16, 34, 20, 17, 12, 18, 15, 13, 28, 7, 12, 28, 34, 32, 19, 21, 20, 13, 30, 13, 7, 29, 21, 23, 14, 33, 26
            |30, 16, 30, 17, 22, 37, 26, 17, 13, 15, 22, 29, 16, 22, 44, 12, 45, 23, 34, 28, 34, 16, 28, 41, 36, 34, 23, 19, 9, 29, 30, 39, 12, 39, 44, 13, 21, 10, 16, 22, 34, 18, 17, 33, 29, 42, 39, 28, 32, 6, 23, 22, 22, 40, 19, 24, 12, 30, 14, 14, 45, 47, 32, 24, 26, 26, 26, 45, 17, 0, 16, 22, 37, 4, 7, 21, 19, 33, 13, 29, 16, 16, 39, 13, 26, 17, 37, 23, 25, 22, 13, 22, 29, 4, 10, 30, 38, 39, 29, 28, 43
            |36, 23, 14, 16, 19, 27, 10, 9, 6, 23, 16, 16, 14, 7, 30, 4, 30, 7, 21, 14, 25, 30, 32, 29, 24, 25, 17, 33, 17, 22, 24, 31, 10, 36, 30, 27, 29, 18, 28, 38, 36, 14, 9, 30, 15, 42, 40, 28, 28, 22, 34, 9, 8, 42, 15, 13, 12, 14, 13, 4, 30, 33, 21, 33, 17, 26, 15, 46, 4, 16, 0, 14, 29, 15, 13, 35, 16, 18, 15, 15, 18, 9, 32, 4, 17, 29, 38, 34, 15, 16, 22, 18, 34, 12, 7, 33, 23, 26, 14, 35, 29
            |26, 18, 21, 8, 7, 15, 18, 23, 19, 19, 30, 11, 28, 12, 24, 17, 26, 17, 13, 25, 12, 28, 21, 19, 15, 12, 31, 31, 16, 8, 10, 18, 9, 23, 25, 28, 23, 16, 27, 40, 24, 5, 5, 17, 27, 29, 27, 16, 14, 27, 30, 7, 21, 30, 29, 26, 25, 23, 26, 10, 26, 26, 10, 27, 4, 15, 28, 33, 9, 22, 14, 0, 16, 23, 23, 34, 30, 20, 11, 26, 12, 22, 19, 16, 4, 27, 26, 29, 28, 30, 19, 5, 23, 18, 13, 22, 20, 18, 18, 27, 23
            |30, 30, 30, 21, 17, 2, 29, 38, 35, 31, 45, 17, 43, 24, 19, 32, 22, 30, 11, 37, 4, 40, 25, 9, 10, 4, 45, 42, 31, 8, 8, 2, 25, 15, 20, 41, 33, 30, 39, 52, 24, 19, 21, 14, 38, 24, 22, 19, 10, 42, 39, 20, 34, 26, 44, 39, 40, 33, 42, 26, 21, 18, 8, 35, 12, 18, 40, 27, 25, 37, 29, 16, 0, 39, 39, 45, 45, 26, 25, 37, 24, 37, 5, 31, 12, 38, 23, 38, 42, 45, 32, 16, 26, 34, 29, 24, 20, 12, 27, 32, 17
            |34, 19, 29, 19, 24, 38, 24, 14, 11, 18, 18, 30, 12, 21, 44, 11, 45, 21, 34, 26, 35, 20, 32, 42, 37, 35, 19, 23, 12, 31, 32, 41, 14, 42, 44, 16, 24, 14, 19, 25, 37, 20, 18, 35, 26, 45, 42, 30, 35, 8, 26, 22, 20, 44, 15, 21, 9, 28, 10, 14, 45, 47, 33, 27, 27, 29, 23, 48, 17, 4, 15, 23, 39, 0, 4, 24, 16, 33, 16, 27, 18, 13, 41, 11, 27, 21, 40, 27, 22, 18, 16, 24, 33, 5, 10, 33, 37, 40, 28, 32, 43
            |37, 22, 25, 21, 25, 38, 21, 10, 8, 21, 14, 28, 9, 19, 42, 8, 43, 18, 33, 22, 35, 24, 34, 41, 36, 35, 15, 26, 15, 31, 32, 41, 15, 43, 42, 20, 27, 16, 23, 29, 39, 21, 18, 37, 22, 47, 44, 32, 35, 12, 30, 21, 17, 46, 11, 17, 5, 24, 6, 13, 43, 45, 32, 31, 27, 31, 19, 50, 16, 7, 13, 23, 39, 4, 0, 28, 12, 30, 17, 23, 20, 9, 41, 9, 27, 24, 42, 30, 18, 14, 19, 25, 35, 6, 10, 36, 35, 39, 25, 35, 41
            |22, 16, 49, 26, 29, 45, 45, 38, 34, 15, 42, 44, 36, 40, 58, 32, 60, 42, 46, 48, 42, 5, 24, 52, 48, 43, 43, 3, 18, 38, 37, 46, 26, 39, 59, 8, 13, 18, 7, 9, 28, 29, 32, 34, 49, 37, 35, 28, 36, 17, 8, 37, 42, 34, 39, 45, 33, 49, 34, 32, 59, 60, 42, 12, 38, 27, 47, 39, 34, 21, 35, 34, 45, 24, 28, 0, 40, 51, 23, 49, 22, 37, 44, 32, 38, 7, 32, 9, 46, 42, 14, 30, 23, 24, 28, 26, 53, 52, 48, 18, 56
            |48, 33, 22, 30, 34, 43, 19, 7, 10, 33, 3, 30, 3, 21, 43, 13, 42, 17, 36, 16, 41, 35, 45, 44, 39, 41, 4, 38, 26, 38, 39, 47, 23, 52, 43, 32, 39, 27, 34, 39, 49, 29, 25, 45, 16, 57, 54, 42, 43, 23, 42, 25, 13, 56, 1, 10, 7, 20, 5, 19, 43, 46, 37, 42, 33, 40, 11, 60, 20, 19, 16, 30, 45, 16, 12, 40, 0, 28, 27, 16, 30, 7, 48, 14, 33, 36, 52, 42, 9, 3, 31, 33, 46, 17, 18, 46, 36, 41, 24, 46, 42
            |46, 37, 6, 27, 27, 23, 9, 22, 22, 37, 26, 9, 28, 12, 15, 22, 14, 12, 14, 14, 23, 46, 41, 20, 16, 22, 26, 48, 33, 23, 26, 28, 25, 39, 15, 44, 43, 33, 44, 55, 44, 24, 20, 35, 15, 47, 45, 35, 31, 40, 49, 14, 15, 48, 27, 19, 28, 9, 28, 20, 15, 19, 18, 47, 18, 34, 19, 51, 17, 33, 18, 20, 26, 33, 30, 51, 28, 0, 28, 14, 31, 22, 31, 21, 18, 45, 45, 48, 21, 26, 37, 25, 43, 29, 24, 41, 8, 16, 4, 47, 15
            |21, 9, 27, 4, 9, 25, 23, 22, 17, 9, 28, 21, 24, 17, 35, 14, 36, 21, 23, 29, 21, 18, 18, 30, 26, 22, 29, 21, 6, 17, 17, 27, 4, 26, 35, 17, 15, 6, 17, 29, 23, 6, 9, 20, 30, 30, 27, 15, 19, 17, 20, 14, 23, 29, 26, 27, 21, 28, 22, 10, 36, 37, 20, 19, 15, 14, 29, 34, 12, 13, 15, 11, 25, 16, 17, 23, 27, 28, 0, 30, 4, 21, 26, 14, 15, 17, 26, 20, 29, 28, 9, 9, 19, 11, 9, 19, 30, 29, 25, 21, 33
            |51, 38, 8, 31, 33, 35, 8, 13, 16, 38, 14, 20, 18, 14, 29, 17, 28, 9, 26, 1, 34, 44, 46, 34, 29, 33, 13, 47, 32, 33, 35, 39, 25, 48, 29, 41, 44, 33, 43, 51, 50, 28, 23, 43, 1, 55, 53, 42, 40, 35, 49, 19, 7, 56, 16, 6, 19, 5, 19, 19, 29, 33, 29, 48, 27, 40, 5, 59, 18, 29, 15, 26, 37, 27, 23, 49, 16, 14, 30, 0, 33, 13, 42, 17, 27, 44, 52, 49, 8, 14, 37, 31, 48, 25, 22, 47, 22, 30, 11, 50, 29
            |18, 7, 30, 4, 8, 24, 26, 25, 21, 7, 32, 23, 28, 20, 36, 18, 38, 24, 24, 32, 21, 17, 14, 30, 26, 21, 33, 19, 7, 16, 16, 26, 8, 24, 37, 17, 12, 6, 16, 29, 19, 7, 11, 17, 33, 27, 24, 12, 17, 19, 18, 16, 26, 26, 30, 31, 24, 31, 25, 14, 37, 38, 21, 16, 16, 11, 33, 30, 15, 16, 18, 12, 24, 18, 20, 22, 30, 31, 4, 33, 0, 24, 25, 17, 16, 15, 22, 18, 33, 32, 8, 9, 16, 14, 12, 16, 31, 30, 28, 17, 34
            |42, 28, 17, 23, 27, 36, 13, 1, 4, 28, 8, 23, 6, 14, 36, 6, 36, 11, 29, 13, 34, 32, 39, 37, 32, 33, 8, 35, 21, 30, 32, 40, 17, 45, 36, 29, 34, 22, 31, 38, 43, 22, 17, 39, 13, 50, 47, 35, 36, 22, 38, 17, 8, 50, 6, 8, 6, 16, 6, 12, 37, 40, 30, 38, 25, 34, 10, 54, 13, 16, 9, 22, 37, 13, 9, 37, 7, 22, 21, 13, 24, 0, 41, 7, 25, 32, 46, 38, 9, 8, 26, 26, 40, 13, 12, 40, 29, 34, 18, 41, 36
            |26, 29, 35, 22, 17, 8, 33, 41, 38, 30, 48, 22, 46, 28, 24, 35, 27, 34, 17, 41, 8, 40, 22, 14, 15, 8, 49, 41, 31, 10, 9, 4, 27, 10, 25, 40, 31, 31, 38, 52, 21, 21, 24, 11, 43, 19, 17, 16, 8, 43, 37, 24, 38, 21, 47, 44, 43, 37, 45, 29, 26, 23, 13, 33, 16, 17, 45, 22, 28, 39, 32, 19, 5, 41, 41, 44, 48, 31, 26, 42, 25, 41, 0, 34, 16, 37, 19, 36, 46, 48, 32, 17, 23, 36, 31, 21, 25, 17, 32, 30, 22
            |35, 22, 17, 16, 20, 30, 13, 8, 4, 22, 15, 19, 12, 10, 33, 1, 34, 10, 24, 16, 27, 27, 32, 32, 27, 27, 16, 30, 15, 24, 26, 34, 10, 38, 34, 25, 28, 16, 26, 35, 36, 15, 11, 32, 17, 43, 40, 28, 30, 19, 32, 12, 10, 42, 13, 14, 9, 17, 10, 5, 34, 36, 24, 32, 19, 27, 16, 47, 7, 13, 4, 16, 31, 11, 9, 32, 14, 21, 14, 17, 17, 7, 34, 0, 19, 27, 39, 32, 15, 15, 20, 19, 33, 9, 5, 33, 26, 30, 17, 35, 32
            |28, 22, 21, 12, 9, 11, 18, 26, 23, 23, 33, 9, 31, 13, 20, 20, 22, 18, 9, 26, 8, 33, 23, 15, 11, 8, 33, 35, 21, 6, 8, 14, 14, 21, 21, 32, 27, 21, 31, 44, 25, 9, 9, 17, 28, 29, 26, 17, 13, 32, 33, 8, 22, 30, 32, 28, 28, 23, 29, 14, 22, 22, 5, 30, 0, 16, 29, 33, 12, 26, 17, 4, 12, 27, 27, 38, 33, 18, 15, 27, 16, 25, 16, 19, 0, 31, 26, 33, 30, 33, 23, 8, 25, 23, 17, 23, 16, 14, 18, 30, 19
            |17, 8, 43, 19, 22, 38, 39, 33, 29, 8, 39, 38, 33, 33, 51, 27, 53, 36, 39, 43, 35, 3, 18, 45, 41, 35, 40, 4, 12, 30, 30, 39, 20, 33, 52, 6, 7, 11, 2, 15, 23, 22, 25, 28, 44, 32, 30, 21, 29, 15, 6, 30, 37, 29, 36, 40, 29, 43, 31, 25, 52, 52, 35, 8, 31, 21, 42, 34, 28, 17, 29, 27, 38, 21, 24, 7, 36, 45, 17, 44, 15, 32, 37, 27, 31, 0, 27, 6, 41, 39, 8, 23, 18, 19, 22, 20, 46, 45, 41, 14, 49
            |10, 22, 47, 23, 19, 25, 44, 47, 42, 23, 54, 35, 50, 38, 42, 40, 45, 43, 32, 51, 23, 30, 9, 32, 32, 24, 54, 30, 28, 21, 19, 23, 29, 9, 43, 32, 20, 27, 29, 41, 4, 24, 29, 10, 52, 5, 3, 11, 14, 39, 24, 33, 46, 4, 52, 51, 46, 49, 48, 34, 44, 42, 27, 20, 26, 12, 53, 8, 34, 37, 38, 26, 23, 40, 42, 32, 52, 45, 26, 52, 22, 46, 19, 39, 26, 27, 0, 23, 53, 54, 25, 21, 9, 36, 34, 7, 41, 35, 44, 15, 40
            |13, 11, 47, 21, 23, 39, 43, 39, 35, 11, 45, 40, 39, 37, 53, 32, 55, 41, 41, 48, 35, 9, 15, 46, 43, 36, 46, 7, 17, 31, 30, 39, 24, 30, 54, 12, 6, 16, 8, 18, 19, 24, 29, 26, 49, 28, 26, 20, 28, 21, 1, 34, 42, 25, 42, 46, 35, 48, 37, 30, 55, 54, 37, 3, 33, 20, 48, 30, 32, 23, 34, 29, 38, 27, 30, 9, 42, 48, 20, 49, 18, 38, 36, 32, 33, 6, 23, 0, 47, 45, 12, 25, 15, 25, 27, 17, 49, 46, 46, 9, 51
            |51, 37, 15, 31, 34, 40, 13, 8, 12, 37, 6, 25, 11, 17, 36, 15, 35, 12, 32, 7, 38, 41, 47, 39, 34, 38, 6, 44, 30, 36, 38, 44, 25, 51, 36, 38, 43, 31, 40, 47, 51, 29, 24, 45, 7, 57, 55, 43, 43, 30, 47, 22, 8, 57, 9, 2, 13, 12, 13, 19, 36, 40, 34, 47, 30, 41, 2, 61, 19, 25, 15, 28, 42, 22, 18, 46, 9, 21, 29, 8, 33, 9, 46, 15, 30, 41, 53, 47, 0, 6, 35, 33, 48, 22, 21, 48, 29, 36, 17, 50, 36
            |50, 35, 21, 31, 35, 43, 18, 7, 11, 35, 0, 29, 6, 21, 41, 14, 41, 16, 36, 13, 41, 38, 46, 43, 38, 40, 1, 41, 28, 38, 40, 47, 25, 52, 41, 35, 41, 30, 37, 42, 51, 30, 25, 46, 13, 58, 55, 43, 44, 26, 44, 25, 12, 57, 3, 8, 9, 18, 8, 20, 41, 45, 37, 45, 33, 42, 9, 62, 21, 22, 16, 30, 45, 18, 14, 42, 3, 26, 28, 14, 32, 8, 48, 15, 33, 39, 54, 45, 6, 0, 33, 34, 48, 20, 20, 48, 34, 40, 22, 48, 41
            |18, 3, 36, 11, 15, 32, 31, 27, 23, 2, 33, 30, 28, 26, 43, 20, 45, 29, 32, 36, 28, 9, 16, 38, 34, 29, 34, 12, 5, 24, 24, 33, 12, 29, 44, 9, 8, 4, 8, 21, 22, 14, 17, 23, 37, 30, 28, 17, 24, 14, 12, 23, 30, 28, 30, 34, 24, 36, 26, 18, 45, 45, 28, 12, 23, 16, 36, 33, 20, 13, 22, 19, 32, 16, 19, 14, 31, 37, 9, 37, 8, 26, 32, 20, 23, 8, 25, 12, 35, 33, 0, 16, 17, 13, 15, 18, 39, 37, 34, 16, 42
            |21, 15, 26, 5, 2, 16, 23, 26, 22, 16, 34, 16, 30, 17, 28, 20, 30, 22, 16, 30, 12, 25, 16, 21, 18, 13, 34, 28, 15, 8, 8, 17, 10, 19, 29, 25, 19, 14, 24, 37, 19, 4, 8, 13, 31, 25, 22, 11, 11, 27, 26, 12, 25, 25, 32, 30, 27, 28, 29, 14, 30, 29, 12, 23, 8, 9, 32, 28, 13, 22, 18, 5, 16, 24, 25, 30, 33, 25, 9, 31, 9, 26, 17, 19, 8, 23, 21, 25, 33, 34, 16, 0, 18, 19, 15, 16, 24, 21, 24, 22, 26
            |3, 14, 44, 17, 16, 28, 41, 41, 37, 15, 48, 34, 43, 34, 44, 34, 46, 39, 33, 47, 25, 21, 2, 35, 33, 26, 49, 21, 21, 22, 20, 27, 23, 16, 45, 23, 11, 19, 20, 32, 5, 20, 25, 13, 48, 14, 12, 8, 16, 30, 16, 30, 42, 11, 45, 47, 40, 46, 41, 29, 46, 44, 28, 11, 25, 9, 48, 16, 30, 29, 34, 23, 26, 33, 35, 23, 46, 43, 19, 48, 16, 40, 23, 33, 25, 18, 9, 15, 48, 48, 17, 18, 0, 29, 28, 3, 41, 37, 42, 6, 42
            |30, 16, 26, 15, 19, 33, 21, 14, 10, 15, 20, 25, 14, 18, 40, 8, 41, 19, 30, 24, 30, 19, 28, 37, 32, 30, 21, 22, 9, 26, 27, 36, 9, 37, 40, 16, 21, 10, 18, 26, 33, 15, 14, 31, 25, 41, 38, 26, 30, 11, 25, 17, 18, 39, 17, 21, 11, 26, 12, 10, 41, 43, 28, 25, 23, 25, 23, 44, 13, 4, 12, 18, 34, 5, 6, 24, 17, 29, 11, 25, 14, 13, 36, 9, 23, 19, 36, 25, 22, 20, 13, 19, 29, 0, 6, 29, 33, 35, 25, 29, 39
            |30, 16, 21, 11, 16, 28, 17, 13, 9, 16, 20, 19, 16, 12, 34, 6, 35, 14, 24, 21, 25, 23, 26, 31, 27, 25, 21, 25, 10, 21, 22, 31, 5, 34, 34, 20, 23, 11, 21, 31, 31, 11, 8, 27, 22, 38, 36, 23, 26, 16, 27, 12, 15, 37, 18, 19, 13, 21, 14, 4, 35, 37, 22, 26, 17, 22, 21, 42, 7, 10, 7, 13, 29, 10, 10, 28, 18, 24, 9, 22, 12, 12, 31, 5, 17, 22, 34, 27, 21, 20, 15, 15, 28, 6, 0, 28, 28, 30, 20, 29, 33
            |6, 15, 42, 17, 15, 25, 39, 41, 36, 16, 48, 32, 43, 33, 41, 33, 44, 38, 30, 46, 22, 23, 2, 32, 31, 23, 48, 23, 21, 19, 17, 24, 23, 13, 42, 25, 13, 20, 22, 35, 4, 19, 24, 10, 47, 12, 10, 6, 13, 32, 18, 28, 41, 10, 45, 46, 40, 44, 41, 28, 43, 41, 25, 14, 23, 7, 48, 15, 29, 30, 33, 22, 24, 33, 36, 26, 46, 41, 19, 47, 16, 40, 21, 33, 23, 20, 7, 17, 48, 48, 18, 16, 3, 29, 28, 0, 39, 34, 40, 9, 39
            |44, 38, 14, 28, 26, 17, 16, 29, 28, 38, 34, 9, 35, 16, 7, 27, 7, 18, 9, 22, 18, 48, 39, 13, 10, 17, 34, 50, 35, 20, 22, 21, 27, 34, 7, 46, 43, 35, 46, 58, 41, 25, 21, 31, 23, 43, 41, 33, 27, 44, 49, 16, 22, 44, 35, 27, 34, 17, 35, 23, 8, 11, 14, 47, 16, 32, 27, 46, 21, 38, 23, 20, 20, 37, 35, 53, 36, 8, 30, 22, 31, 29, 25, 26, 16, 46, 41, 49, 29, 34, 39, 24, 41, 33, 28, 39, 0, 8, 12, 46, 7
            |40, 36, 22, 26, 23, 10, 22, 34, 32, 37, 40, 11, 40, 20, 7, 31, 10, 24, 6, 29, 12, 47, 35, 4, 4, 11, 40, 49, 35, 15, 17, 14, 27, 27, 8, 46, 40, 35, 45, 58, 36, 23, 22, 25, 31, 36, 34, 28, 21, 45, 47, 18, 28, 38, 40, 34, 38, 25, 39, 26, 9, 8, 9, 44, 14, 28, 34, 39, 23, 39, 26, 18, 12, 40, 39, 52, 41, 16, 29, 30, 30, 34, 17, 30, 14, 45, 35, 46, 36, 40, 37, 21, 37, 35, 30, 34, 8, 0, 19, 42, 5
            |44, 34, 3, 25, 25, 25, 4, 17, 18, 35, 22, 10, 24, 8, 19, 18, 18, 7, 16, 10, 24, 42, 40, 23, 18, 23, 22, 45, 29, 23, 26, 29, 22, 39, 19, 40, 40, 30, 41, 51, 43, 22, 17, 34, 12, 47, 44, 34, 31, 36, 46, 12, 10, 48, 23, 15, 23, 6, 24, 16, 19, 23, 19, 44, 18, 33, 15, 51, 14, 29, 14, 18, 27, 28, 25, 48, 24, 4, 25, 11, 28, 18, 32, 17, 18, 41, 44, 46, 17, 22, 34, 24, 42, 25, 20, 40, 12, 19, 0, 45, 19
            |4, 13, 47, 20, 20, 34, 43, 42, 38, 14, 48, 38, 43, 37, 49, 35, 52, 42, 38, 49, 30, 17, 8, 41, 39, 31, 49, 16, 20, 27, 25, 33, 25, 22, 50, 20, 8, 19, 16, 27, 11, 23, 28, 19, 51, 19, 18, 14, 22, 28, 10, 33, 44, 16, 46, 48, 40, 49, 41, 31, 51, 50, 33, 6, 30, 14, 50, 21, 33, 28, 35, 27, 32, 32, 35, 18, 46, 47, 21, 50, 17, 41, 30, 35, 30, 14, 15, 9, 50, 48, 16, 22, 6, 29, 29, 9, 46, 42, 45, 0, 47
            |45, 41, 21, 31, 28, 15, 23, 36, 34, 41, 41, 13, 42, 22, 2, 33, 5, 25, 10, 29, 17, 51, 40, 8, 9, 16, 41, 53, 39, 20, 22, 18, 31, 32, 3, 50, 45, 39, 50, 62, 41, 28, 26, 30, 30, 41, 39, 34, 26, 49, 52, 21, 29, 43, 41, 34, 41, 24, 41, 29, 4, 4, 14, 49, 19, 33, 34, 44, 26, 43, 29, 23, 17, 43, 41, 56, 42, 15, 33, 29, 34, 36, 22, 32, 19, 49, 40, 51, 36, 41, 42, 26, 42, 39, 33, 39, 7, 5, 19, 47, 0|];
early = [0, 315, 520, 109, 91, 46, 148, 432, 417, 336, 454, 175, 413, 756, 199, 395, 780, 148, 182, 474, 545, 589, 0, 215, 540, 42, 449, 580, 647, 80, 240, 53, 110, 0, 208, 620, 310, 344, 580, 675, 0, 98, 126, 0, 479, 11, 0, 284, 0, 612, 868, 131, 490, 285, 435, 492, 424, 487, 448, 115, 211, 206, 47, 317, 61, 0, 470, 11, 116, 369, 410, 76, 228, 351, 365, 682, 444, 154, 109, 490, 559, 425, 40, 390, 73, 577, 0, 656, 478, 735, 319, 259, 0, 341, 122, 0, 172, 193, 162, 0, 211];
late = [1089, 441, 626, 222, 219, 161, 277, 561, 523, 443, 561, 289, 545, 879, 325, 502, 903, 275, 304, 594, 660, 720, 84, 330, 658, 165, 559, 706, 762, 207, 369, 156, 239, 120, 320, 750, 443, 456, 701, 812, 86, 217, 257, 104, 589, 138, 115, 393, 106, 745, 993, 248, 622, 399, 572, 611, 554, 610, 575, 232, 332, 328, 182, 440, 177, 95, 598, 132, 251, 484, 526, 192, 355, 485, 475, 799, 577, 287, 215, 603, 691, 536, 162, 521, 195, 699, 127, 779, 582, 848, 451, 366, 67, 474, 240, 79, 289, 310, 268, 65, 321];