% n100w140.005    40.07 989
n = 101;
duration = [|0, 29, 31, 23, 30, 34, 45, 37, 37, 35, 19, 10, 18, 31, 35, 29, 54, 7, 38, 22, 21, 37, 27, 45, 24, 10, 26, 29, 40, 30, 41, 31, 10, 26, 32, 12, 9, 17, 51, 12, 30, 37, 43, 44, 21, 44, 27, 25, 27, 32, 34, 29, 28, 7, 38, 13, 34, 46, 28, 30, 38, 36, 39, 14, 28, 41, 35, 45, 52, 31, 5, 6, 39, 22, 42, 32, 46, 14, 40, 48, 36, 44, 20, 10, 11, 31, 16, 26, 30, 26, 30, 45, 32, 46, 23, 35, 34, 19, 21, 36, 43
            |29, 0, 21, 19, 2, 21, 30, 33, 32, 7, 10, 19, 13, 23, 24, 16, 25, 27, 14, 24, 15, 23, 10, 20, 5, 19, 29, 4, 23, 6, 12, 2, 35, 5, 24, 31, 22, 21, 22, 31, 10, 24, 18, 21, 10, 15, 12, 20, 16, 18, 5, 30, 23, 35, 18, 18, 10, 19, 9, 1, 12, 14, 14, 18, 16, 18, 6, 28, 23, 31, 29, 34, 34, 19, 20, 26, 19, 16, 24, 23, 35, 16, 12, 22, 22, 15, 24, 4, 13, 17, 29, 18, 25, 17, 15, 29, 7, 11, 11, 9, 27
            |31, 21, 0, 36, 19, 3, 13, 52, 51, 20, 20, 22, 26, 42, 44, 4, 39, 25, 35, 11, 12, 6, 11, 40, 20, 24, 45, 16, 9, 15, 29, 21, 31, 25, 3, 25, 29, 14, 36, 25, 11, 44, 38, 17, 16, 27, 31, 38, 35, 38, 20, 47, 5, 33, 11, 19, 31, 37, 12, 20, 32, 12, 34, 29, 5, 39, 23, 14, 36, 48, 28, 34, 53, 35, 15, 45, 24, 26, 45, 42, 53, 33, 16, 21, 20, 6, 37, 22, 33, 35, 47, 37, 44, 29, 32, 48, 27, 23, 27, 28, 12
            |23, 19, 36, 0, 22, 37, 48, 16, 16, 26, 16, 19, 10, 8, 12, 32, 37, 26, 18, 33, 25, 40, 26, 25, 17, 17, 10, 23, 41, 24, 26, 21, 33, 14, 38, 32, 15, 28, 35, 32, 27, 14, 24, 40, 21, 32, 8, 2, 5, 9, 24, 11, 36, 30, 36, 21, 16, 28, 26, 21, 21, 33, 20, 10, 31, 20, 23, 46, 37, 12, 26, 29, 18, 1, 39, 10, 38, 12, 17, 28, 17, 28, 21, 23, 24, 32, 8, 16, 10, 4, 11, 26, 9, 33, 4, 13, 19, 14, 9, 21, 45
            |30, 2, 19, 22, 0, 19, 28, 35, 34, 5, 11, 20, 15, 25, 26, 15, 24, 28, 15, 23, 14, 21, 9, 21, 6, 20, 31, 3, 21, 4, 12, 2, 36, 8, 22, 31, 23, 21, 21, 32, 8, 26, 19, 19, 11, 14, 14, 22, 18, 21, 3, 32, 22, 36, 16, 18, 12, 19, 8, 1, 13, 12, 15, 20, 15, 19, 5, 25, 22, 33, 30, 36, 36, 21, 17, 28, 17, 17, 26, 23, 37, 16, 12, 23, 23, 14, 26, 6, 15, 19, 31, 18, 27, 16, 17, 31, 8, 12, 13, 9, 25
            |34, 21, 3, 37, 19, 0, 11, 53, 52, 19, 21, 25, 28, 43, 45, 6, 37, 28, 34, 15, 14, 3, 11, 39, 21, 27, 47, 17, 6, 15, 28, 21, 35, 25, 5, 28, 31, 17, 35, 29, 11, 45, 37, 14, 17, 25, 32, 39, 36, 39, 19, 48, 8, 36, 8, 22, 31, 36, 12, 20, 32, 10, 34, 31, 7, 38, 22, 11, 34, 49, 31, 37, 54, 37, 12, 46, 21, 28, 45, 41, 54, 32, 17, 24, 23, 6, 39, 23, 34, 36, 48, 36, 45, 28, 33, 49, 27, 24, 28, 28, 9
            |45, 30, 13, 48, 28, 11, 0, 62, 62, 26, 32, 36, 38, 52, 54, 17, 40, 38, 42, 24, 25, 8, 21, 46, 30, 37, 57, 25, 7, 24, 34, 29, 44, 35, 13, 37, 42, 27, 38, 38, 21, 54, 44, 14, 28, 29, 42, 49, 45, 48, 27, 58, 17, 46, 13, 33, 39, 41, 22, 28, 39, 16, 41, 42, 17, 46, 30, 4, 37, 60, 41, 47, 64, 47, 13, 56, 23, 38, 54, 47, 64, 37, 28, 35, 34, 16, 49, 33, 43, 46, 58, 42, 54, 31, 43, 59, 35, 35, 38, 35, 3
            |37, 33, 52, 16, 35, 53, 62, 0, 1, 38, 32, 35, 26, 10, 9, 47, 42, 41, 24, 49, 41, 55, 41, 27, 32, 33, 11, 37, 55, 38, 35, 33, 47, 28, 54, 47, 30, 44, 41, 47, 42, 11, 27, 53, 36, 41, 21, 14, 17, 14, 36, 8, 52, 44, 50, 37, 25, 32, 40, 34, 28, 47, 26, 26, 47, 23, 35, 60, 43, 6, 41, 42, 2, 17, 52, 6, 48, 28, 14, 30, 4, 34, 37, 39, 40, 47, 21, 30, 20, 16, 7, 30, 8, 41, 20, 4, 29, 30, 25, 30, 59
            |37, 32, 51, 16, 34, 52, 62, 1, 0, 37, 32, 35, 26, 9, 9, 47, 41, 41, 23, 48, 41, 55, 41, 26, 31, 33, 12, 36, 54, 37, 34, 33, 47, 27, 54, 47, 30, 44, 40, 47, 41, 10, 26, 52, 36, 40, 20, 14, 16, 14, 36, 9, 51, 44, 50, 37, 24, 31, 40, 33, 27, 46, 25, 25, 46, 22, 34, 59, 42, 7, 41, 42, 2, 17, 51, 6, 47, 28, 13, 29, 5, 33, 36, 39, 40, 46, 21, 29, 19, 16, 7, 29, 7, 40, 19, 3, 28, 29, 24, 30, 59
            |35, 7, 20, 26, 5, 19, 26, 38, 37, 0, 16, 25, 20, 28, 29, 16, 20, 32, 16, 26, 18, 21, 11, 20, 11, 25, 36, 6, 19, 6, 9, 5, 41, 12, 23, 35, 28, 24, 17, 36, 9, 28, 18, 15, 15, 9, 18, 27, 22, 24, 2, 36, 24, 40, 13, 23, 13, 17, 10, 6, 13, 10, 15, 25, 16, 20, 4, 23, 18, 37, 35, 40, 39, 26, 14, 32, 12, 23, 28, 22, 41, 13, 16, 27, 27, 14, 31, 11, 18, 23, 35, 17, 31, 11, 22, 34, 9, 17, 18, 9, 23
            |19, 10, 20, 16, 11, 21, 32, 32, 32, 16, 0, 9, 6, 23, 26, 16, 35, 17, 21, 17, 9, 24, 11, 28, 5, 9, 25, 10, 25, 11, 22, 12, 25, 9, 22, 21, 12, 13, 32, 22, 12, 26, 26, 27, 4, 25, 13, 18, 16, 20, 14, 27, 20, 25, 22, 8, 17, 28, 10, 10, 21, 19, 22, 10, 15, 25, 16, 31, 33, 28, 19, 24, 34, 16, 25, 26, 28, 7, 28, 31, 34, 25, 4, 12, 13, 16, 17, 7, 16, 16, 27, 27, 25, 27, 13, 29, 16, 3, 8, 18, 30
            |10, 19, 22, 19, 20, 25, 36, 35, 35, 25, 9, 0, 10, 27, 31, 19, 44, 8, 30, 15, 11, 28, 17, 37, 14, 2, 26, 19, 30, 19, 31, 21, 16, 17, 24, 13, 6, 10, 41, 14, 19, 32, 35, 34, 10, 34, 20, 21, 21, 26, 23, 28, 20, 16, 28, 3, 26, 37, 17, 19, 29, 26, 31, 9, 18, 33, 25, 36, 42, 30, 10, 15, 37, 18, 32, 29, 36, 7, 34, 40, 35, 35, 9, 4, 5, 21, 16, 16, 23, 21, 29, 36, 28, 36, 17, 33, 25, 9, 14, 27, 34
            |18, 13, 26, 10, 15, 28, 38, 26, 26, 20, 6, 10, 0, 17, 21, 22, 36, 18, 20, 22, 15, 31, 17, 27, 9, 9, 19, 15, 32, 16, 24, 15, 26, 9, 28, 24, 9, 18, 34, 24, 18, 22, 26, 33, 11, 28, 9, 12, 11, 16, 18, 21, 26, 24, 28, 11, 16, 28, 17, 14, 21, 25, 21, 5, 21, 23, 19, 37, 35, 22, 19, 23, 28, 9, 31, 20, 32, 4, 24, 31, 27, 27, 11, 14, 15, 22, 11, 9, 13, 11, 21, 27, 19, 30, 7, 23, 17, 4, 4, 19, 36
            |31, 23, 42, 8, 25, 43, 52, 10, 9, 28, 23, 27, 17, 0, 4, 37, 35, 34, 16, 40, 32, 45, 31, 21, 22, 25, 11, 27, 45, 28, 26, 24, 41, 18, 44, 40, 23, 35, 33, 40, 32, 6, 20, 43, 27, 32, 11, 6, 7, 5, 27, 9, 42, 38, 40, 28, 16, 25, 31, 24, 19, 37, 18, 18, 37, 16, 25, 50, 35, 9, 34, 37, 11, 9, 42, 4, 39, 20, 10, 24, 13, 26, 27, 31, 32, 37, 16, 20, 10, 7, 8, 23, 2, 33, 10, 6, 20, 20, 15, 21, 49
            |35, 24, 44, 12, 26, 45, 54, 9, 9, 29, 26, 31, 21, 4, 0, 40, 33, 38, 15, 43, 35, 47, 34, 18, 25, 29, 14, 29, 47, 30, 25, 25, 45, 20, 47, 44, 27, 39, 31, 44, 34, 2, 18, 44, 30, 32, 13, 10, 10, 6, 28, 12, 45, 43, 42, 32, 16, 23, 33, 26, 18, 38, 17, 22, 39, 14, 26, 52, 33, 11, 39, 41, 10, 13, 43, 5, 39, 24, 6, 21, 13, 25, 30, 35, 36, 39, 20, 22, 11, 10, 11, 21, 5, 32, 14, 6, 20, 24, 18, 21, 51
            |29, 16, 4, 32, 15, 6, 17, 47, 47, 16, 16, 19, 22, 37, 40, 0, 36, 23, 30, 11, 8, 9, 6, 36, 15, 21, 41, 12, 11, 11, 25, 17, 30, 20, 7, 24, 25, 12, 33, 25, 7, 40, 34, 17, 11, 24, 27, 33, 30, 34, 16, 42, 7, 32, 10, 16, 27, 33, 7, 15, 28, 10, 30, 26, 1, 34, 19, 16, 33, 44, 26, 32, 49, 31, 14, 41, 22, 22, 40, 38, 49, 29, 12, 19, 18, 3, 33, 18, 29, 31, 42, 33, 39, 26, 28, 44, 23, 18, 23, 24, 15
            |54, 25, 39, 37, 24, 37, 40, 42, 41, 20, 35, 44, 36, 35, 33, 36, 0, 52, 19, 46, 38, 37, 31, 15, 30, 43, 45, 26, 34, 27, 13, 23, 60, 27, 42, 55, 45, 44, 3, 56, 30, 31, 15, 26, 35, 12, 30, 37, 32, 30, 21, 44, 43, 60, 29, 42, 21, 10, 31, 25, 17, 27, 17, 41, 36, 19, 19, 36, 3, 44, 54, 59, 43, 38, 27, 38, 17, 40, 28, 13, 46, 10, 36, 47, 47, 33, 45, 28, 27, 33, 43, 12, 37, 9, 34, 39, 20, 35, 33, 17, 37
            |7, 27, 25, 26, 28, 28, 38, 41, 41, 32, 17, 8, 18, 34, 38, 23, 52, 0, 38, 15, 16, 31, 23, 45, 22, 9, 31, 26, 34, 26, 39, 29, 8, 25, 25, 6, 11, 11, 49, 6, 25, 39, 43, 39, 17, 41, 28, 28, 29, 34, 31, 34, 21, 9, 33, 9, 34, 45, 23, 27, 37, 32, 39, 16, 22, 41, 33, 39, 50, 36, 3, 9, 43, 25, 37, 36, 42, 15, 42, 48, 41, 43, 16, 5, 5, 25, 21, 24, 31, 28, 35, 44, 35, 43, 25, 39, 33, 17, 22, 35, 37
            |38, 14, 35, 18, 15, 34, 42, 24, 23, 16, 21, 30, 20, 16, 15, 30, 19, 38, 0, 37, 28, 36, 24, 7, 17, 28, 26, 18, 35, 19, 10, 13, 46, 13, 38, 43, 29, 34, 17, 43, 24, 13, 6, 30, 23, 17, 11, 18, 13, 11, 15, 25, 37, 44, 30, 29, 4, 9, 23, 15, 4, 26, 2, 24, 30, 4, 13, 39, 19, 25, 39, 43, 25, 19, 30, 19, 24, 24, 12, 11, 28, 10, 25, 33, 34, 29, 26, 14, 8, 14, 24, 8, 18, 17, 16, 21, 7, 20, 16, 7, 39
            |22, 24, 11, 33, 23, 15, 24, 49, 48, 26, 17, 15, 22, 40, 43, 11, 46, 15, 37, 0, 9, 17, 15, 44, 20, 17, 40, 20, 21, 20, 35, 25, 20, 25, 11, 13, 21, 5, 43, 14, 17, 44, 42, 28, 14, 35, 30, 35, 33, 38, 25, 43, 7, 22, 21, 12, 33, 42, 16, 23, 36, 21, 37, 24, 11, 41, 28, 25, 44, 44, 17, 23, 51, 32, 26, 43, 33, 21, 45, 46, 50, 39, 13, 12, 11, 14, 31, 23, 33, 33, 43, 41, 41, 37, 29, 46, 31, 20, 25, 32, 23
            |21, 15, 12, 25, 14, 14, 25, 41, 41, 18, 9, 11, 15, 32, 35, 8, 38, 16, 28, 9, 0, 17, 7, 35, 11, 13, 34, 12, 19, 11, 26, 16, 24, 16, 13, 18, 17, 6, 35, 19, 9, 35, 33, 24, 5, 27, 22, 27, 25, 29, 17, 36, 11, 24, 17, 8, 24, 33, 8, 14, 27, 16, 28, 18, 7, 32, 19, 25, 36, 37, 19, 25, 43, 24, 21, 35, 27, 14, 36, 37, 42, 30, 4, 11, 10, 10, 25, 14, 24, 25, 36, 33, 34, 29, 21, 38, 22, 12, 17, 23, 23
            |37, 23, 6, 40, 21, 3, 8, 55, 55, 21, 24, 28, 31, 45, 47, 9, 37, 31, 36, 17, 17, 0, 14, 41, 23, 30, 50, 19, 4, 17, 29, 23, 37, 28, 7, 30, 34, 20, 35, 31, 14, 47, 39, 13, 20, 26, 35, 42, 38, 42, 21, 51, 10, 39, 8, 25, 33, 37, 15, 22, 34, 11, 36, 34, 10, 40, 24, 8, 35, 52, 34, 40, 57, 40, 11, 49, 21, 31, 47, 42, 57, 33, 21, 27, 26, 8, 42, 26, 36, 39, 51, 37, 48, 28, 36, 52, 29, 27, 31, 29, 6
            |27, 10, 11, 26, 9, 11, 21, 41, 41, 11, 11, 17, 17, 31, 34, 6, 31, 23, 24, 15, 7, 14, 0, 30, 9, 18, 36, 6, 15, 5, 20, 11, 31, 14, 14, 25, 22, 13, 29, 26, 2, 34, 28, 17, 7, 20, 21, 28, 24, 28, 10, 37, 13, 31, 11, 14, 20, 28, 1, 9, 22, 9, 24, 21, 6, 28, 13, 20, 29, 38, 26, 32, 43, 26, 15, 35, 20, 18, 34, 32, 43, 24, 8, 18, 17, 6, 28, 12, 22, 25, 37, 27, 33, 22, 22, 38, 17, 13, 17, 18, 19
            |45, 20, 40, 25, 21, 39, 46, 27, 26, 20, 28, 37, 27, 21, 18, 36, 15, 45, 7, 44, 35, 41, 30, 0, 24, 36, 31, 24, 39, 25, 12, 19, 53, 20, 43, 50, 36, 41, 14, 50, 29, 16, 2, 33, 30, 18, 18, 24, 19, 16, 20, 30, 43, 52, 34, 36, 11, 6, 29, 21, 8, 30, 6, 31, 36, 4, 17, 43, 16, 29, 46, 51, 27, 25, 33, 23, 26, 31, 13, 4, 31, 9, 31, 40, 41, 34, 33, 21, 15, 20, 28, 4, 22, 17, 23, 24, 13, 27, 24, 12, 43
            |24, 5, 20, 17, 6, 21, 30, 32, 31, 11, 5, 14, 9, 22, 25, 15, 30, 22, 17, 20, 11, 23, 9, 24, 0, 14, 27, 6, 24, 7, 17, 7, 30, 5, 22, 26, 17, 16, 27, 27, 10, 25, 22, 24, 6, 20, 12, 18, 15, 19, 9, 28, 21, 30, 19, 13, 13, 23, 8, 5, 16, 16, 18, 14, 15, 21, 11, 29, 28, 29, 24, 29, 34, 17, 22, 26, 23, 11, 26, 27, 34, 21, 7, 17, 17, 15, 20, 3, 14, 16, 28, 22, 24, 22, 13, 29, 11, 6, 8, 13, 28
            |10, 19, 24, 17, 20, 27, 37, 33, 33, 25, 9, 2, 9, 25, 29, 21, 43, 9, 28, 17, 13, 30, 18, 36, 14, 0, 24, 19, 32, 20, 31, 21, 17, 16, 26, 15, 4, 12, 41, 15, 20, 30, 34, 35, 11, 34, 18, 19, 19, 24, 23, 26, 22, 16, 29, 5, 24, 36, 18, 19, 28, 27, 29, 7, 20, 32, 25, 37, 42, 28, 11, 16, 35, 16, 33, 27, 36, 5, 33, 39, 33, 34, 10, 6, 7, 22, 14, 16, 22, 19, 27, 35, 26, 36, 15, 30, 24, 8, 12, 26, 35
            |26, 29, 45, 10, 31, 47, 57, 11, 12, 36, 25, 26, 19, 11, 14, 41, 45, 31, 26, 40, 34, 50, 36, 31, 27, 24, 0, 33, 50, 34, 35, 31, 36, 24, 47, 37, 20, 36, 43, 37, 37, 17, 31, 50, 30, 41, 17, 9, 14, 15, 34, 3, 45, 33, 46, 28, 25, 36, 35, 30, 29, 43, 28, 17, 40, 27, 33, 56, 45, 5, 30, 31, 13, 10, 49, 9, 47, 20, 20, 35, 10, 36, 30, 30, 31, 41, 10, 25, 19, 13, 4, 34, 9, 42, 14, 11, 28, 23, 19, 30, 55
            |29, 4, 16, 23, 3, 17, 25, 37, 36, 6, 10, 19, 15, 27, 29, 12, 26, 26, 18, 20, 12, 19, 6, 24, 6, 19, 33, 0, 18, 1, 14, 5, 34, 9, 19, 29, 22, 18, 24, 30, 5, 28, 22, 18, 9, 16, 16, 24, 20, 23, 5, 33, 19, 34, 14, 17, 15, 22, 5, 3, 16, 10, 18, 20, 12, 22, 8, 23, 24, 34, 28, 34, 38, 22, 16, 30, 17, 17, 29, 26, 39, 18, 10, 21, 21, 11, 26, 7, 17, 21, 33, 21, 29, 18, 18, 33, 11, 12, 14, 12, 23
            |40, 23, 9, 41, 21, 6, 7, 55, 54, 19, 25, 30, 32, 45, 47, 11, 34, 34, 35, 21, 19, 4, 15, 39, 24, 32, 50, 18, 0, 17, 27, 22, 41, 28, 11, 34, 36, 23, 32, 35, 14, 46, 37, 9, 22, 23, 35, 42, 38, 41, 20, 51, 14, 42, 5, 27, 32, 35, 15, 21, 32, 9, 34, 36, 12, 38, 22, 5, 31, 53, 37, 43, 57, 40, 7, 49, 17, 32, 46, 40, 57, 31, 22, 30, 29, 9, 43, 25, 35, 39, 51, 35, 47, 25, 36, 52, 28, 28, 32, 28, 4
            |30, 6, 15, 24, 4, 15, 24, 38, 37, 6, 11, 19, 16, 28, 30, 11, 27, 26, 19, 20, 11, 17, 5, 25, 7, 20, 34, 1, 17, 0, 15, 6, 34, 11, 18, 29, 23, 18, 24, 30, 4, 30, 23, 16, 9, 16, 18, 25, 21, 24, 5, 35, 18, 34, 12, 17, 16, 23, 4, 4, 17, 9, 19, 21, 11, 23, 8, 22, 24, 36, 29, 34, 40, 24, 15, 32, 17, 18, 30, 27, 40, 19, 10, 21, 21, 9, 28, 9, 19, 22, 34, 22, 30, 18, 20, 35, 12, 13, 15, 13, 21
            |41, 12, 29, 26, 12, 28, 34, 35, 34, 9, 22, 31, 24, 26, 25, 25, 13, 39, 10, 35, 26, 29, 20, 12, 17, 31, 35, 14, 27, 15, 0, 10, 47, 15, 32, 43, 33, 32, 10, 43, 18, 24, 10, 21, 22, 7, 18, 26, 21, 21, 9, 34, 33, 47, 22, 30, 10, 8, 19, 12, 7, 18, 9, 29, 25, 13, 7, 30, 11, 35, 41, 46, 35, 26, 21, 29, 14, 27, 22, 13, 38, 4, 24, 34, 34, 23, 33, 15, 16, 22, 34, 8, 28, 7, 22, 31, 7, 22, 21, 5, 31
            |31, 2, 21, 21, 2, 21, 29, 33, 33, 5, 12, 21, 15, 24, 25, 17, 23, 29, 13, 25, 16, 23, 11, 19, 7, 21, 31, 5, 22, 6, 10, 0, 37, 7, 24, 33, 24, 22, 20, 33, 10, 24, 17, 20, 12, 13, 13, 22, 17, 19, 3, 31, 24, 37, 17, 20, 10, 17, 10, 2, 11, 13, 13, 20, 17, 17, 4, 27, 21, 32, 31, 37, 35, 21, 19, 27, 17, 18, 24, 21, 36, 14, 14, 24, 24, 16, 26, 6, 13, 18, 30, 16, 26, 15, 16, 30, 6, 13, 13, 7, 26
            |10, 35, 31, 33, 36, 35, 44, 47, 47, 41, 25, 16, 26, 41, 45, 30, 60, 8, 46, 20, 24, 37, 31, 53, 30, 17, 36, 34, 41, 34, 47, 37, 0, 34, 31, 7, 18, 18, 57, 6, 33, 47, 51, 47, 26, 50, 35, 35, 36, 41, 39, 39, 27, 4, 40, 18, 42, 53, 31, 35, 46, 39, 47, 23, 29, 49, 41, 45, 58, 41, 7, 6, 49, 32, 45, 42, 51, 22, 49, 56, 46, 51, 24, 13, 14, 33, 26, 33, 39, 36, 40, 52, 41, 52, 32, 45, 41, 26, 30, 43, 43
            |26, 5, 25, 14, 8, 25, 35, 28, 27, 12, 9, 17, 9, 18, 20, 20, 27, 25, 13, 25, 16, 28, 14, 20, 5, 16, 24, 9, 28, 11, 15, 7, 34, 0, 27, 30, 18, 21, 25, 30, 14, 20, 18, 26, 11, 19, 7, 15, 11, 14, 10, 24, 26, 33, 23, 17, 9, 20, 13, 7, 12, 19, 13, 14, 20, 16, 10, 33, 26, 25, 27, 32, 29, 14, 25, 21, 24, 12, 21, 23, 30, 18, 12, 21, 21, 19, 19, 2, 9, 11, 24, 19, 20, 21, 9, 24, 8, 8, 6, 10, 32
            |32, 24, 3, 38, 22, 5, 13, 54, 54, 23, 22, 24, 28, 44, 47, 7, 42, 25, 38, 11, 13, 7, 14, 43, 22, 26, 47, 19, 11, 18, 32, 24, 31, 27, 0, 24, 30, 15, 39, 25, 14, 47, 41, 19, 18, 30, 34, 40, 37, 41, 23, 49, 4, 33, 13, 21, 34, 40, 15, 23, 35, 15, 37, 31, 8, 42, 26, 15, 39, 50, 28, 34, 56, 38, 17, 48, 26, 28, 48, 45, 56, 36, 18, 22, 21, 9, 38, 25, 36, 38, 49, 40, 46, 32, 34, 51, 30, 25, 29, 31, 12
            |12, 31, 25, 32, 31, 28, 37, 47, 47, 35, 21, 13, 24, 40, 44, 24, 55, 6, 43, 13, 18, 30, 25, 50, 26, 15, 37, 29, 34, 29, 43, 33, 7, 30, 24, 0, 17, 12, 52, 1, 27, 45, 48, 40, 21, 45, 33, 34, 34, 39, 34, 40, 20, 9, 34, 13, 38, 49, 26, 31, 42, 33, 43, 22, 23, 46, 36, 38, 53, 42, 7, 11, 49, 31, 38, 42, 45, 20, 48, 53, 47, 47, 19, 9, 9, 26, 27, 29, 36, 34, 41, 48, 41, 47, 30, 45, 37, 22, 27, 39, 36
            |9, 22, 29, 15, 23, 31, 42, 30, 30, 28, 12, 6, 9, 23, 27, 25, 45, 11, 29, 21, 17, 34, 22, 36, 17, 4, 20, 22, 36, 23, 33, 24, 18, 18, 30, 17, 0, 16, 43, 17, 24, 29, 35, 39, 15, 37, 18, 17, 18, 23, 26, 23, 27, 16, 33, 9, 25, 38, 22, 22, 30, 31, 30, 5, 24, 32, 27, 41, 44, 25, 11, 14, 32, 14, 37, 25, 40, 6, 32, 40, 30, 36, 14, 9, 11, 27, 10, 18, 22, 18, 24, 36, 24, 38, 14, 28, 26, 11, 13, 28, 40
            |17, 21, 14, 28, 21, 17, 27, 44, 44, 24, 13, 10, 18, 35, 39, 12, 44, 11, 34, 5, 6, 20, 13, 41, 16, 12, 36, 18, 23, 18, 32, 22, 18, 21, 15, 12, 16, 0, 42, 13, 16, 39, 39, 29, 10, 33, 26, 30, 28, 33, 23, 38, 11, 19, 22, 7, 30, 39, 14, 20, 33, 21, 34, 19, 11, 38, 26, 28, 42, 39, 14, 20, 46, 27, 27, 38, 33, 16, 41, 43, 45, 36, 9, 8, 6, 15, 26, 19, 29, 29, 38, 39, 37, 35, 25, 41, 28, 15, 20, 29, 26
            |51, 22, 36, 35, 21, 35, 38, 41, 40, 17, 32, 41, 34, 33, 31, 33, 3, 49, 17, 43, 35, 35, 29, 14, 27, 41, 43, 24, 32, 24, 10, 20, 57, 25, 39, 52, 43, 42, 0, 53, 27, 29, 13, 24, 32, 9, 27, 35, 30, 28, 19, 42, 40, 57, 27, 40, 19, 8, 28, 22, 14, 25, 15, 38, 34, 17, 16, 34, 2, 42, 51, 56, 41, 35, 25, 36, 15, 37, 27, 12, 44, 7, 33, 44, 44, 31, 42, 25, 25, 31, 41, 10, 35, 7, 32, 37, 17, 32, 30, 15, 35
            |12, 31, 25, 32, 32, 29, 38, 47, 47, 36, 22, 14, 24, 40, 44, 25, 56, 6, 43, 14, 19, 31, 26, 50, 27, 15, 37, 30, 35, 30, 43, 33, 6, 30, 25, 1, 17, 13, 53, 0, 28, 45, 48, 41, 21, 45, 33, 34, 35, 40, 35, 40, 21, 9, 35, 14, 39, 50, 26, 31, 43, 34, 44, 22, 24, 47, 37, 39, 54, 42, 7, 10, 49, 31, 39, 42, 45, 20, 48, 53, 47, 47, 20, 10, 9, 27, 26, 29, 37, 34, 40, 49, 41, 47, 30, 45, 38, 23, 27, 40, 37
            |30, 10, 11, 27, 8, 11, 21, 42, 41, 9, 12, 19, 18, 32, 34, 7, 30, 25, 24, 17, 9, 14, 2, 29, 10, 20, 37, 5, 14, 4, 18, 10, 33, 14, 14, 27, 24, 16, 27, 28, 0, 34, 27, 15, 9, 18, 21, 28, 25, 28, 9, 38, 14, 34, 9, 16, 20, 26, 2, 9, 21, 7, 23, 23, 7, 27, 12, 19, 27, 39, 28, 34, 43, 27, 13, 35, 17, 19, 34, 31, 44, 23, 10, 20, 20, 5, 30, 12, 22, 25, 38, 26, 34, 20, 23, 38, 16, 15, 18, 17, 18
            |37, 24, 44, 14, 26, 45, 54, 11, 10, 28, 26, 32, 22, 6, 2, 40, 31, 39, 13, 44, 35, 47, 34, 16, 25, 30, 17, 28, 46, 30, 24, 24, 47, 20, 47, 45, 29, 39, 29, 45, 34, 0, 16, 43, 30, 30, 13, 12, 11, 6, 27, 14, 46, 44, 41, 33, 15, 21, 33, 25, 17, 38, 15, 24, 39, 12, 25, 51, 32, 14, 40, 43, 12, 15, 42, 8, 38, 25, 4, 19, 15, 23, 31, 36, 37, 39, 22, 22, 11, 11, 13, 19, 7, 30, 15, 8, 19, 24, 19, 20, 51
            |43, 18, 38, 24, 19, 37, 44, 27, 26, 18, 26, 35, 26, 20, 18, 34, 15, 43, 6, 42, 33, 39, 28, 2, 22, 34, 31, 22, 37, 23, 10, 17, 51, 18, 41, 48, 35, 39, 13, 48, 27, 16, 0, 31, 28, 16, 17, 23, 18, 16, 18, 29, 41, 50, 32, 34, 9, 5, 27, 19, 6, 28, 4, 30, 34, 4, 15, 41, 16, 29, 45, 49, 28, 24, 31, 23, 24, 29, 14, 5, 31, 8, 29, 38, 39, 32, 32, 19, 14, 19, 28, 3, 22, 16, 21, 24, 11, 26, 22, 10, 41
            |44, 21, 17, 40, 19, 14, 14, 53, 52, 15, 27, 34, 33, 43, 44, 17, 26, 39, 30, 28, 24, 13, 17, 33, 24, 35, 50, 18, 9, 16, 21, 20, 47, 26, 19, 40, 39, 29, 24, 41, 15, 43, 31, 0, 24, 16, 33, 41, 37, 39, 17, 51, 22, 48, 7, 31, 28, 28, 17, 20, 27, 8, 29, 37, 17, 34, 18, 10, 23, 51, 42, 48, 54, 40, 2, 47, 9, 34, 42, 34, 56, 24, 25, 35, 34, 14, 44, 25, 33, 38, 50, 29, 45, 17, 36, 49, 24, 29, 32, 23, 11
            |21, 10, 16, 21, 11, 17, 28, 36, 36, 15, 4, 10, 11, 27, 30, 11, 35, 17, 23, 14, 5, 20, 7, 30, 6, 11, 30, 9, 22, 9, 22, 12, 26, 11, 18, 21, 15, 10, 32, 21, 9, 30, 28, 24, 0, 24, 17, 22, 20, 24, 13, 31, 16, 26, 18, 8, 19, 29, 7, 10, 22, 16, 24, 14, 11, 27, 16, 27, 33, 33, 20, 25, 38, 20, 22, 30, 26, 11, 31, 33, 38, 26, 1, 12, 12, 12, 21, 9, 19, 20, 31, 28, 29, 26, 17, 33, 17, 7, 12, 19, 25
            |44, 15, 27, 32, 14, 25, 29, 41, 40, 9, 25, 34, 28, 32, 32, 24, 12, 41, 17, 35, 27, 26, 20, 18, 20, 34, 41, 16, 23, 16, 7, 13, 50, 19, 30, 45, 37, 33, 9, 45, 18, 30, 16, 16, 24, 0, 24, 32, 27, 27, 11, 41, 31, 50, 18, 32, 16, 13, 19, 15, 13, 15, 15, 33, 25, 19, 9, 26, 9, 41, 44, 49, 42, 32, 16, 36, 8, 31, 29, 18, 45, 9, 26, 36, 36, 22, 38, 19, 22, 28, 40, 14, 34, 2, 28, 38, 13, 26, 25, 11, 26
            |27, 12, 31, 8, 14, 32, 42, 21, 20, 18, 13, 20, 9, 11, 13, 27, 30, 28, 11, 30, 22, 35, 21, 18, 12, 18, 17, 16, 35, 18, 18, 13, 35, 7, 34, 33, 18, 26, 27, 33, 21, 13, 17, 33, 17, 24, 0, 8, 4, 7, 17, 17, 32, 34, 30, 20, 9, 21, 20, 14, 13, 26, 13, 13, 26, 14, 16, 40, 29, 18, 29, 32, 22, 8, 32, 14, 30, 13, 15, 22, 23, 20, 17, 24, 24, 26, 15, 9, 4, 4, 17, 19, 13, 25, 4, 17, 11, 11, 6, 13, 39
            |25, 20, 38, 2, 22, 39, 49, 14, 14, 27, 18, 21, 12, 6, 10, 33, 37, 28, 18, 35, 27, 42, 28, 24, 18, 19, 9, 24, 42, 25, 26, 22, 35, 15, 40, 34, 17, 30, 35, 34, 28, 12, 23, 41, 22, 32, 8, 0, 5, 8, 25, 9, 38, 32, 37, 23, 16, 27, 27, 21, 20, 34, 20, 12, 33, 19, 24, 47, 36, 11, 28, 31, 16, 3, 40, 8, 38, 14, 15, 27, 16, 27, 22, 25, 26, 33, 10, 17, 10, 4, 9, 25, 7, 33, 6, 11, 19, 15, 11, 21, 46
            |27, 16, 35, 5, 18, 36, 45, 17, 16, 22, 16, 21, 11, 7, 10, 30, 32, 29, 13, 33, 25, 38, 24, 19, 15, 19, 14, 20, 38, 21, 21, 17, 36, 11, 37, 34, 18, 28, 30, 35, 25, 11, 18, 37, 20, 27, 4, 5, 0, 5, 20, 14, 35, 34, 33, 22, 11, 22, 23, 17, 15, 30, 15, 13, 30, 15, 19, 43, 31, 15, 29, 33, 19, 6, 36, 11, 33, 14, 13, 23, 19, 22, 20, 25, 26, 30, 14, 13, 5, 1, 13, 21, 9, 28, 4, 14, 14, 13, 8, 16, 42
            |32, 18, 38, 9, 21, 39, 48, 14, 14, 24, 20, 26, 16, 5, 6, 34, 30, 34, 11, 38, 29, 42, 28, 16, 19, 24, 15, 23, 41, 24, 21, 19, 41, 14, 41, 39, 23, 33, 28, 40, 28, 6, 16, 39, 24, 27, 7, 8, 5, 0, 22, 14, 40, 39, 36, 27, 11, 20, 27, 20, 14, 33, 13, 18, 34, 12, 20, 46, 30, 14, 34, 38, 16, 10, 38, 9, 34, 19, 8, 20, 17, 21, 25, 30, 31, 33, 18, 16, 6, 5, 13, 18, 7, 28, 9, 11, 15, 18, 13, 16, 45
            |34, 5, 20, 24, 3, 19, 27, 36, 36, 2, 14, 23, 18, 27, 28, 16, 21, 31, 15, 25, 17, 21, 10, 20, 9, 23, 34, 5, 20, 5, 9, 3, 39, 10, 23, 34, 26, 23, 19, 35, 9, 27, 18, 17, 13, 11, 17, 25, 20, 22, 0, 34, 23, 39, 14, 21, 12, 17, 9, 4, 12, 11, 15, 23, 16, 19, 3, 24, 19, 35, 33, 39, 38, 24, 16, 30, 14, 21, 27, 22, 39, 14, 15, 26, 25, 14, 29, 9, 16, 21, 34, 17, 29, 13, 20, 33, 8, 16, 16, 8, 24
            |29, 30, 47, 11, 32, 48, 58, 8, 9, 36, 27, 28, 21, 9, 12, 42, 44, 34, 25, 43, 36, 51, 37, 30, 28, 26, 3, 33, 51, 35, 34, 31, 39, 24, 49, 40, 23, 38, 42, 40, 38, 14, 29, 51, 31, 41, 17, 9, 14, 14, 34, 0, 46, 36, 47, 30, 24, 34, 36, 31, 28, 44, 27, 19, 42, 25, 33, 57, 44, 2, 33, 34, 10, 11, 49, 7, 47, 22, 18, 33, 7, 35, 31, 32, 33, 43, 13, 26, 18, 13, 1, 32, 7, 41, 15, 8, 28, 24, 20, 30, 56
            |28, 23, 5, 36, 22, 8, 17, 52, 51, 24, 20, 20, 26, 42, 45, 7, 43, 21, 37, 7, 11, 10, 13, 43, 21, 22, 45, 19, 14, 18, 33, 24, 27, 26, 4, 20, 27, 11, 40, 21, 14, 46, 41, 22, 16, 31, 32, 38, 35, 40, 23, 46, 0, 29, 16, 17, 33, 40, 14, 22, 35, 17, 37, 28, 7, 41, 26, 18, 40, 48, 24, 30, 54, 35, 20, 46, 29, 25, 47, 45, 53, 37, 15, 18, 17, 10, 35, 24, 34, 36, 47, 40, 44, 34, 32, 49, 30, 22, 27, 31, 16
            |7, 35, 33, 30, 36, 36, 46, 44, 44, 40, 25, 16, 24, 38, 43, 32, 60, 9, 44, 22, 24, 39, 31, 52, 30, 16, 33, 34, 42, 34, 47, 37, 4, 33, 33, 9, 16, 19, 57, 9, 34, 44, 50, 48, 26, 50, 34, 32, 34, 39, 39, 36, 29, 0, 41, 17, 41, 52, 32, 35, 45, 40, 46, 21, 31, 48, 41, 47, 58, 38, 6, 2, 46, 29, 46, 40, 51, 21, 47, 55, 43, 50, 24, 13, 14, 34, 23, 32, 37, 34, 37, 51, 39, 52, 30, 42, 40, 25, 28, 42, 45
            |38, 18, 11, 36, 16, 8, 13, 50, 50, 13, 22, 28, 28, 40, 42, 10, 29, 33, 30, 21, 17, 8, 11, 34, 19, 29, 46, 14, 5, 12, 22, 17, 40, 23, 13, 34, 33, 22, 27, 35, 9, 41, 32, 7, 18, 18, 30, 37, 33, 36, 14, 47, 16, 41, 0, 25, 27, 29, 11, 16, 26, 4, 29, 32, 11, 33, 17, 10, 26, 48, 36, 42, 52, 36, 4, 44, 13, 29, 41, 35, 53, 25, 19, 28, 27, 7, 39, 21, 30, 34, 47, 30, 43, 20, 32, 47, 22, 24, 27, 22, 9
            |13, 18, 19, 21, 18, 22, 33, 37, 37, 23, 8, 3, 11, 28, 32, 16, 42, 9, 29, 12, 8, 25, 14, 36, 13, 5, 28, 17, 27, 17, 30, 20, 18, 17, 21, 13, 9, 7, 40, 14, 16, 33, 34, 31, 8, 32, 20, 23, 22, 27, 21, 30, 17, 17, 25, 0, 25, 36, 15, 18, 29, 23, 30, 12, 15, 33, 23, 33, 40, 32, 12, 17, 39, 20, 29, 31, 34, 9, 35, 39, 38, 33, 7, 4, 4, 18, 18, 15, 23, 22, 31, 35, 30, 34, 18, 34, 24, 9, 14, 26, 31
            |34, 10, 31, 16, 12, 31, 39, 25, 24, 13, 17, 26, 16, 16, 16, 27, 21, 34, 4, 33, 24, 33, 20, 11, 13, 24, 25, 15, 32, 16, 10, 10, 42, 9, 34, 38, 25, 30, 19, 39, 20, 15, 9, 28, 19, 16, 9, 16, 11, 11, 12, 24, 33, 41, 27, 25, 0, 12, 19, 11, 4, 23, 5, 21, 26, 8, 10, 36, 20, 25, 35, 40, 26, 16, 28, 19, 23, 20, 14, 14, 28, 11, 20, 29, 30, 25, 24, 10, 6, 12, 24, 11, 18, 17, 13, 21, 4, 16, 13, 5, 36
            |46, 19, 37, 28, 19, 36, 41, 32, 31, 17, 28, 37, 28, 25, 23, 33, 10, 45, 9, 42, 33, 37, 28, 6, 23, 36, 36, 22, 35, 23, 8, 17, 53, 20, 40, 49, 38, 39, 8, 50, 26, 21, 5, 28, 29, 13, 21, 27, 22, 20, 17, 34, 40, 52, 29, 36, 12, 0, 27, 19, 8, 26, 8, 33, 33, 9, 14, 38, 10, 34, 47, 52, 33, 28, 28, 28, 20, 32, 19, 5, 36, 4, 30, 40, 40, 31, 36, 21, 17, 23, 33, 2, 27, 11, 25, 29, 12, 28, 25, 10, 38
            |28, 9, 12, 26, 8, 12, 22, 40, 40, 10, 10, 17, 17, 31, 33, 7, 31, 23, 23, 16, 8, 15, 1, 29, 8, 18, 35, 5, 15, 4, 19, 10, 31, 13, 15, 26, 22, 14, 28, 26, 2, 33, 27, 17, 7, 19, 20, 27, 23, 27, 9, 36, 14, 32, 11, 15, 19, 27, 0, 8, 21, 9, 23, 21, 7, 27, 12, 21, 28, 38, 26, 32, 42, 25, 15, 34, 19, 17, 33, 31, 42, 23, 8, 18, 18, 6, 28, 11, 21, 24, 36, 26, 33, 21, 21, 37, 16, 13, 16, 17, 19
            |30, 1, 20, 21, 1, 20, 28, 34, 33, 6, 10, 19, 14, 24, 26, 15, 25, 27, 15, 23, 14, 22, 9, 21, 5, 19, 30, 3, 21, 4, 12, 2, 35, 7, 23, 31, 22, 20, 22, 31, 9, 25, 19, 20, 10, 15, 14, 21, 17, 20, 4, 31, 22, 35, 16, 18, 11, 19, 8, 0, 13, 13, 15, 19, 15, 19, 6, 26, 23, 32, 29, 35, 35, 20, 18, 28, 18, 16, 25, 24, 36, 16, 11, 22, 22, 14, 25, 5, 14, 18, 31, 19, 26, 17, 16, 30, 8, 11, 12, 9, 25
            |38, 12, 32, 21, 13, 32, 39, 28, 27, 13, 21, 29, 21, 19, 18, 28, 17, 37, 4, 36, 27, 34, 22, 8, 16, 28, 29, 16, 32, 17, 7, 11, 46, 12, 35, 42, 30, 33, 14, 43, 21, 17, 6, 27, 22, 13, 13, 20, 15, 14, 12, 28, 35, 45, 26, 29, 4, 8, 21, 13, 0, 23, 2, 25, 28, 7, 9, 36, 16, 28, 39, 44, 29, 21, 27, 23, 21, 24, 16, 11, 31, 7, 23, 33, 33, 26, 28, 13, 10, 16, 27, 6, 21, 14, 17, 24, 5, 20, 17, 4, 36
            |36, 14, 12, 33, 12, 10, 16, 47, 46, 10, 19, 26, 25, 37, 38, 10, 27, 32, 26, 21, 16, 11, 9, 30, 16, 27, 43, 10, 9, 9, 18, 13, 39, 19, 15, 33, 31, 21, 25, 34, 7, 38, 28, 8, 16, 15, 26, 34, 30, 33, 11, 44, 17, 40, 4, 23, 23, 26, 9, 13, 23, 0, 25, 30, 11, 30, 13, 13, 24, 45, 34, 41, 48, 33, 6, 40, 12, 26, 37, 31, 49, 22, 17, 27, 26, 7, 36, 17, 27, 31, 43, 26, 39, 17, 29, 43, 19, 22, 24, 19, 13
            |39, 14, 34, 20, 15, 34, 41, 26, 25, 15, 22, 31, 21, 18, 17, 30, 17, 39, 2, 37, 28, 36, 24, 6, 18, 29, 28, 18, 34, 19, 9, 13, 47, 13, 37, 43, 30, 34, 15, 44, 23, 15, 4, 29, 24, 15, 13, 20, 15, 13, 15, 27, 37, 46, 29, 30, 5, 8, 23, 15, 2, 25, 0, 25, 30, 4, 12, 38, 17, 27, 40, 45, 27, 21, 29, 21, 23, 25, 14, 9, 30, 8, 25, 34, 34, 28, 28, 15, 10, 16, 26, 6, 20, 15, 17, 23, 7, 21, 18, 6, 38
            |14, 18, 29, 10, 20, 31, 42, 26, 25, 25, 10, 9, 5, 18, 22, 26, 41, 16, 24, 24, 18, 34, 21, 31, 14, 7, 17, 20, 36, 21, 29, 20, 23, 14, 31, 22, 5, 19, 38, 22, 23, 24, 30, 37, 14, 33, 13, 12, 13, 18, 23, 19, 28, 21, 32, 12, 21, 33, 21, 19, 25, 30, 25, 0, 25, 27, 24, 41, 40, 21, 16, 20, 28, 9, 36, 20, 37, 4, 26, 35, 26, 31, 14, 13, 15, 26, 7, 14, 16, 13, 19, 31, 19, 35, 9, 23, 21, 8, 8, 24, 40
            |28, 16, 5, 31, 15, 7, 17, 47, 46, 16, 15, 18, 21, 37, 39, 1, 36, 22, 30, 11, 7, 10, 6, 36, 15, 20, 40, 12, 12, 11, 25, 17, 29, 20, 8, 23, 24, 11, 34, 24, 7, 39, 34, 17, 11, 25, 26, 33, 30, 34, 16, 42, 7, 31, 11, 15, 26, 33, 7, 15, 28, 11, 30, 25, 0, 34, 19, 17, 34, 43, 25, 31, 48, 30, 15, 40, 23, 21, 40, 38, 48, 30, 11, 18, 17, 4, 32, 17, 28, 30, 42, 33, 39, 27, 27, 43, 23, 18, 22, 24, 16
            |41, 18, 39, 20, 19, 38, 46, 23, 22, 20, 25, 33, 23, 16, 14, 34, 19, 41, 4, 41, 32, 40, 28, 4, 21, 32, 27, 22, 38, 23, 13, 17, 49, 16, 42, 46, 32, 38, 17, 47, 27, 12, 4, 34, 27, 19, 14, 19, 15, 12, 19, 25, 41, 48, 33, 33, 8, 9, 27, 19, 7, 30, 4, 27, 34, 0, 16, 43, 19, 25, 43, 47, 24, 21, 33, 19, 27, 27, 10, 8, 27, 11, 28, 37, 37, 33, 29, 18, 11, 16, 24, 7, 18, 19, 18, 20, 11, 24, 20, 11, 42
            |35, 6, 23, 23, 5, 22, 30, 35, 34, 4, 16, 25, 19, 25, 26, 19, 19, 33, 13, 28, 19, 24, 13, 17, 11, 25, 33, 8, 22, 8, 7, 4, 41, 10, 26, 36, 27, 26, 16, 37, 12, 25, 15, 18, 16, 9, 16, 24, 19, 20, 3, 33, 26, 41, 17, 23, 10, 14, 12, 6, 9, 13, 12, 24, 19, 16, 0, 27, 17, 34, 35, 40, 36, 23, 18, 29, 14, 22, 24, 19, 38, 11, 17, 28, 28, 17, 29, 9, 15, 20, 32, 14, 27, 11, 19, 31, 6, 17, 16, 5, 26
            |45, 28, 14, 46, 25, 11, 4, 60, 59, 23, 31, 36, 37, 50, 52, 16, 36, 39, 39, 25, 25, 8, 20, 43, 29, 37, 56, 23, 5, 22, 30, 27, 45, 33, 15, 38, 41, 28, 34, 39, 19, 51, 41, 10, 27, 26, 40, 47, 43, 46, 24, 57, 18, 47, 10, 33, 36, 38, 21, 26, 36, 13, 38, 41, 17, 43, 27, 0, 33, 58, 42, 48, 62, 45, 9, 54, 19, 38, 51, 43, 62, 34, 28, 35, 34, 15, 48, 31, 40, 44, 56, 39, 52, 27, 42, 57, 32, 34, 37, 32, 2
            |52, 23, 36, 37, 22, 34, 37, 43, 42, 18, 33, 42, 35, 35, 33, 33, 3, 50, 19, 44, 36, 35, 29, 16, 28, 42, 45, 24, 31, 24, 11, 21, 58, 26, 39, 53, 44, 42, 2, 54, 27, 32, 16, 23, 33, 9, 29, 36, 31, 30, 19, 44, 40, 58, 26, 40, 20, 10, 28, 23, 16, 24, 17, 40, 34, 19, 17, 33, 0, 44, 52, 57, 43, 37, 24, 38, 14, 38, 29, 14, 47, 9, 34, 45, 45, 30, 44, 26, 26, 32, 43, 12, 37, 7, 33, 39, 18, 33, 32, 16, 34
            |31, 31, 48, 12, 33, 49, 60, 6, 7, 37, 28, 30, 22, 9, 11, 44, 44, 36, 25, 44, 37, 52, 38, 29, 29, 28, 5, 34, 53, 36, 35, 32, 41, 25, 50, 42, 25, 39, 42, 42, 39, 14, 29, 51, 33, 41, 18, 11, 15, 14, 35, 2, 48, 38, 48, 32, 25, 34, 38, 32, 28, 45, 27, 21, 43, 25, 34, 58, 44, 0, 35, 36, 8, 13, 50, 6, 48, 24, 17, 33, 5, 35, 33, 34, 35, 44, 15, 27, 19, 14, 1, 32, 7, 42, 16, 6, 28, 26, 21, 30, 57
            |5, 29, 28, 26, 30, 31, 41, 41, 41, 35, 19, 10, 19, 34, 39, 26, 54, 3, 39, 17, 19, 34, 26, 46, 24, 11, 30, 28, 37, 29, 41, 31, 7, 27, 28, 7, 11, 14, 51, 7, 28, 40, 45, 42, 20, 44, 29, 28, 29, 34, 33, 33, 24, 6, 36, 12, 35, 47, 26, 29, 39, 34, 40, 16, 25, 43, 35, 42, 52, 35, 0, 6, 43, 25, 40, 36, 45, 16, 43, 50, 40, 45, 18, 8, 8, 28, 20, 26, 32, 29, 34, 46, 35, 46, 25, 39, 35, 19, 23, 37, 40
            |6, 34, 34, 29, 36, 37, 47, 42, 42, 40, 24, 15, 23, 37, 41, 32, 59, 9, 43, 23, 25, 40, 32, 51, 29, 16, 31, 34, 43, 34, 46, 37, 6, 32, 34, 11, 14, 20, 56, 10, 34, 43, 49, 48, 25, 49, 32, 31, 33, 38, 39, 34, 30, 2, 42, 17, 40, 52, 32, 35, 44, 41, 45, 20, 31, 47, 40, 48, 57, 36, 6, 0, 44, 28, 46, 38, 51, 20, 46, 54, 41, 50, 24, 14, 14, 35, 21, 31, 36, 32, 35, 50, 37, 51, 29, 41, 40, 24, 27, 42, 46
            |39, 34, 53, 18, 36, 54, 64, 2, 2, 39, 34, 37, 28, 11, 10, 49, 43, 43, 25, 51, 43, 57, 43, 27, 34, 35, 13, 38, 57, 40, 35, 35, 49, 29, 56, 49, 32, 46, 41, 49, 43, 12, 28, 54, 38, 42, 22, 16, 19, 16, 38, 10, 54, 46, 52, 39, 26, 33, 42, 35, 29, 48, 27, 28, 48, 24, 36, 62, 43, 8, 43, 44, 0, 19, 53, 8, 49, 30, 14, 30, 5, 35, 38, 41, 42, 48, 23, 31, 21, 18, 9, 31, 9, 42, 21, 5, 30, 31, 26, 31, 61
            |22, 19, 35, 1, 21, 37, 47, 17, 17, 26, 16, 18, 9, 9, 13, 31, 38, 25, 19, 32, 24, 40, 26, 25, 17, 16, 10, 22, 40, 24, 26, 21, 32, 14, 38, 31, 14, 27, 35, 31, 27, 15, 24, 40, 20, 32, 8, 3, 6, 10, 24, 11, 35, 29, 36, 20, 16, 28, 25, 20, 21, 33, 21, 9, 30, 21, 23, 45, 37, 13, 25, 28, 19, 0, 38, 11, 37, 11, 18, 29, 18, 28, 20, 22, 23, 31, 8, 15, 11, 5, 11, 26, 10, 33, 4, 14, 19, 13, 9, 21, 44
            |42, 20, 15, 39, 17, 12, 13, 52, 51, 14, 25, 32, 31, 42, 43, 14, 27, 37, 30, 26, 21, 11, 15, 33, 22, 33, 49, 16, 7, 15, 21, 19, 45, 25, 17, 38, 37, 27, 25, 39, 13, 42, 31, 2, 22, 16, 32, 40, 36, 38, 16, 49, 20, 46, 4, 29, 28, 28, 15, 18, 27, 6, 29, 36, 15, 33, 18, 9, 24, 50, 40, 46, 53, 38, 0, 46, 10, 32, 42, 34, 55, 24, 23, 33, 32, 12, 42, 23, 32, 36, 49, 29, 44, 18, 34, 48, 23, 28, 30, 23, 10
            |32, 26, 45, 10, 28, 46, 56, 6, 6, 32, 26, 29, 20, 4, 5, 41, 38, 36, 19, 43, 35, 49, 35, 23, 26, 27, 9, 30, 49, 32, 29, 27, 42, 21, 48, 42, 25, 38, 36, 42, 35, 8, 23, 47, 30, 36, 14, 8, 11, 9, 30, 7, 46, 40, 44, 31, 19, 28, 34, 28, 23, 40, 21, 20, 40, 19, 29, 54, 38, 6, 36, 38, 8, 11, 46, 0, 43, 23, 11, 26, 9, 29, 30, 33, 35, 40, 16, 23, 14, 10, 5, 26, 1, 36, 13, 3, 23, 23, 18, 25, 53
            |46, 19, 24, 38, 17, 21, 23, 48, 47, 12, 28, 36, 32, 39, 39, 22, 17, 42, 24, 33, 27, 21, 20, 26, 23, 36, 47, 17, 17, 17, 14, 17, 51, 24, 26, 45, 40, 33, 15, 45, 17, 38, 24, 9, 26, 8, 30, 38, 33, 34, 14, 47, 29, 51, 13, 34, 23, 20, 19, 18, 21, 12, 23, 37, 23, 27, 14, 19, 14, 48, 45, 51, 49, 37, 10, 43, 0, 34, 36, 26, 51, 16, 27, 38, 37, 19, 43, 23, 29, 34, 46, 21, 41, 9, 33, 45, 19, 29, 30, 18, 20
            |14, 16, 26, 12, 17, 28, 38, 28, 28, 23, 7, 7, 4, 20, 24, 22, 40, 15, 24, 21, 14, 31, 18, 31, 11, 5, 20, 17, 32, 18, 27, 18, 22, 12, 28, 20, 6, 16, 37, 20, 19, 25, 29, 34, 11, 31, 13, 14, 14, 19, 21, 22, 25, 21, 29, 9, 20, 32, 17, 16, 24, 26, 25, 4, 21, 27, 22, 38, 38, 24, 16, 20, 30, 11, 32, 23, 34, 0, 27, 34, 29, 30, 10, 11, 12, 23, 11, 12, 17, 14, 22, 30, 21, 33, 10, 26, 20, 5, 7, 22, 36
            |40, 24, 45, 17, 26, 45, 54, 14, 13, 28, 28, 34, 24, 10, 6, 40, 28, 42, 12, 45, 36, 47, 34, 13, 26, 33, 20, 29, 46, 30, 22, 24, 49, 21, 48, 48, 32, 41, 27, 48, 34, 4, 14, 42, 31, 29, 15, 15, 13, 8, 27, 18, 47, 47, 41, 35, 14, 19, 33, 25, 16, 37, 14, 26, 40, 10, 24, 51, 29, 17, 43, 46, 14, 18, 42, 11, 36, 27, 0, 16, 18, 21, 32, 38, 39, 39, 25, 23, 12, 14, 17, 17, 11, 29, 17, 11, 19, 26, 21, 19, 50
            |48, 23, 42, 28, 23, 41, 47, 30, 29, 22, 31, 40, 31, 24, 21, 38, 13, 48, 11, 46, 37, 42, 32, 4, 27, 39, 35, 26, 40, 27, 13, 21, 56, 23, 45, 53, 40, 43, 12, 53, 31, 19, 5, 34, 33, 18, 22, 27, 23, 20, 22, 33, 45, 55, 35, 39, 14, 5, 31, 24, 11, 31, 9, 35, 38, 8, 19, 43, 14, 33, 50, 54, 30, 29, 34, 26, 26, 34, 16, 0, 34, 9, 34, 43, 44, 36, 37, 24, 18, 24, 32, 5, 26, 17, 26, 27, 16, 31, 27, 14, 44
            |36, 35, 53, 17, 37, 54, 64, 4, 5, 41, 34, 35, 27, 13, 13, 49, 46, 41, 28, 50, 42, 57, 43, 31, 34, 33, 10, 39, 57, 40, 38, 36, 46, 30, 56, 47, 30, 45, 44, 47, 44, 15, 31, 56, 38, 45, 23, 16, 19, 17, 39, 7, 53, 43, 53, 38, 28, 36, 42, 36, 31, 49, 30, 26, 48, 27, 38, 62, 47, 5, 40, 41, 5, 18, 55, 9, 51, 29, 18, 34, 0, 38, 38, 39, 40, 49, 20, 32, 23, 18, 7, 34, 10, 45, 21, 7, 32, 31, 26, 34, 62
            |44, 16, 33, 28, 16, 32, 37, 34, 33, 13, 25, 35, 27, 26, 25, 29, 10, 43, 10, 39, 30, 33, 24, 9, 21, 34, 36, 18, 31, 19, 4, 14, 51, 18, 36, 47, 36, 36, 7, 47, 23, 23, 8, 24, 26, 9, 20, 27, 22, 21, 14, 35, 37, 50, 25, 33, 11, 4, 23, 16, 7, 22, 8, 31, 30, 11, 11, 34, 9, 35, 45, 50, 35, 28, 24, 29, 16, 30, 21, 9, 38, 0, 27, 38, 38, 27, 35, 18, 17, 23, 34, 5, 28, 8, 24, 31, 10, 25, 23, 8, 34
            |20, 12, 16, 21, 12, 17, 28, 37, 36, 16, 4, 9, 11, 27, 30, 12, 36, 16, 25, 13, 4, 21, 8, 31, 7, 10, 30, 10, 22, 10, 24, 14, 24, 12, 18, 19, 14, 9, 33, 20, 10, 31, 29, 25, 1, 26, 17, 22, 20, 25, 15, 31, 15, 24, 19, 7, 20, 30, 8, 11, 23, 17, 25, 14, 11, 28, 17, 28, 34, 33, 18, 24, 38, 20, 23, 30, 27, 10, 32, 34, 38, 27, 0, 11, 11, 13, 21, 10, 20, 21, 31, 30, 29, 28, 17, 34, 18, 7, 12, 20, 26
            |10, 22, 21, 23, 23, 24, 35, 39, 39, 27, 12, 4, 14, 31, 35, 19, 47, 5, 33, 12, 11, 27, 18, 40, 17, 6, 30, 21, 30, 21, 34, 24, 13, 21, 22, 9, 9, 8, 44, 10, 20, 36, 38, 35, 12, 36, 24, 25, 25, 30, 26, 32, 18, 13, 28, 4, 29, 40, 18, 22, 33, 27, 34, 13, 18, 37, 28, 35, 45, 34, 8, 14, 41, 22, 33, 33, 38, 11, 38, 43, 39, 38, 11, 0, 1, 21, 19, 19, 27, 25, 33, 39, 32, 38, 21, 36, 28, 13, 17, 30, 33
            |11, 22, 20, 24, 23, 23, 34, 40, 40, 27, 13, 5, 15, 32, 36, 18, 47, 5, 34, 11, 10, 26, 17, 41, 17, 7, 31, 21, 29, 21, 34, 24, 14, 21, 21, 9, 11, 6, 44, 9, 20, 37, 39, 34, 12, 36, 24, 26, 26, 31, 25, 33, 17, 14, 27, 4, 30, 40, 18, 22, 33, 26, 34, 15, 17, 37, 28, 34, 45, 35, 8, 14, 42, 23, 32, 35, 37, 12, 39, 44, 40, 38, 11, 1, 0, 20, 21, 20, 28, 26, 34, 39, 33, 38, 22, 38, 28, 14, 18, 30, 32
            |31, 15, 6, 32, 14, 6, 16, 47, 46, 14, 16, 21, 22, 37, 39, 3, 33, 25, 29, 14, 10, 8, 6, 34, 15, 22, 41, 11, 9, 9, 23, 16, 33, 19, 9, 26, 27, 15, 31, 27, 5, 39, 32, 14, 12, 22, 26, 33, 30, 33, 14, 43, 10, 34, 7, 18, 25, 31, 6, 14, 26, 7, 28, 26, 4, 33, 17, 15, 30, 44, 28, 35, 48, 31, 12, 40, 19, 23, 39, 36, 49, 27, 13, 21, 20, 0, 34, 17, 28, 30, 42, 31, 39, 24, 28, 43, 22, 19, 23, 22, 13
            |16, 24, 37, 8, 26, 39, 49, 21, 21, 31, 17, 16, 11, 16, 20, 33, 45, 21, 26, 31, 25, 42, 28, 33, 20, 14, 10, 26, 43, 28, 33, 26, 26, 19, 38, 27, 10, 26, 42, 26, 30, 22, 32, 44, 21, 38, 15, 10, 14, 18, 29, 13, 35, 23, 39, 18, 24, 36, 28, 25, 28, 36, 28, 7, 32, 29, 29, 48, 44, 15, 20, 21, 23, 8, 42, 16, 43, 11, 25, 37, 20, 35, 21, 19, 21, 34, 0, 20, 18, 13, 14, 34, 16, 40, 11, 19, 26, 15, 13, 28, 47
            |26, 4, 22, 16, 6, 23, 33, 30, 29, 11, 7, 16, 9, 20, 22, 18, 28, 24, 14, 23, 14, 26, 12, 21, 3, 16, 25, 7, 25, 9, 15, 6, 33, 2, 25, 29, 18, 19, 25, 29, 12, 22, 19, 25, 9, 19, 9, 17, 13, 16, 9, 26, 24, 32, 21, 15, 10, 21, 11, 5, 13, 17, 15, 14, 17, 18, 9, 31, 26, 27, 26, 31, 31, 15, 23, 23, 23, 12, 23, 24, 32, 18, 10, 19, 20, 17, 20, 0, 11, 13, 26, 20, 22, 21, 11, 26, 9, 7, 7, 11, 30
            |30, 13, 33, 10, 15, 34, 43, 20, 19, 18, 16, 23, 13, 10, 11, 29, 27, 31, 8, 33, 24, 36, 22, 15, 14, 22, 19, 17, 35, 19, 16, 13, 39, 9, 36, 36, 22, 29, 25, 37, 22, 11, 14, 33, 19, 22, 4, 10, 5, 6, 16, 18, 34, 37, 30, 23, 6, 17, 21, 14, 10, 27, 10, 16, 28, 11, 15, 40, 26, 19, 32, 36, 21, 11, 32, 14, 29, 17, 12, 18, 23, 17, 20, 27, 28, 28, 18, 11, 0, 6, 18, 16, 13, 23, 8, 16, 9, 14, 9, 11, 40
            |26, 17, 35, 4, 19, 36, 46, 16, 16, 23, 16, 21, 11, 7, 10, 31, 33, 28, 14, 33, 25, 39, 25, 20, 16, 19, 13, 21, 39, 22, 22, 18, 36, 11, 38, 34, 18, 29, 31, 34, 25, 11, 19, 38, 20, 28, 4, 4, 1, 5, 21, 13, 36, 34, 34, 22, 12, 23, 24, 18, 16, 31, 16, 13, 30, 16, 20, 44, 32, 14, 29, 32, 18, 5, 36, 10, 34, 14, 14, 24, 18, 23, 21, 25, 26, 30, 13, 13, 6, 0, 13, 22, 9, 29, 4, 13, 15, 14, 9, 17, 43
            |30, 29, 47, 11, 31, 48, 58, 7, 7, 35, 27, 29, 21, 8, 11, 42, 43, 35, 24, 43, 36, 51, 37, 28, 28, 27, 4, 33, 51, 34, 34, 30, 40, 24, 49, 41, 24, 38, 41, 40, 38, 13, 28, 50, 31, 40, 17, 9, 13, 13, 34, 1, 47, 37, 47, 31, 24, 33, 36, 31, 27, 43, 26, 19, 42, 24, 32, 56, 43, 1, 34, 35, 9, 11, 49, 5, 46, 22, 17, 32, 7, 34, 31, 33, 34, 42, 14, 26, 18, 13, 0, 31, 6, 41, 15, 6, 27, 24, 20, 29, 55
            |45, 18, 37, 26, 18, 36, 42, 30, 29, 17, 27, 36, 27, 23, 21, 33, 12, 44, 8, 41, 33, 37, 27, 4, 22, 35, 34, 21, 35, 22, 8, 16, 52, 19, 40, 48, 36, 39, 10, 49, 26, 19, 3, 29, 28, 14, 19, 25, 21, 18, 17, 32, 40, 51, 30, 35, 11, 2, 26, 19, 6, 26, 6, 31, 33, 7, 14, 39, 12, 32, 46, 50, 31, 26, 29, 26, 21, 30, 17, 5, 34, 5, 30, 39, 39, 31, 34, 20, 16, 22, 31, 0, 25, 13, 23, 27, 11, 26, 23, 9, 39
            |32, 25, 44, 9, 27, 45, 54, 8, 7, 31, 25, 28, 19, 2, 5, 39, 37, 35, 18, 41, 34, 48, 33, 22, 24, 26, 9, 29, 47, 30, 28, 26, 41, 20, 46, 41, 24, 37, 35, 41, 34, 7, 22, 45, 29, 34, 13, 7, 9, 7, 29, 7, 44, 39, 43, 30, 18, 27, 33, 26, 21, 39, 20, 19, 39, 18, 27, 52, 37, 7, 35, 37, 9, 10, 44, 1, 41, 21, 11, 26, 10, 28, 29, 32, 33, 39, 16, 22, 13, 9, 6, 25, 0, 35, 12, 4, 22, 22, 17, 23, 52
            |46, 17, 29, 33, 16, 28, 31, 41, 40, 11, 27, 36, 30, 33, 32, 26, 9, 43, 17, 37, 29, 28, 22, 17, 22, 36, 42, 18, 25, 18, 7, 15, 52, 21, 32, 47, 38, 35, 7, 47, 20, 30, 16, 17, 26, 2, 25, 33, 28, 28, 13, 41, 34, 52, 20, 34, 17, 11, 21, 17, 14, 17, 15, 35, 27, 19, 11, 27, 7, 42, 46, 51, 42, 33, 18, 36, 9, 33, 29, 17, 45, 8, 28, 38, 38, 24, 40, 21, 23, 29, 41, 13, 35, 0, 29, 38, 14, 28, 27, 12, 28
            |23, 15, 32, 4, 17, 33, 43, 20, 19, 22, 13, 17, 7, 10, 14, 28, 34, 25, 16, 29, 21, 36, 22, 23, 13, 15, 14, 18, 36, 20, 22, 16, 32, 9, 34, 30, 14, 25, 32, 30, 23, 15, 21, 36, 17, 28, 4, 6, 4, 9, 20, 15, 32, 30, 32, 18, 13, 25, 21, 16, 17, 29, 17, 9, 27, 18, 19, 42, 33, 16, 25, 29, 21, 4, 34, 13, 33, 10, 17, 26, 21, 24, 17, 21, 22, 28, 11, 11, 8, 4, 15, 23, 12, 29, 0, 17, 15, 10, 5, 17, 41
            |35, 29, 48, 13, 31, 49, 59, 4, 3, 34, 29, 33, 23, 6, 6, 44, 39, 39, 21, 46, 38, 52, 38, 24, 29, 30, 11, 33, 52, 35, 31, 30, 45, 24, 51, 45, 28, 41, 37, 45, 38, 8, 24, 49, 33, 38, 17, 11, 14, 11, 33, 8, 49, 42, 47, 34, 21, 29, 37, 30, 24, 43, 23, 23, 43, 20, 31, 57, 39, 6, 39, 41, 5, 14, 48, 3, 45, 26, 11, 27, 7, 31, 34, 36, 38, 43, 19, 26, 16, 13, 6, 27, 4, 38, 17, 0, 26, 26, 21, 27, 56
            |34, 7, 27, 19, 8, 27, 35, 29, 28, 9, 16, 25, 17, 20, 20, 23, 20, 33, 7, 31, 22, 29, 17, 13, 11, 24, 28, 11, 28, 12, 7, 6, 41, 8, 30, 37, 26, 28, 17, 38, 16, 19, 11, 24, 17, 13, 11, 19, 14, 15, 8, 28, 30, 40, 22, 24, 4, 12, 16, 8, 5, 19, 7, 21, 23, 11, 6, 32, 18, 28, 35, 40, 30, 19, 23, 23, 19, 20, 19, 16, 32, 10, 18, 28, 28, 22, 26, 9, 9, 15, 27, 11, 22, 14, 15, 26, 0, 16, 13, 2, 32
            |19, 11, 23, 14, 12, 24, 35, 30, 29, 17, 3, 9, 4, 20, 24, 18, 35, 17, 20, 20, 12, 27, 13, 27, 6, 8, 23, 12, 28, 13, 22, 13, 26, 8, 25, 22, 11, 15, 32, 23, 15, 24, 26, 29, 7, 26, 11, 15, 13, 18, 16, 24, 22, 25, 24, 9, 16, 28, 13, 11, 20, 22, 21, 8, 18, 24, 17, 34, 33, 26, 19, 24, 31, 13, 28, 23, 29, 5, 26, 31, 31, 25, 7, 13, 14, 19, 15, 7, 14, 14, 24, 26, 22, 28, 10, 26, 16, 0, 5, 18, 32
            |21, 11, 27, 9, 13, 28, 38, 25, 24, 18, 8, 14, 4, 15, 18, 23, 33, 22, 16, 25, 17, 31, 17, 24, 8, 12, 19, 14, 32, 15, 21, 13, 30, 6, 29, 27, 13, 20, 30, 27, 18, 19, 22, 32, 12, 25, 6, 11, 8, 13, 16, 20, 27, 28, 27, 14, 13, 25, 16, 12, 17, 24, 18, 8, 22, 20, 16, 37, 32, 21, 23, 27, 26, 9, 30, 18, 30, 7, 21, 27, 26, 23, 12, 17, 18, 23, 13, 7, 9, 9, 20, 23, 17, 27, 5, 21, 13, 5, 0, 16, 36
            |36, 9, 28, 21, 9, 28, 35, 30, 30, 9, 18, 27, 19, 21, 21, 24, 17, 35, 7, 32, 23, 29, 18, 12, 13, 26, 30, 12, 28, 13, 5, 7, 43, 10, 31, 39, 28, 29, 15, 40, 17, 20, 10, 23, 19, 11, 13, 21, 16, 16, 8, 30, 31, 42, 22, 26, 5, 10, 17, 9, 4, 19, 6, 24, 24, 11, 5, 32, 16, 30, 37, 42, 31, 21, 23, 25, 18, 22, 19, 14, 34, 8, 20, 30, 30, 22, 28, 11, 11, 17, 29, 9, 23, 12, 17, 27, 2, 18, 16, 0, 32
            |43, 27, 12, 45, 25, 9, 3, 59, 59, 23, 30, 34, 36, 49, 51, 15, 37, 37, 39, 23, 23, 6, 19, 43, 28, 35, 55, 23, 4, 21, 31, 26, 43, 32, 12, 36, 40, 26, 35, 37, 18, 51, 41, 11, 25, 26, 39, 46, 42, 45, 24, 56, 16, 45, 9, 31, 36, 38, 19, 25, 36, 13, 38, 40, 16, 42, 26, 2, 34, 57, 40, 46, 61, 44, 10, 53, 20, 36, 50, 44, 62, 34, 26, 33, 32, 13, 47, 30, 40, 43, 55, 39, 52, 28, 41, 56, 32, 32, 36, 32, 0|];