% n100w140.004    39.30 953
n = 101;
duration = [|0, 19, 32, 23, 29, 15, 24, 20, 21, 26, 10, 23, 22, 17, 16, 20, 19, 17, 23, 5, 17, 17, 16, 3, 26, 25, 33, 24, 14, 26, 19, 11, 20, 30, 21, 8, 23, 5, 10, 22, 22, 15, 16, 25, 15, 15, 22, 4, 18, 4, 25, 25, 7, 13, 25, 10, 9, 22, 26, 9, 10, 26, 9, 25, 29, 21, 19, 22, 21, 28, 26, 15, 4, 29, 30, 17, 11, 22, 21, 20, 30, 24, 8, 17, 21, 18, 6, 21, 17, 24, 17, 11, 22, 14, 23, 27, 24, 34, 27, 26, 13
            |19, 0, 41, 42, 31, 5, 14, 5, 20, 45, 19, 38, 35, 22, 29, 35, 32, 33, 43, 16, 24, 29, 36, 22, 43, 44, 53, 42, 6, 46, 26, 8, 29, 43, 32, 14, 22, 17, 16, 6, 37, 30, 31, 45, 6, 10, 40, 21, 36, 22, 10, 44, 18, 21, 44, 29, 15, 37, 44, 16, 14, 40, 29, 35, 10, 23, 39, 24, 6, 43, 45, 34, 21, 37, 49, 11, 12, 40, 39, 1, 34, 38, 19, 13, 21, 30, 22, 32, 28, 30, 36, 30, 6, 14, 28, 45, 44, 53, 37, 32, 19
            |32, 41, 0, 35, 61, 40, 31, 45, 22, 43, 42, 17, 11, 49, 46, 47, 13, 44, 34, 29, 17, 15, 35, 33, 20, 30, 40, 46, 37, 38, 50, 35, 51, 11, 11, 29, 54, 29, 26, 46, 14, 45, 44, 40, 41, 30, 23, 28, 23, 35, 36, 29, 39, 45, 42, 26, 27, 50, 46, 41, 28, 54, 29, 55, 45, 18, 34, 17, 46, 15, 26, 35, 28, 60, 35, 30, 30, 22, 22, 40, 62, 12, 40, 27, 21, 49, 26, 11, 15, 10, 30, 28, 37, 26, 54, 23, 36, 42, 5, 9, 22
            |23, 42, 35, 0, 41, 38, 45, 43, 38, 8, 28, 18, 25, 32, 23, 19, 24, 17, 1, 27, 31, 25, 7, 21, 17, 7, 10, 13, 37, 4, 30, 34, 29, 26, 26, 30, 40, 26, 30, 45, 21, 21, 19, 5, 38, 37, 12, 22, 13, 21, 47, 8, 27, 28, 7, 15, 30, 21, 12, 30, 31, 25, 14, 30, 52, 36, 4, 36, 44, 22, 11, 9, 22, 35, 8, 38, 33, 13, 13, 43, 39, 23, 26, 38, 38, 25, 21, 27, 26, 34, 7, 13, 45, 34, 34, 14, 1, 11, 31, 35, 31
            |29, 31, 61, 41, 0, 27, 45, 27, 47, 37, 19, 50, 51, 12, 18, 22, 48, 23, 42, 32, 46, 46, 34, 28, 52, 47, 49, 31, 30, 42, 11, 30, 11, 58, 50, 34, 10, 33, 37, 28, 50, 20, 21, 39, 26, 37, 47, 33, 44, 26, 42, 47, 22, 16, 37, 36, 35, 21, 33, 21, 36, 20, 34, 12, 39, 48, 38, 49, 27, 56, 50, 32, 33, 10, 49, 39, 34, 47, 47, 32, 4, 52, 21, 41, 47, 15, 35, 50, 46, 52, 38, 36, 38, 39, 7, 52, 41, 48, 56, 55, 41
            |15, 5, 40, 38, 27, 0, 18, 5, 21, 40, 13, 36, 34, 17, 23, 30, 30, 28, 38, 13, 23, 27, 31, 17, 40, 40, 48, 37, 4, 41, 21, 5, 23, 41, 31, 12, 17, 14, 15, 7, 35, 24, 26, 40, 1, 11, 37, 17, 33, 17, 15, 40, 13, 16, 39, 25, 13, 31, 39, 10, 13, 34, 25, 29, 15, 24, 34, 25, 6, 41, 41, 29, 17, 32, 45, 13, 11, 36, 36, 6, 29, 36, 14, 15, 22, 24, 19, 31, 27, 30, 32, 27, 11, 14, 23, 42, 39, 49, 36, 32, 18
            |24, 14, 31, 45, 45, 18, 0, 19, 9, 49, 29, 35, 29, 34, 38, 44, 27, 41, 45, 19, 17, 24, 39, 28, 40, 45, 55, 48, 15, 49, 38, 16, 40, 37, 26, 16, 35, 20, 15, 20, 33, 38, 40, 49, 19, 9, 38, 24, 35, 28, 5, 44, 27, 32, 48, 30, 16, 46, 50, 26, 14, 49, 31, 46, 15, 13, 42, 14, 20, 38, 43, 38, 24, 49, 50, 7, 14, 38, 37, 14, 47, 33, 28, 7, 10, 40, 24, 26, 23, 21, 38, 32, 8, 11, 41, 42, 46, 55, 28, 22, 15
            |20, 5, 45, 43, 27, 5, 19, 0, 24, 44, 17, 41, 38, 19, 27, 34, 35, 32, 43, 18, 28, 32, 36, 22, 45, 46, 53, 41, 8, 46, 23, 10, 26, 46, 36, 17, 17, 19, 19, 2, 40, 28, 30, 45, 5, 15, 42, 23, 38, 22, 15, 45, 17, 19, 44, 30, 18, 35, 43, 14, 17, 37, 30, 32, 12, 27, 39, 29, 1, 46, 46, 34, 23, 34, 50, 16, 15, 42, 41, 6, 30, 41, 18, 18, 25, 27, 24, 36, 31, 35, 37, 32, 11, 18, 24, 47, 44, 53, 41, 36, 23
            |21, 20, 22, 38, 47, 21, 9, 24, 0, 44, 28, 26, 20, 35, 36, 41, 18, 38, 38, 16, 8, 16, 34, 24, 31, 37, 47, 44, 18, 42, 38, 17, 40, 28, 17, 13, 38, 16, 11, 26, 24, 36, 37, 43, 22, 10, 30, 19, 27, 25, 14, 36, 26, 32, 43, 24, 12, 43, 45, 26, 11, 47, 25, 45, 23, 4, 35, 5, 25, 29, 35, 33, 19, 49, 43, 9, 12, 30, 29, 19, 48, 24, 27, 6, 1, 39, 18, 17, 14, 12, 31, 26, 16, 8, 41, 34, 40, 49, 19, 13, 8
            |26, 45, 43, 8, 37, 40, 49, 44, 44, 0, 28, 26, 32, 30, 21, 15, 31, 14, 9, 30, 37, 31, 10, 23, 24, 14, 12, 6, 39, 6, 27, 37, 26, 34, 33, 33, 38, 30, 34, 46, 28, 19, 16, 3, 39, 40, 20, 26, 20, 23, 50, 15, 27, 27, 1, 20, 34, 16, 5, 30, 35, 19, 18, 25, 54, 41, 9, 42, 45, 30, 19, 11, 26, 30, 13, 42, 36, 21, 21, 45, 35, 31, 27, 42, 43, 22, 25, 34, 32, 40, 13, 18, 48, 38, 31, 22, 7, 11, 38, 42, 35
            |10, 19, 42, 28, 19, 13, 29, 17, 28, 28, 0, 32, 32, 7, 10, 17, 29, 15, 29, 13, 27, 27, 21, 9, 35, 32, 38, 24, 14, 31, 9, 13, 11, 39, 31, 15, 14, 14, 18, 19, 32, 11, 13, 29, 13, 20, 30, 14, 27, 8, 27, 32, 3, 3, 27, 19, 17, 18, 26, 3, 17, 21, 17, 17, 29, 29, 25, 30, 18, 38, 34, 19, 14, 21, 36, 22, 16, 31, 30, 20, 20, 34, 2, 23, 29, 11, 16, 31, 27, 33, 23, 19, 24, 21, 13, 35, 29, 38, 37, 36, 22
            |23, 38, 17, 18, 50, 36, 35, 41, 26, 26, 32, 0, 8, 38, 33, 33, 8, 30, 17, 23, 19, 11, 19, 22, 5, 13, 24, 30, 33, 21, 39, 31, 39, 9, 10, 24, 46, 22, 23, 43, 3, 31, 30, 23, 36, 29, 6, 19, 6, 24, 38, 12, 29, 34, 25, 13, 23, 35, 30, 32, 25, 39, 15, 42, 46, 23, 17, 23, 42, 6, 10, 20, 19, 47, 19, 30, 26, 5, 5, 39, 50, 5, 30, 29, 26, 36, 17, 11, 12, 17, 14, 14, 38, 26, 43, 8, 19, 25, 13, 19, 21
            |22, 35, 11, 25, 51, 34, 29, 38, 20, 32, 32, 8, 0, 39, 35, 37, 3, 34, 24, 21, 13, 6, 24, 23, 12, 21, 31, 35, 30, 28, 40, 28, 41, 8, 3, 21, 46, 20, 19, 40, 4, 34, 34, 30, 34, 25, 13, 19, 12, 25, 33, 20, 30, 35, 31, 16, 20, 39, 36, 32, 21, 43, 18, 45, 42, 16, 23, 16, 39, 9, 17, 25, 19, 50, 26, 25, 23, 12, 12, 35, 52, 4, 30, 24, 19, 38, 17, 4, 7, 10, 19, 17, 33, 21, 45, 15, 26, 33, 6, 11, 16
            |17, 22, 49, 32, 12, 17, 34, 19, 35, 30, 7, 38, 39, 0, 10, 17, 36, 16, 33, 20, 34, 34, 25, 16, 41, 37, 42, 25, 19, 34, 4, 18, 7, 46, 38, 22, 8, 21, 25, 21, 39, 12, 14, 32, 16, 26, 36, 21, 33, 15, 32, 37, 10, 4, 30, 25, 23, 17, 28, 9, 24, 19, 23, 13, 31, 36, 29, 37, 19, 44, 40, 23, 21, 15, 40, 28, 23, 37, 36, 23, 13, 41, 9, 29, 35, 9, 23, 38, 34, 40, 28, 25, 28, 27, 6, 41, 33, 41, 44, 43, 29
            |16, 29, 46, 23, 18, 23, 38, 27, 36, 21, 10, 33, 35, 10, 0, 7, 33, 6, 24, 20, 33, 31, 16, 13, 34, 29, 32, 16, 24, 25, 7, 23, 6, 41, 34, 23, 18, 20, 25, 29, 34, 2, 4, 22, 22, 29, 30, 18, 27, 12, 37, 29, 11, 8, 20, 20, 24, 8, 18, 13, 25, 11, 18, 9, 38, 36, 20, 37, 27, 39, 32, 15, 18, 14, 31, 31, 25, 30, 29, 30, 17, 36, 10, 32, 36, 3, 20, 35, 31, 39, 21, 19, 34, 29, 11, 34, 24, 31, 41, 41, 29
            |20, 35, 47, 19, 22, 30, 44, 34, 41, 15, 17, 33, 37, 17, 7, 0, 34, 3, 21, 25, 36, 33, 14, 17, 33, 26, 27, 9, 30, 20, 13, 29, 11, 41, 36, 28, 24, 25, 30, 36, 34, 6, 4, 17, 29, 35, 28, 22, 26, 16, 43, 26, 17, 15, 15, 21, 29, 2, 11, 20, 30, 7, 19, 10, 45, 40, 17, 41, 34, 38, 30, 13, 22, 15, 27, 37, 30, 29, 28, 36, 20, 37, 17, 37, 41, 8, 23, 37, 34, 42, 19, 20, 40, 34, 16, 32, 20, 26, 42, 44, 33
            |19, 32, 13, 24, 48, 30, 27, 35, 18, 31, 29, 8, 3, 36, 33, 34, 0, 31, 23, 18, 10, 3, 22, 21, 13, 21, 31, 34, 27, 27, 37, 25, 38, 11, 2, 18, 43, 17, 16, 37, 6, 32, 31, 29, 31, 22, 13, 16, 11, 22, 31, 20, 27, 32, 30, 13, 17, 37, 34, 29, 18, 41, 16, 42, 39, 14, 22, 14, 36, 11, 18, 23, 16, 47, 26, 23, 20, 13, 12, 32, 49, 6, 27, 21, 17, 36, 14, 3, 4, 9, 18, 15, 31, 18, 42, 16, 25, 33, 8, 11, 13
            |17, 33, 44, 17, 23, 28, 41, 32, 38, 14, 15, 30, 34, 16, 6, 3, 31, 0, 19, 22, 33, 30, 12, 14, 31, 24, 26, 9, 28, 19, 13, 26, 12, 38, 33, 25, 24, 22, 27, 34, 31, 4, 2, 16, 27, 32, 26, 19, 23, 13, 41, 24, 15, 14, 14, 18, 26, 5, 12, 18, 27, 10, 16, 13, 43, 37, 15, 38, 33, 35, 27, 10, 19, 17, 25, 34, 28, 26, 25, 34, 22, 34, 14, 35, 38, 8, 20, 34, 31, 39, 16, 17, 38, 31, 17, 30, 18, 25, 39, 41, 30
            |23, 43, 34, 1, 42, 38, 45, 43, 38, 9, 29, 17, 24, 33, 24, 21, 23, 19, 0, 27, 31, 24, 8, 21, 15, 6, 10, 14, 37, 4, 31, 35, 30, 25, 25, 30, 41, 26, 30, 46, 20, 22, 20, 6, 38, 37, 11, 22, 12, 22, 47, 6, 27, 29, 8, 15, 30, 22, 14, 30, 31, 26, 14, 31, 52, 35, 4, 36, 44, 21, 10, 10, 22, 36, 7, 38, 33, 12, 12, 43, 41, 22, 27, 38, 38, 26, 21, 26, 25, 33, 7, 13, 45, 34, 35, 13, 2, 11, 30, 35, 30
            |5, 16, 29, 27, 32, 13, 19, 18, 16, 30, 13, 23, 21, 20, 20, 25, 18, 22, 27, 0, 14, 15, 21, 8, 27, 28, 37, 29, 10, 30, 22, 8, 24, 29, 19, 3, 25, 1, 5, 20, 22, 20, 21, 30, 13, 10, 24, 5, 20, 9, 20, 28, 10, 16, 29, 13, 4, 27, 31, 11, 5, 31, 13, 29, 25, 16, 23, 17, 19, 28, 28, 19, 5, 33, 33, 12, 6, 24, 23, 17, 33, 24, 11, 12, 16, 23, 6, 19, 15, 21, 20, 14, 18, 9, 26, 29, 28, 38, 25, 23, 9
            |17, 24, 17, 31, 46, 23, 17, 28, 8, 37, 27, 19, 13, 34, 33, 36, 10, 33, 31, 14, 0, 8, 27, 20, 24, 29, 40, 38, 20, 35, 36, 18, 37, 20, 9, 12, 38, 13, 9, 29, 16, 32, 33, 36, 24, 13, 23, 15, 19, 21, 21, 29, 24, 30, 36, 17, 11, 39, 39, 25, 11, 43, 19, 42, 29, 4, 28, 5, 28, 22, 28, 27, 15, 47, 35, 13, 13, 22, 21, 23, 47, 16, 25, 11, 7, 35, 13, 9, 6, 7, 24, 19, 21, 9, 40, 26, 33, 41, 13, 9, 5
            |17, 29, 15, 25, 46, 27, 24, 32, 16, 31, 27, 11, 6, 34, 31, 33, 3, 30, 24, 15, 8, 0, 22, 18, 16, 22, 33, 33, 24, 28, 35, 22, 36, 14, 4, 15, 40, 14, 13, 34, 9, 30, 30, 29, 28, 19, 15, 13, 12, 20, 28, 21, 24, 30, 30, 12, 14, 35, 34, 26, 15, 40, 15, 40, 36, 12, 22, 12, 33, 14, 20, 22, 13, 45, 28, 20, 17, 14, 14, 29, 47, 9, 25, 18, 15, 34, 11, 4, 1, 9, 18, 14, 28, 15, 40, 18, 26, 34, 10, 11, 10
            |16, 36, 35, 7, 34, 31, 39, 36, 34, 10, 21, 19, 24, 25, 16, 14, 22, 12, 8, 21, 27, 22, 0, 14, 19, 12, 17, 11, 30, 10, 23, 28, 23, 27, 24, 24, 33, 20, 24, 38, 21, 15, 13, 9, 31, 31, 14, 16, 13, 14, 41, 13, 19, 21, 9, 10, 24, 16, 12, 22, 25, 21, 9, 24, 45, 32, 4, 33, 37, 24, 16, 2, 16, 29, 15, 32, 26, 15, 14, 36, 33, 23, 19, 32, 34, 19, 16, 25, 23, 31, 5, 8, 38, 29, 28, 18, 9, 17, 30, 33, 26
            |3, 22, 33, 21, 28, 17, 28, 22, 24, 23, 9, 22, 23, 16, 13, 17, 21, 14, 21, 8, 20, 18, 14, 0, 25, 24, 31, 21, 16, 24, 17, 14, 18, 30, 22, 11, 23, 8, 13, 25, 23, 12, 13, 23, 17, 18, 21, 5, 17, 1, 28, 23, 7, 12, 22, 9, 12, 19, 23, 10, 13, 23, 8, 22, 32, 23, 17, 25, 23, 28, 25, 12, 5, 27, 28, 20, 14, 21, 20, 23, 28, 25, 7, 21, 24, 16, 7, 23, 19, 26, 15, 10, 25, 17, 21, 26, 22, 31, 28, 28, 16
            |26, 43, 20, 17, 52, 40, 40, 45, 31, 24, 35, 5, 12, 41, 34, 33, 13, 31, 15, 27, 24, 16, 19, 25, 0, 10, 20, 29, 37, 19, 41, 35, 41, 10, 15, 29, 49, 26, 27, 47, 8, 33, 32, 22, 40, 34, 5, 23, 8, 27, 43, 9, 33, 37, 23, 16, 28, 35, 29, 35, 29, 40, 18, 43, 51, 28, 16, 28, 46, 6, 6, 21, 23, 48, 15, 35, 31, 4, 5, 43, 51, 9, 33, 34, 31, 37, 21, 16, 17, 22, 14, 16, 43, 30, 45, 3, 17, 22, 17, 23, 25
            |25, 44, 30, 7, 47, 40, 45, 46, 37, 14, 32, 13, 21, 37, 29, 26, 21, 24, 6, 28, 29, 22, 12, 24, 10, 0, 11, 20, 38, 9, 36, 36, 35, 20, 22, 31, 45, 27, 30, 48, 16, 27, 25, 12, 40, 37, 7, 23, 10, 24, 47, 1, 30, 33, 14, 16, 30, 28, 19, 33, 32, 32, 16, 36, 53, 34, 9, 34, 46, 16, 4, 14, 23, 41, 6, 38, 33, 8, 9, 45, 46, 18, 30, 38, 36, 31, 22, 23, 23, 30, 9, 14, 45, 34, 40, 8, 7, 12, 26, 32, 30
            |33, 53, 40, 10, 49, 48, 55, 53, 47, 12, 38, 24, 31, 42, 32, 27, 31, 26, 10, 37, 40, 33, 17, 31, 20, 11, 0, 18, 47, 7, 39, 45, 38, 30, 33, 40, 50, 36, 40, 55, 27, 30, 28, 10, 48, 47, 18, 32, 21, 31, 57, 12, 37, 38, 12, 25, 40, 28, 17, 40, 41, 31, 24, 37, 62, 44, 14, 45, 54, 26, 14, 19, 32, 42, 5, 48, 43, 19, 19, 53, 47, 29, 36, 47, 47, 34, 31, 34, 34, 41, 17, 23, 55, 44, 43, 17, 9, 2, 37, 42, 40
            |24, 42, 46, 13, 31, 37, 48, 41, 44, 6, 24, 30, 35, 25, 16, 9, 34, 9, 14, 29, 38, 33, 11, 21, 29, 20, 18, 0, 37, 13, 22, 35, 21, 38, 36, 32, 33, 29, 34, 43, 32, 14, 12, 9, 36, 39, 24, 25, 23, 21, 49, 21, 24, 23, 7, 21, 33, 10, 2, 27, 34, 13, 19, 19, 52, 42, 13, 43, 42, 34, 24, 11, 25, 23, 19, 41, 35, 25, 25, 43, 29, 34, 23, 41, 44, 17, 25, 36, 34, 42, 16, 19, 46, 38, 25, 27, 13, 17, 41, 44, 36
            |14, 6, 37, 37, 30, 4, 15, 8, 18, 39, 14, 33, 30, 19, 24, 30, 27, 28, 37, 10, 20, 24, 30, 16, 37, 38, 47, 37, 0, 40, 23, 2, 25, 38, 27, 9, 21, 11, 11, 10, 32, 25, 26, 39, 4, 8, 34, 15, 30, 16, 13, 38, 13, 17, 38, 23, 10, 32, 39, 11, 9, 35, 23, 31, 16, 20, 33, 21, 9, 38, 39, 28, 15, 34, 43, 9, 7, 34, 33, 6, 32, 33, 14, 11, 18, 25, 17, 28, 23, 27, 30, 25, 9, 11, 25, 39, 38, 47, 33, 29, 15
            |26, 46, 38, 4, 42, 41, 49, 46, 42, 6, 31, 21, 28, 34, 25, 20, 27, 19, 4, 30, 35, 28, 10, 24, 19, 9, 7, 13, 40, 0, 32, 38, 31, 29, 29, 33, 42, 30, 33, 48, 24, 23, 21, 4, 41, 40, 15, 25, 16, 24, 50, 9, 30, 31, 6, 19, 33, 22, 11, 33, 35, 25, 18, 31, 55, 39, 7, 40, 47, 25, 13, 12, 25, 35, 7, 42, 36, 16, 16, 46, 41, 26, 29, 41, 42, 27, 25, 30, 29, 37, 11, 16, 48, 38, 36, 16, 2, 7, 34, 39, 34
            |19, 26, 50, 30, 11, 21, 38, 23, 38, 27, 9, 39, 40, 4, 7, 13, 37, 13, 31, 22, 36, 35, 23, 17, 41, 36, 39, 22, 23, 32, 0, 22, 2, 47, 39, 25, 11, 23, 27, 25, 39, 9, 11, 29, 20, 29, 36, 22, 33, 16, 36, 36, 12, 6, 27, 25, 26, 13, 24, 12, 27, 14, 23, 8, 36, 38, 27, 40, 24, 44, 39, 21, 22, 11, 38, 31, 26, 36, 35, 27, 11, 41, 11, 33, 38, 5, 24, 40, 35, 42, 27, 25, 32, 30, 4, 40, 31, 38, 45, 45, 31
            |11, 8, 35, 34, 30, 5, 16, 10, 17, 37, 13, 31, 28, 18, 23, 29, 25, 26, 35, 8, 18, 22, 28, 14, 35, 36, 45, 35, 2, 38, 22, 0, 24, 36, 26, 7, 21, 9, 9, 12, 30, 23, 25, 37, 5, 8, 32, 13, 28, 14, 15, 36, 11, 16, 36, 21, 8, 30, 37, 10, 8, 34, 21, 30, 18, 19, 31, 21, 11, 36, 37, 26, 13, 33, 41, 9, 6, 32, 31, 9, 32, 31, 12, 11, 18, 24, 15, 26, 22, 26, 28, 22, 11, 10, 25, 37, 36, 45, 31, 27, 13
            |20, 29, 51, 29, 11, 23, 40, 26, 40, 26, 11, 39, 41, 7, 6, 11, 38, 12, 30, 24, 37, 36, 23, 18, 41, 35, 38, 21, 25, 31, 2, 24, 0, 47, 40, 26, 13, 24, 29, 27, 40, 8, 10, 28, 22, 31, 36, 23, 33, 16, 38, 35, 14, 8, 26, 26, 28, 11, 23, 14, 28, 12, 24, 6, 38, 40, 27, 41, 26, 45, 38, 21, 23, 9, 37, 33, 28, 36, 35, 30, 11, 42, 13, 35, 40, 4, 25, 40, 36, 44, 27, 25, 34, 32, 5, 40, 30, 37, 46, 46, 33
            |30, 43, 11, 26, 58, 41, 37, 46, 28, 34, 39, 9, 8, 46, 41, 41, 11, 38, 25, 29, 20, 14, 27, 30, 10, 20, 30, 38, 38, 29, 47, 36, 47, 0, 11, 29, 53, 28, 27, 48, 7, 40, 39, 31, 42, 33, 14, 26, 15, 31, 41, 19, 37, 42, 33, 21, 28, 43, 38, 39, 29, 48, 23, 50, 49, 23, 25, 23, 47, 4, 16, 29, 26, 55, 25, 33, 31, 13, 13, 43, 58, 5, 37, 31, 27, 44, 24, 11, 15, 16, 22, 22, 41, 29, 51, 13, 27, 32, 9, 16, 24
            |21, 32, 11, 26, 50, 31, 26, 36, 17, 33, 31, 10, 3, 38, 34, 36, 2, 33, 25, 19, 9, 4, 24, 22, 15, 22, 33, 36, 27, 29, 39, 26, 40, 11, 0, 19, 44, 18, 16, 37, 7, 33, 33, 31, 31, 22, 15, 17, 13, 23, 30, 22, 28, 33, 32, 15, 17, 38, 36, 30, 18, 43, 17, 44, 38, 13, 24, 13, 36, 12, 20, 25, 17, 49, 28, 22, 20, 14, 14, 32, 50, 7, 28, 20, 16, 37, 15, 1, 4, 8, 20, 17, 30, 18, 43, 18, 27, 35, 6, 9, 13
            |8, 14, 29, 30, 34, 12, 16, 17, 13, 33, 15, 24, 21, 22, 23, 28, 18, 25, 30, 3, 12, 15, 24, 11, 29, 31, 40, 32, 9, 33, 25, 7, 26, 29, 19, 0, 26, 4, 3, 19, 23, 23, 24, 33, 12, 7, 26, 8, 22, 12, 17, 30, 13, 18, 32, 15, 1, 30, 34, 13, 2, 34, 16, 32, 23, 14, 26, 15, 18, 29, 30, 22, 8, 36, 36, 9, 3, 25, 24, 15, 35, 24, 14, 9, 14, 25, 9, 19, 15, 19, 23, 17, 15, 6, 28, 30, 31, 40, 24, 21, 7
            |23, 22, 54, 40, 10, 17, 35, 17, 38, 38, 14, 46, 46, 8, 18, 24, 43, 24, 41, 25, 38, 40, 33, 23, 49, 45, 50, 33, 21, 42, 11, 21, 13, 53, 44, 26, 0, 26, 29, 18, 46, 20, 22, 40, 17, 28, 44, 27, 40, 22, 32, 45, 16, 12, 38, 32, 28, 24, 35, 14, 28, 25, 31, 18, 29, 40, 37, 41, 17, 51, 47, 31, 27, 18, 48, 30, 26, 44, 43, 23, 13, 47, 16, 32, 39, 17, 29, 44, 40, 45, 36, 33, 28, 31, 9, 49, 41, 49, 50, 47, 33
            |5, 17, 29, 26, 33, 14, 20, 19, 16, 30, 14, 22, 20, 21, 20, 25, 17, 22, 26, 1, 13, 14, 20, 8, 26, 27, 36, 29, 11, 30, 23, 9, 24, 28, 18, 4, 26, 0, 5, 21, 21, 20, 21, 29, 14, 11, 23, 4, 19, 9, 21, 27, 11, 17, 29, 12, 4, 27, 30, 12, 5, 31, 12, 29, 26, 16, 23, 17, 20, 27, 28, 19, 4, 34, 32, 13, 6, 23, 22, 17, 34, 23, 12, 13, 16, 23, 5, 18, 14, 20, 19, 14, 18, 9, 27, 28, 28, 37, 24, 22, 9
            |10, 16, 26, 30, 37, 15, 15, 19, 11, 34, 18, 23, 19, 25, 25, 30, 16, 27, 30, 5, 9, 13, 24, 13, 27, 30, 40, 34, 11, 33, 27, 9, 29, 27, 16, 3, 29, 5, 0, 21, 21, 25, 26, 33, 15, 7, 25, 9, 21, 14, 17, 29, 15, 21, 33, 15, 1, 32, 35, 16, 2, 36, 16, 34, 24, 11, 26, 13, 20, 27, 30, 23, 9, 38, 35, 8, 4, 24, 23, 16, 38, 22, 16, 8, 11, 28, 9, 16, 12, 16, 23, 17, 16, 4, 31, 29, 31, 40, 22, 18, 4
            |22, 6, 46, 45, 28, 7, 20, 2, 26, 46, 19, 43, 40, 21, 29, 36, 37, 34, 46, 20, 29, 34, 38, 25, 47, 48, 55, 43, 10, 48, 25, 12, 27, 48, 37, 19, 18, 21, 21, 0, 42, 30, 32, 47, 8, 16, 44, 25, 40, 24, 15, 47, 19, 21, 46, 32, 20, 37, 45, 16, 19, 39, 32, 33, 11, 29, 42, 30, 1, 48, 49, 36, 25, 35, 52, 17, 17, 44, 43, 6, 31, 43, 20, 19, 26, 29, 26, 37, 33, 36, 39, 34, 11, 20, 26, 49, 47, 56, 42, 38, 25
            |22, 37, 14, 21, 50, 35, 33, 40, 24, 28, 32, 3, 4, 39, 34, 34, 6, 31, 20, 22, 16, 9, 21, 23, 8, 16, 27, 32, 32, 24, 39, 30, 40, 7, 7, 23, 46, 21, 21, 42, 0, 33, 32, 26, 35, 28, 9, 19, 9, 24, 36, 15, 30, 34, 27, 14, 22, 37, 32, 32, 23, 41, 16, 43, 44, 20, 20, 20, 41, 6, 13, 22, 19, 48, 22, 28, 25, 8, 8, 37, 51, 2, 30, 27, 23, 37, 17, 8, 10, 14, 16, 15, 36, 24, 44, 11, 22, 29, 10, 16, 19
            |15, 30, 45, 21, 20, 24, 38, 28, 36, 19, 11, 31, 34, 12, 2, 6, 32, 4, 22, 20, 32, 30, 15, 12, 33, 27, 30, 14, 25, 23, 9, 23, 8, 40, 33, 23, 20, 20, 25, 30, 33, 0, 2, 20, 23, 29, 28, 18, 25, 11, 38, 27, 12, 9, 18, 18, 24, 7, 16, 14, 25, 11, 16, 11, 39, 36, 18, 37, 28, 37, 30, 13, 18, 16, 29, 31, 25, 28, 27, 30, 19, 35, 11, 32, 36, 4, 19, 34, 30, 38, 19, 18, 34, 29, 13, 32, 22, 29, 40, 40, 28
            |16, 31, 44, 19, 21, 26, 40, 30, 37, 16, 13, 30, 34, 14, 4, 4, 31, 2, 20, 21, 33, 30, 13, 13, 32, 25, 28, 12, 26, 21, 11, 25, 10, 39, 33, 24, 22, 21, 26, 32, 32, 2, 0, 18, 25, 31, 27, 18, 24, 12, 39, 26, 13, 11, 16, 18, 25, 6, 14, 16, 26, 10, 16, 11, 41, 36, 17, 37, 30, 36, 29, 11, 18, 16, 27, 33, 26, 27, 26, 32, 20, 34, 13, 33, 37, 6, 20, 34, 30, 38, 17, 17, 36, 30, 15, 31, 20, 27, 39, 40, 29
            |25, 45, 40, 5, 39, 40, 49, 45, 43, 3, 29, 23, 30, 32, 22, 17, 29, 16, 6, 30, 36, 29, 9, 23, 22, 12, 10, 9, 39, 4, 29, 37, 28, 31, 31, 33, 40, 29, 33, 47, 26, 20, 18, 0, 39, 40, 17, 25, 18, 23, 50, 13, 28, 28, 2, 19, 33, 18, 8, 31, 34, 22, 17, 27, 54, 40, 7, 41, 45, 28, 16, 11, 25, 32, 10, 42, 36, 18, 18, 45, 37, 28, 27, 41, 42, 24, 25, 32, 31, 38, 11, 17, 47, 38, 33, 19, 4, 9, 36, 40, 34
            |15, 6, 41, 38, 26, 1, 19, 5, 22, 39, 13, 36, 34, 16, 22, 29, 31, 27, 38, 13, 24, 28, 31, 17, 40, 40, 48, 36, 4, 41, 20, 5, 22, 42, 31, 12, 17, 14, 15, 8, 35, 23, 25, 39, 0, 12, 36, 17, 32, 17, 16, 40, 12, 15, 38, 25, 14, 30, 38, 9, 13, 33, 24, 28, 16, 24, 34, 26, 6, 41, 41, 29, 17, 31, 45, 14, 11, 36, 35, 7, 28, 36, 13, 16, 23, 23, 19, 31, 27, 31, 31, 26, 12, 15, 22, 41, 39, 48, 36, 33, 19
            |15, 10, 30, 37, 37, 11, 9, 15, 10, 40, 20, 29, 25, 26, 29, 35, 22, 32, 37, 10, 13, 19, 31, 18, 34, 37, 47, 39, 8, 40, 29, 8, 31, 33, 22, 7, 28, 11, 7, 16, 28, 29, 31, 40, 12, 0, 32, 15, 28, 19, 10, 37, 18, 23, 40, 22, 7, 36, 41, 17, 6, 40, 23, 37, 17, 13, 33, 14, 16, 34, 37, 30, 15, 41, 43, 2, 4, 31, 30, 10, 39, 28, 19, 4, 11, 31, 16, 22, 18, 20, 30, 24, 9, 4, 32, 36, 38, 47, 26, 22, 9
            |22, 40, 23, 12, 47, 37, 38, 42, 30, 20, 30, 6, 13, 36, 30, 28, 13, 26, 11, 24, 23, 15, 14, 21, 5, 7, 18, 24, 34, 15, 36, 32, 36, 14, 15, 26, 44, 23, 25, 44, 9, 28, 27, 17, 36, 32, 0, 19, 4, 22, 41, 6, 28, 32, 19, 12, 25, 30, 24, 31, 26, 35, 13, 38, 48, 27, 12, 27, 43, 10, 5, 16, 19, 43, 13, 33, 28, 1, 1, 40, 47, 11, 28, 32, 30, 32, 17, 16, 16, 23, 9, 11, 40, 28, 40, 5, 13, 20, 19, 24, 24
            |4, 21, 28, 22, 33, 17, 24, 23, 19, 26, 14, 19, 19, 21, 18, 22, 16, 19, 22, 5, 15, 13, 16, 5, 23, 23, 32, 25, 15, 25, 22, 13, 23, 26, 17, 8, 27, 4, 9, 25, 19, 18, 18, 25, 17, 15, 19, 0, 15, 7, 25, 23, 11, 16, 25, 8, 8, 24, 27, 13, 9, 28, 8, 28, 30, 18, 18, 19, 24, 25, 24, 15, 0, 32, 28, 17, 11, 19, 18, 21, 33, 21, 11, 17, 19, 21, 2, 18, 13, 21, 15, 9, 23, 13, 26, 24, 23, 33, 23, 23, 11
            |18, 36, 23, 13, 44, 33, 35, 38, 27, 20, 27, 6, 12, 33, 27, 26, 11, 23, 12, 20, 19, 12, 13, 17, 8, 10, 21, 23, 30, 16, 33, 28, 33, 15, 13, 22, 40, 19, 21, 40, 9, 25, 24, 18, 32, 28, 4, 15, 0, 18, 37, 9, 24, 28, 19, 8, 21, 28, 24, 27, 22, 33, 9, 35, 44, 24, 11, 24, 39, 12, 9, 14, 15, 40, 16, 29, 24, 4, 3, 36, 44, 11, 25, 28, 26, 29, 13, 14, 13, 21, 8, 8, 36, 24, 37, 9, 14, 22, 18, 22, 20
            |4, 22, 35, 21, 26, 17, 28, 22, 25, 23, 8, 24, 25, 15, 12, 16, 22, 13, 22, 9, 21, 20, 14, 1, 27, 24, 31, 21, 16, 24, 16, 14, 16, 31, 23, 12, 22, 9, 14, 24, 24, 11, 12, 23, 17, 19, 22, 7, 18, 0, 28, 24, 6, 10, 22, 10, 13, 18, 22, 9, 14, 22, 9, 21, 32, 25, 17, 26, 23, 30, 26, 12, 7, 26, 28, 21, 15, 22, 21, 23, 27, 26, 6, 21, 25, 14, 9, 24, 20, 27, 15, 11, 25, 18, 20, 27, 22, 31, 30, 30, 17
            |25, 10, 36, 47, 42, 15, 5, 15, 14, 50, 27, 38, 33, 32, 37, 43, 31, 41, 47, 20, 21, 28, 41, 28, 43, 47, 57, 49, 13, 50, 36, 15, 38, 41, 30, 17, 32, 21, 17, 15, 36, 38, 39, 50, 16, 10, 41, 25, 37, 28, 0, 46, 26, 30, 49, 32, 17, 45, 51, 24, 16, 48, 33, 44, 9, 18, 43, 19, 16, 42, 46, 39, 25, 47, 52, 9, 14, 41, 40, 9, 44, 37, 27, 10, 15, 39, 25, 30, 27, 26, 40, 34, 4, 13, 38, 46, 48, 57, 33, 27, 18
            |25, 44, 29, 8, 47, 40, 44, 45, 36, 15, 32, 12, 20, 37, 29, 26, 20, 24, 6, 28, 29, 21, 13, 23, 9, 1, 12, 21, 38, 9, 36, 36, 35, 19, 22, 30, 45, 27, 29, 47, 15, 27, 26, 13, 40, 37, 6, 23, 9, 24, 46, 0, 30, 33, 14, 15, 30, 28, 20, 33, 31, 32, 16, 37, 53, 33, 9, 33, 46, 15, 4, 15, 23, 42, 7, 38, 33, 7, 8, 44, 46, 17, 30, 37, 36, 32, 21, 22, 22, 29, 9, 14, 45, 33, 40, 7, 8, 13, 25, 31, 29
            |7, 18, 39, 27, 22, 13, 27, 17, 26, 27, 3, 29, 30, 10, 11, 17, 27, 15, 27, 10, 24, 24, 19, 7, 33, 30, 37, 24, 13, 30, 12, 11, 14, 37, 28, 13, 16, 11, 15, 19, 30, 12, 13, 28, 12, 18, 28, 11, 24, 6, 26, 30, 0, 6, 27, 16, 14, 19, 26, 3, 15, 22, 15, 19, 28, 26, 23, 28, 18, 35, 32, 17, 11, 23, 34, 20, 14, 28, 27, 19, 23, 31, 1, 21, 26, 13, 13, 28, 24, 31, 21, 17, 22, 18, 16, 33, 28, 37, 34, 33, 19
            |13, 21, 45, 28, 16, 16, 32, 19, 32, 27, 3, 34, 35, 4, 8, 15, 32, 14, 29, 16, 30, 30, 21, 12, 37, 33, 38, 23, 17, 31, 6, 16, 8, 42, 33, 18, 12, 17, 21, 21, 34, 9, 11, 28, 15, 23, 32, 16, 28, 10, 30, 33, 6, 0, 27, 21, 20, 16, 25, 6, 20, 18, 19, 14, 31, 32, 25, 34, 19, 40, 35, 19, 16, 17, 36, 25, 20, 32, 31, 22, 17, 36, 5, 26, 32, 9, 18, 34, 30, 36, 24, 21, 26, 24, 10, 37, 29, 38, 40, 39, 25
            |25, 44, 42, 7, 37, 39, 48, 44, 43, 1, 27, 25, 31, 30, 20, 15, 30, 14, 8, 29, 36, 30, 9, 22, 23, 14, 12, 7, 38, 6, 27, 36, 26, 33, 32, 32, 38, 29, 33, 46, 27, 18, 16, 2, 38, 40, 19, 25, 19, 22, 49, 14, 27, 27, 0, 19, 33, 16, 6, 30, 34, 19, 17, 25, 54, 41, 8, 41, 44, 29, 18, 10, 25, 30, 13, 41, 35, 20, 20, 45, 35, 30, 26, 41, 42, 22, 25, 33, 31, 39, 12, 17, 47, 38, 31, 21, 6, 11, 37, 41, 35
            |10, 29, 26, 15, 36, 25, 30, 30, 24, 20, 19, 13, 16, 25, 20, 21, 13, 18, 15, 13, 17, 12, 10, 9, 16, 16, 25, 21, 23, 19, 25, 21, 26, 21, 15, 15, 32, 12, 15, 32, 14, 18, 18, 19, 25, 22, 12, 8, 8, 10, 32, 15, 16, 21, 19, 0, 15, 23, 22, 19, 16, 28, 2, 29, 38, 22, 12, 22, 31, 19, 16, 10, 8, 34, 21, 23, 18, 12, 11, 29, 36, 16, 16, 23, 23, 23, 6, 16, 13, 21, 8, 2, 30, 19, 30, 17, 16, 25, 21, 23, 16
            |9, 15, 27, 30, 35, 13, 16, 18, 12, 34, 17, 23, 20, 23, 24, 29, 17, 26, 30, 4, 11, 14, 24, 12, 28, 30, 40, 33, 10, 33, 26, 8, 28, 28, 17, 1, 28, 4, 1, 20, 22, 24, 25, 33, 14, 7, 25, 8, 21, 13, 17, 30, 14, 20, 33, 15, 0, 31, 35, 14, 1, 35, 16, 33, 23, 13, 26, 14, 19, 28, 30, 23, 8, 37, 36, 9, 3, 25, 24, 15, 37, 23, 15, 9, 12, 26, 8, 18, 13, 18, 23, 17, 15, 5, 30, 30, 31, 40, 23, 20, 6
            |22, 37, 50, 21, 21, 31, 46, 35, 43, 16, 18, 35, 39, 17, 8, 2, 37, 5, 22, 27, 39, 35, 16, 19, 35, 28, 28, 10, 32, 22, 13, 30, 11, 43, 38, 30, 24, 27, 32, 37, 37, 7, 6, 18, 30, 36, 30, 24, 28, 18, 45, 28, 19, 16, 16, 23, 31, 0, 12, 21, 32, 4, 21, 9, 47, 42, 19, 43, 35, 40, 32, 15, 24, 14, 28, 38, 32, 31, 30, 38, 19, 39, 18, 39, 43, 8, 25, 39, 36, 44, 21, 22, 41, 36, 16, 34, 22, 27, 45, 46, 35
            |26, 44, 46, 12, 33, 39, 50, 43, 45, 5, 26, 30, 36, 28, 18, 11, 34, 12, 14, 31, 39, 34, 12, 23, 29, 19, 17, 2, 39, 11, 24, 37, 23, 38, 36, 34, 35, 30, 35, 45, 32, 16, 14, 8, 38, 41, 24, 27, 24, 22, 51, 20, 26, 25, 6, 22, 35, 12, 0, 29, 36, 14, 20, 21, 54, 44, 13, 44, 44, 34, 24, 12, 27, 25, 18, 43, 37, 25, 25, 45, 31, 34, 25, 43, 45, 19, 27, 37, 35, 43, 16, 20, 48, 40, 28, 27, 12, 15, 42, 45, 37
            |9, 16, 41, 30, 21, 10, 26, 14, 26, 30, 3, 32, 32, 9, 13, 20, 29, 18, 30, 11, 25, 26, 22, 10, 35, 33, 40, 27, 11, 33, 12, 10, 14, 39, 30, 13, 14, 12, 16, 16, 32, 14, 16, 31, 9, 17, 31, 13, 27, 9, 24, 33, 3, 6, 30, 19, 14, 21, 29, 0, 15, 24, 18, 20, 26, 27, 26, 28, 15, 38, 35, 21, 13, 23, 37, 19, 14, 31, 30, 17, 22, 34, 4, 21, 26, 14, 15, 30, 26, 32, 24, 20, 21, 18, 15, 36, 31, 40, 36, 34, 20
            |10, 14, 28, 31, 36, 13, 14, 17, 11, 35, 17, 25, 21, 24, 25, 30, 18, 27, 31, 5, 11, 15, 25, 13, 29, 32, 41, 34, 9, 35, 27, 8, 28, 29, 18, 2, 28, 5, 2, 19, 23, 25, 26, 34, 13, 6, 26, 9, 22, 14, 16, 31, 15, 20, 34, 16, 1, 32, 36, 15, 0, 36, 17, 34, 22, 12, 28, 14, 18, 29, 31, 24, 9, 38, 37, 7, 2, 26, 25, 14, 37, 24, 16, 7, 12, 27, 10, 18, 14, 18, 24, 18, 14, 4, 30, 31, 33, 42, 23, 20, 6
            |26, 40, 54, 25, 20, 34, 49, 37, 47, 19, 21, 39, 43, 19, 11, 7, 41, 10, 26, 31, 43, 40, 21, 23, 40, 32, 31, 13, 35, 25, 14, 34, 12, 48, 43, 34, 25, 31, 36, 39, 41, 11, 10, 22, 33, 40, 35, 28, 33, 22, 48, 32, 22, 18, 19, 28, 35, 4, 14, 24, 36, 0, 25, 8, 49, 47, 23, 48, 38, 45, 36, 19, 28, 11, 32, 42, 36, 35, 35, 40, 17, 43, 21, 43, 47, 10, 30, 44, 40, 48, 25, 26, 45, 40, 16, 38, 25, 30, 49, 51, 39
            |9, 29, 29, 14, 34, 25, 31, 30, 25, 18, 17, 15, 18, 23, 18, 19, 16, 16, 14, 13, 19, 15, 9, 8, 18, 16, 24, 19, 23, 18, 23, 21, 24, 23, 17, 16, 31, 12, 16, 32, 16, 16, 16, 17, 24, 23, 13, 8, 9, 9, 33, 16, 15, 19, 17, 2, 16, 21, 20, 18, 17, 25, 0, 27, 38, 23, 11, 24, 31, 21, 17, 8, 8, 32, 21, 24, 18, 13, 12, 29, 34, 18, 15, 24, 25, 21, 7, 18, 15, 23, 7, 2, 30, 20, 28, 18, 16, 25, 24, 25, 17
            |25, 35, 55, 30, 12, 29, 46, 32, 45, 25, 17, 42, 45, 13, 9, 10, 42, 13, 31, 29, 42, 40, 24, 22, 43, 36, 37, 19, 31, 31, 8, 30, 6, 50, 44, 32, 18, 29, 34, 33, 43, 11, 11, 27, 28, 37, 38, 28, 35, 21, 44, 37, 19, 14, 25, 29, 33, 9, 21, 20, 34, 8, 27, 0, 44, 45, 28, 46, 32, 48, 40, 22, 28, 5, 37, 39, 33, 39, 38, 36, 10, 45, 18, 40, 45, 7, 30, 45, 41, 48, 29, 28, 40, 38, 8, 42, 30, 36, 50, 51, 38
            |29, 10, 45, 52, 39, 15, 15, 12, 23, 54, 29, 46, 42, 31, 38, 45, 39, 43, 52, 25, 29, 36, 45, 32, 51, 53, 62, 52, 16, 55, 36, 18, 38, 49, 38, 23, 29, 26, 24, 11, 44, 39, 41, 54, 16, 17, 48, 30, 44, 32, 9, 53, 28, 31, 54, 38, 23, 47, 54, 26, 22, 49, 38, 44, 0, 27, 48, 28, 12, 50, 53, 44, 30, 46, 59, 16, 20, 48, 47, 9, 42, 45, 29, 18, 24, 39, 31, 38, 35, 35, 45, 40, 8, 21, 37, 53, 53, 63, 42, 36, 26
            |21, 23, 18, 36, 48, 24, 13, 27, 4, 41, 29, 23, 16, 36, 36, 40, 14, 37, 35, 16, 4, 12, 32, 23, 28, 34, 44, 42, 20, 39, 38, 19, 40, 23, 13, 14, 40, 16, 11, 29, 20, 36, 36, 40, 24, 13, 27, 18, 24, 25, 18, 33, 26, 32, 41, 22, 13, 42, 44, 27, 12, 47, 23, 45, 27, 0, 33, 1, 28, 25, 32, 31, 18, 49, 40, 12, 13, 26, 26, 22, 49, 20, 27, 9, 3, 39, 17, 13, 11, 8, 29, 24, 19, 9, 42, 30, 37, 46, 15, 9, 7
            |19, 39, 34, 4, 38, 34, 42, 39, 35, 9, 25, 17, 23, 29, 20, 17, 22, 15, 4, 23, 28, 22, 4, 17, 16, 9, 14, 13, 33, 7, 27, 31, 27, 25, 24, 26, 37, 23, 26, 42, 20, 18, 17, 7, 34, 33, 12, 18, 11, 17, 43, 9, 23, 25, 8, 12, 26, 19, 13, 26, 28, 23, 11, 28, 48, 33, 0, 34, 40, 22, 12, 6, 18, 33, 11, 35, 29, 13, 12, 39, 37, 22, 23, 34, 35, 23, 18, 25, 23, 31, 4, 9, 41, 31, 32, 15, 5, 14, 29, 33, 27
            |22, 24, 17, 36, 49, 25, 14, 29, 5, 42, 30, 23, 16, 37, 37, 41, 14, 38, 36, 17, 5, 12, 33, 25, 28, 34, 45, 43, 21, 40, 40, 21, 41, 23, 13, 15, 41, 17, 13, 30, 20, 37, 37, 41, 26, 14, 27, 19, 24, 26, 19, 33, 28, 34, 41, 22, 14, 43, 44, 28, 14, 48, 24, 46, 28, 1, 34, 0, 30, 25, 32, 32, 19, 51, 40, 13, 15, 26, 26, 24, 51, 19, 29, 11, 4, 40, 18, 12, 11, 7, 29, 25, 20, 11, 43, 30, 38, 46, 14, 8, 9
            |21, 6, 46, 44, 27, 6, 20, 1, 25, 45, 18, 42, 39, 19, 27, 34, 36, 33, 44, 19, 28, 33, 37, 23, 46, 46, 54, 42, 9, 47, 24, 11, 26, 47, 36, 18, 17, 20, 20, 1, 41, 28, 30, 45, 6, 16, 43, 24, 39, 23, 16, 46, 18, 19, 44, 31, 19, 35, 44, 15, 18, 38, 31, 32, 12, 28, 40, 30, 0, 47, 47, 35, 24, 34, 51, 17, 16, 43, 42, 6, 30, 42, 18, 19, 26, 28, 25, 37, 32, 35, 38, 33, 12, 19, 25, 48, 45, 54, 41, 37, 24
            |28, 43, 15, 22, 56, 41, 38, 46, 29, 30, 38, 6, 9, 44, 39, 38, 11, 35, 21, 28, 22, 14, 24, 28, 6, 16, 26, 34, 38, 25, 44, 36, 45, 4, 12, 29, 51, 27, 27, 48, 6, 37, 36, 28, 41, 34, 10, 25, 12, 30, 42, 15, 35, 40, 29, 19, 28, 40, 34, 38, 29, 45, 21, 48, 50, 25, 22, 25, 47, 0, 12, 25, 25, 52, 21, 34, 31, 9, 10, 43, 55, 5, 35, 32, 28, 41, 23, 13, 16, 18, 19, 19, 42, 30, 49, 9, 23, 28, 12, 19, 25
            |26, 45, 26, 11, 50, 41, 43, 46, 35, 19, 34, 10, 17, 40, 32, 30, 18, 27, 10, 28, 28, 20, 16, 25, 6, 4, 14, 24, 39, 13, 39, 37, 38, 16, 20, 30, 47, 28, 30, 49, 13, 30, 29, 16, 41, 37, 5, 24, 9, 26, 46, 4, 32, 35, 18, 16, 30, 32, 24, 35, 31, 36, 17, 40, 53, 32, 12, 32, 47, 12, 0, 17, 24, 45, 9, 38, 33, 6, 6, 45, 49, 15, 32, 37, 35, 35, 22, 21, 21, 27, 11, 15, 45, 33, 43, 3, 12, 16, 23, 29, 29
            |15, 34, 35, 9, 32, 29, 38, 34, 33, 11, 19, 20, 25, 23, 15, 13, 23, 10, 10, 19, 27, 22, 2, 12, 21, 14, 19, 11, 28, 12, 21, 26, 21, 29, 25, 22, 31, 19, 23, 36, 22, 13, 11, 11, 29, 30, 16, 15, 14, 12, 39, 15, 17, 19, 10, 10, 23, 15, 12, 21, 24, 19, 8, 22, 44, 31, 6, 32, 35, 25, 17, 0, 15, 27, 17, 31, 25, 16, 16, 35, 31, 24, 17, 31, 33, 17, 15, 26, 23, 31, 6, 8, 37, 28, 26, 20, 10, 19, 31, 33, 25
            |4, 21, 28, 22, 33, 17, 24, 23, 19, 26, 14, 19, 19, 21, 18, 22, 16, 19, 22, 5, 15, 13, 16, 5, 23, 23, 32, 25, 15, 25, 22, 13, 23, 26, 17, 8, 27, 4, 9, 25, 19, 18, 18, 25, 17, 15, 19, 0, 15, 7, 25, 23, 11, 16, 25, 8, 8, 24, 27, 13, 9, 28, 8, 28, 30, 18, 18, 19, 24, 25, 24, 15, 0, 32, 28, 17, 11, 19, 18, 21, 33, 21, 11, 17, 19, 21, 2, 18, 13, 21, 15, 9, 23, 13, 26, 24, 23, 33, 23, 23, 11
            |29, 37, 60, 35, 10, 32, 49, 34, 49, 30, 21, 47, 50, 15, 14, 15, 47, 17, 36, 33, 47, 45, 29, 27, 48, 41, 42, 23, 34, 35, 11, 33, 9, 55, 49, 36, 18, 34, 38, 35, 48, 16, 16, 32, 31, 41, 43, 32, 40, 26, 47, 42, 23, 17, 30, 34, 37, 14, 25, 23, 38, 11, 32, 5, 46, 49, 33, 51, 34, 52, 45, 27, 32, 0, 42, 43, 37, 44, 43, 38, 7, 50, 22, 44, 49, 11, 34, 49, 45, 53, 34, 33, 43, 41, 9, 47, 35, 40, 55, 55, 42
            |30, 49, 35, 8, 49, 45, 50, 50, 43, 13, 36, 19, 26, 40, 31, 27, 26, 25, 7, 33, 35, 28, 15, 28, 15, 6, 5, 19, 43, 7, 38, 41, 37, 25, 28, 36, 48, 32, 35, 52, 22, 29, 27, 10, 45, 43, 13, 28, 16, 28, 52, 7, 34, 36, 13, 21, 36, 28, 18, 37, 37, 32, 21, 37, 59, 40, 11, 40, 51, 21, 9, 17, 28, 42, 0, 44, 39, 14, 14, 50, 47, 24, 34, 43, 42, 33, 27, 29, 29, 36, 13, 19, 51, 40, 42, 12, 7, 7, 32, 37, 35
            |17, 11, 30, 38, 39, 13, 7, 16, 9, 42, 22, 30, 25, 28, 31, 37, 23, 34, 38, 12, 13, 20, 32, 20, 35, 38, 48, 41, 9, 42, 31, 9, 33, 33, 22, 9, 30, 13, 8, 17, 28, 31, 33, 42, 14, 2, 33, 17, 29, 21, 9, 38, 20, 25, 41, 23, 9, 38, 43, 19, 7, 42, 24, 39, 16, 12, 35, 13, 17, 34, 38, 31, 17, 43, 44, 0, 6, 32, 31, 11, 41, 29, 21, 2, 9, 33, 17, 22, 18, 19, 31, 25, 8, 4, 34, 37, 40, 49, 26, 21, 9
            |11, 12, 30, 33, 34, 11, 14, 15, 12, 36, 16, 26, 23, 23, 25, 30, 20, 28, 33, 6, 13, 17, 26, 14, 31, 33, 43, 35, 7, 36, 26, 6, 28, 31, 20, 3, 26, 6, 4, 17, 25, 25, 26, 36, 11, 4, 28, 11, 24, 15, 14, 33, 14, 20, 35, 18, 3, 32, 37, 14, 2, 36, 18, 33, 20, 13, 29, 15, 16, 31, 33, 25, 11, 37, 39, 6, 0, 28, 27, 12, 36, 26, 15, 7, 13, 27, 11, 20, 16, 20, 25, 20, 12, 4, 29, 33, 34, 43, 25, 22, 8
            |22, 40, 22, 13, 47, 36, 38, 42, 30, 21, 31, 5, 12, 37, 30, 29, 13, 26, 12, 24, 22, 14, 15, 21, 4, 8, 19, 25, 34, 16, 36, 32, 36, 13, 14, 25, 44, 23, 24, 44, 8, 28, 27, 18, 36, 31, 1, 19, 4, 22, 41, 7, 28, 32, 20, 12, 25, 31, 25, 31, 26, 35, 13, 39, 48, 26, 13, 26, 43, 9, 6, 16, 19, 44, 14, 32, 28, 0, 1, 40, 47, 10, 28, 31, 29, 33, 17, 15, 16, 22, 10, 11, 40, 28, 41, 5, 14, 21, 18, 23, 23
            |21, 39, 22, 13, 47, 36, 37, 41, 29, 21, 30, 5, 12, 36, 29, 28, 12, 25, 12, 23, 21, 14, 14, 20, 5, 9, 19, 25, 33, 16, 35, 31, 35, 13, 14, 24, 43, 22, 23, 43, 8, 27, 26, 18, 35, 30, 1, 18, 3, 21, 40, 8, 27, 31, 20, 11, 24, 30, 25, 30, 25, 35, 12, 38, 47, 26, 12, 26, 42, 10, 6, 16, 18, 43, 14, 31, 27, 1, 0, 39, 46, 10, 27, 30, 28, 32, 16, 15, 15, 22, 9, 10, 39, 27, 40, 6, 14, 21, 18, 23, 22
            |20, 1, 40, 43, 32, 6, 14, 6, 19, 45, 20, 39, 35, 23, 30, 36, 32, 34, 43, 17, 23, 29, 36, 23, 43, 45, 53, 43, 6, 46, 27, 9, 30, 43, 32, 15, 23, 17, 16, 6, 37, 30, 32, 45, 7, 10, 40, 21, 36, 23, 9, 44, 19, 22, 45, 29, 15, 38, 45, 17, 14, 40, 29, 36, 9, 22, 39, 24, 6, 43, 45, 35, 21, 38, 50, 11, 12, 40, 39, 0, 35, 38, 20, 13, 20, 31, 23, 32, 28, 30, 36, 31, 5, 14, 29, 45, 44, 54, 36, 32, 19
            |30, 34, 62, 39, 4, 29, 47, 30, 48, 35, 20, 50, 52, 13, 17, 20, 49, 22, 41, 33, 47, 47, 33, 28, 51, 46, 47, 29, 32, 41, 11, 32, 11, 58, 50, 35, 13, 34, 38, 31, 51, 19, 20, 37, 28, 39, 47, 33, 44, 27, 44, 46, 23, 17, 35, 36, 37, 19, 31, 22, 37, 17, 34, 10, 42, 49, 37, 51, 30, 55, 49, 31, 33, 7, 47, 41, 36, 47, 46, 35, 0, 53, 22, 43, 49, 14, 35, 51, 47, 54, 38, 36, 40, 41, 7, 51, 40, 46, 57, 56, 42
            |24, 38, 12, 23, 52, 36, 33, 41, 24, 31, 34, 5, 4, 41, 36, 37, 6, 34, 22, 24, 16, 9, 23, 25, 9, 18, 29, 34, 33, 26, 41, 31, 42, 5, 7, 24, 47, 23, 22, 43, 2, 35, 34, 28, 36, 28, 11, 21, 11, 26, 37, 17, 31, 36, 30, 16, 23, 39, 34, 34, 24, 43, 18, 45, 45, 20, 22, 19, 42, 5, 15, 24, 21, 50, 24, 29, 26, 10, 10, 38, 53, 0, 32, 27, 23, 39, 18, 7, 10, 13, 18, 17, 37, 24, 46, 12, 24, 30, 8, 14, 19
            |8, 19, 40, 26, 21, 14, 28, 18, 27, 27, 2, 30, 30, 9, 10, 17, 27, 14, 27, 11, 25, 25, 19, 7, 33, 30, 36, 23, 14, 29, 11, 12, 13, 37, 28, 14, 16, 12, 16, 20, 30, 11, 13, 27, 13, 19, 28, 11, 25, 6, 27, 30, 1, 5, 26, 16, 15, 18, 25, 4, 16, 21, 15, 18, 29, 27, 23, 29, 18, 35, 32, 17, 11, 22, 34, 21, 15, 28, 27, 20, 22, 32, 0, 22, 27, 12, 14, 29, 25, 31, 21, 17, 23, 19, 15, 33, 28, 36, 35, 34, 20
            |17, 13, 27, 38, 41, 15, 7, 18, 6, 42, 23, 29, 24, 29, 32, 37, 21, 35, 38, 12, 11, 18, 32, 21, 34, 38, 47, 41, 11, 41, 33, 11, 35, 31, 20, 9, 32, 13, 8, 19, 27, 32, 33, 41, 16, 4, 32, 17, 28, 21, 10, 37, 21, 26, 41, 23, 9, 39, 43, 21, 7, 43, 24, 40, 18, 9, 34, 11, 19, 32, 37, 31, 17, 44, 43, 2, 7, 31, 30, 13, 43, 27, 22, 0, 7, 34, 17, 20, 17, 17, 31, 25, 10, 4, 36, 36, 39, 48, 24, 19, 8
            |21, 21, 21, 38, 47, 22, 10, 25, 1, 43, 29, 26, 19, 35, 36, 41, 17, 38, 38, 16, 7, 15, 34, 24, 31, 36, 47, 44, 18, 42, 38, 18, 40, 27, 16, 14, 39, 16, 11, 26, 23, 36, 37, 42, 23, 11, 30, 19, 26, 25, 15, 36, 26, 32, 42, 23, 12, 43, 45, 26, 12, 47, 25, 45, 24, 3, 35, 4, 26, 28, 35, 33, 19, 49, 42, 9, 13, 29, 28, 20, 49, 23, 27, 7, 0, 39, 18, 16, 13, 11, 31, 26, 16, 8, 42, 33, 39, 48, 18, 12, 8
            |18, 30, 49, 25, 15, 24, 40, 27, 39, 22, 11, 36, 38, 9, 3, 8, 36, 8, 26, 23, 35, 34, 19, 16, 37, 31, 34, 17, 25, 27, 5, 24, 4, 44, 37, 25, 17, 23, 28, 29, 37, 4, 6, 24, 23, 31, 32, 21, 29, 14, 39, 32, 13, 9, 22, 23, 26, 8, 19, 14, 27, 10, 21, 7, 39, 39, 23, 40, 28, 41, 35, 17, 21, 11, 33, 33, 27, 33, 32, 31, 14, 39, 12, 34, 39, 0, 23, 38, 34, 42, 23, 22, 35, 31, 9, 37, 26, 33, 44, 44, 31
            |6, 22, 26, 21, 35, 19, 24, 24, 18, 25, 16, 17, 17, 23, 20, 23, 14, 20, 21, 6, 13, 11, 16, 7, 21, 22, 31, 25, 17, 25, 24, 15, 25, 24, 15, 9, 29, 5, 9, 26, 17, 19, 20, 25, 19, 16, 17, 2, 13, 9, 25, 21, 13, 18, 25, 6, 8, 25, 27, 15, 10, 30, 7, 30, 31, 17, 18, 18, 25, 23, 22, 15, 2, 34, 27, 17, 11, 17, 16, 23, 35, 18, 14, 17, 18, 23, 0, 16, 11, 19, 14, 8, 24, 13, 28, 22, 23, 32, 21, 21, 10
            |21, 32, 11, 27, 50, 31, 26, 36, 17, 34, 31, 11, 4, 38, 35, 37, 3, 34, 26, 19, 9, 4, 25, 23, 16, 23, 34, 36, 28, 30, 40, 26, 40, 11, 1, 19, 44, 18, 16, 37, 8, 34, 34, 32, 31, 22, 16, 18, 14, 24, 30, 22, 28, 34, 33, 16, 18, 39, 37, 30, 18, 44, 18, 45, 38, 13, 25, 12, 37, 13, 21, 26, 18, 49, 29, 22, 20, 15, 15, 32, 51, 7, 29, 20, 16, 38, 16, 0, 4, 7, 21, 18, 30, 18, 44, 19, 28, 36, 6, 8, 13
            |17, 28, 15, 26, 46, 27, 23, 31, 14, 32, 27, 12, 7, 34, 31, 34, 4, 31, 25, 15, 6, 1, 23, 19, 17, 23, 34, 34, 23, 29, 35, 22, 36, 15, 4, 15, 40, 14, 12, 33, 10, 30, 30, 31, 27, 18, 16, 13, 13, 20, 27, 22, 24, 30, 31, 13, 13, 36, 35, 26, 14, 40, 15, 41, 35, 11, 23, 11, 32, 16, 21, 23, 13, 45, 29, 18, 16, 16, 15, 28, 47, 10, 25, 17, 13, 34, 11, 4, 0, 8, 19, 15, 26, 14, 40, 20, 27, 35, 10, 10, 9
            |24, 30, 10, 34, 52, 30, 21, 35, 12, 40, 33, 17, 10, 40, 39, 42, 9, 39, 33, 21, 7, 9, 31, 26, 22, 30, 41, 42, 27, 37, 42, 26, 44, 16, 8, 19, 45, 20, 16, 36, 14, 38, 38, 38, 31, 20, 23, 21, 21, 27, 26, 29, 31, 36, 39, 21, 18, 44, 43, 32, 18, 48, 23, 48, 35, 8, 31, 7, 35, 18, 27, 31, 21, 53, 36, 19, 20, 22, 22, 30, 54, 13, 31, 17, 11, 42, 19, 7, 8, 0, 27, 23, 27, 16, 46, 25, 35, 42, 7, 2, 12
            |17, 36, 30, 7, 38, 32, 38, 37, 31, 13, 23, 14, 19, 28, 21, 19, 18, 16, 7, 20, 24, 18, 5, 15, 14, 9, 17, 16, 30, 11, 27, 28, 27, 22, 20, 23, 36, 19, 23, 39, 16, 19, 17, 11, 31, 30, 9, 15, 8, 15, 40, 9, 21, 24, 12, 8, 23, 21, 16, 24, 24, 25, 7, 29, 45, 29, 4, 29, 38, 19, 11, 6, 15, 34, 13, 31, 25, 10, 9, 36, 38, 18, 21, 31, 31, 23, 14, 21, 19, 27, 0, 6, 38, 27, 32, 13, 9, 18, 25, 29, 23
            |11, 30, 28, 13, 36, 27, 32, 32, 26, 18, 19, 14, 17, 25, 19, 20, 15, 17, 13, 14, 19, 14, 8, 10, 16, 14, 23, 19, 25, 16, 25, 22, 25, 22, 17, 17, 33, 14, 17, 34, 15, 18, 17, 17, 26, 24, 11, 9, 8, 11, 34, 14, 17, 21, 17, 2, 17, 22, 20, 20, 18, 26, 2, 28, 40, 24, 9, 25, 33, 19, 15, 8, 9, 33, 19, 25, 20, 11, 10, 31, 36, 17, 17, 25, 26, 22, 8, 18, 15, 23, 6, 0, 32, 21, 30, 16, 14, 23, 23, 25, 18
            |22, 6, 37, 45, 38, 11, 8, 11, 16, 48, 24, 38, 33, 28, 34, 40, 31, 38, 45, 18, 21, 28, 38, 25, 43, 45, 55, 46, 9, 48, 32, 11, 34, 41, 30, 15, 28, 18, 16, 11, 36, 34, 36, 47, 12, 9, 40, 23, 36, 25, 4, 45, 22, 26, 47, 30, 15, 41, 48, 21, 14, 45, 30, 40, 8, 19, 41, 20, 12, 42, 45, 37, 23, 43, 51, 8, 12, 40, 39, 5, 40, 37, 23, 10, 16, 35, 24, 30, 26, 27, 38, 32, 0, 12, 34, 45, 46, 55, 34, 28, 17
            |14, 14, 26, 34, 39, 14, 11, 18, 8, 38, 21, 26, 21, 27, 29, 34, 18, 31, 34, 9, 9, 15, 29, 17, 30, 34, 44, 38, 11, 38, 30, 10, 32, 29, 18, 6, 31, 9, 4, 20, 24, 29, 30, 38, 15, 4, 28, 13, 24, 18, 13, 33, 18, 24, 38, 19, 5, 36, 40, 18, 4, 40, 20, 38, 21, 9, 31, 11, 19, 30, 33, 28, 13, 41, 40, 4, 4, 28, 27, 14, 41, 24, 19, 4, 8, 31, 13, 18, 14, 16, 27, 21, 12, 0, 34, 33, 36, 45, 22, 18, 5
            |23, 28, 54, 34, 7, 23, 41, 24, 41, 31, 13, 43, 45, 6, 11, 16, 42, 17, 35, 26, 40, 40, 28, 21, 45, 40, 43, 25, 25, 36, 4, 25, 5, 51, 43, 28, 9, 27, 31, 26, 44, 13, 15, 33, 22, 32, 40, 26, 37, 20, 38, 40, 16, 10, 31, 30, 30, 16, 28, 15, 30, 16, 28, 8, 37, 42, 32, 43, 25, 49, 43, 26, 26, 9, 42, 34, 29, 41, 40, 29, 7, 46, 15, 36, 42, 9, 28, 44, 40, 46, 32, 30, 34, 34, 0, 45, 35, 42, 49, 49, 35
            |27, 45, 23, 14, 52, 42, 42, 47, 34, 22, 35, 8, 15, 41, 34, 32, 16, 30, 13, 29, 26, 18, 18, 26, 3, 8, 17, 27, 39, 16, 40, 37, 40, 13, 18, 30, 49, 28, 29, 49, 11, 32, 31, 19, 41, 36, 5, 24, 9, 27, 46, 7, 33, 37, 21, 17, 30, 34, 27, 36, 31, 38, 18, 42, 53, 30, 15, 30, 48, 9, 3, 20, 24, 47, 12, 37, 33, 5, 6, 45, 51, 12, 33, 36, 33, 37, 22, 19, 20, 25, 13, 16, 45, 33, 45, 0, 15, 19, 20, 26, 28
            |24, 44, 36, 1, 41, 39, 46, 44, 40, 7, 29, 19, 26, 33, 24, 20, 25, 18, 2, 28, 33, 26, 9, 22, 17, 7, 9, 13, 38, 2, 31, 36, 30, 27, 27, 31, 41, 28, 31, 47, 22, 22, 20, 4, 39, 38, 13, 23, 14, 22, 48, 8, 28, 29, 6, 16, 31, 22, 12, 31, 33, 25, 16, 30, 53, 37, 5, 38, 45, 23, 12, 10, 23, 35, 7, 40, 34, 14, 14, 44, 40, 24, 28, 39, 39, 26, 23, 28, 27, 35, 9, 14, 46, 36, 35, 15, 0, 9, 32, 36, 32
            |34, 53, 42, 11, 48, 49, 55, 53, 49, 11, 38, 25, 33, 41, 31, 26, 33, 25, 11, 38, 41, 34, 17, 31, 22, 12, 2, 17, 47, 7, 38, 45, 37, 32, 35, 40, 49, 37, 40, 56, 29, 29, 27, 9, 48, 47, 20, 33, 22, 31, 57, 13, 37, 38, 11, 25, 40, 27, 15, 40, 42, 30, 25, 36, 63, 46, 14, 46, 54, 28, 16, 19, 33, 40, 7, 49, 43, 21, 21, 54, 46, 30, 36, 48, 48, 33, 32, 36, 35, 42, 18, 23, 55, 45, 42, 19, 9, 0, 39, 44, 41
            |27, 37, 5, 31, 56, 36, 28, 41, 19, 38, 37, 13, 6, 44, 41, 42, 8, 39, 30, 25, 13, 10, 30, 28, 17, 26, 37, 41, 33, 34, 45, 31, 46, 9, 6, 24, 50, 24, 22, 42, 10, 40, 39, 36, 36, 26, 19, 23, 18, 30, 33, 25, 34, 40, 37, 21, 23, 45, 42, 36, 23, 49, 24, 50, 42, 15, 29, 14, 41, 12, 23, 31, 23, 55, 32, 26, 25, 18, 18, 36, 57, 8, 35, 24, 18, 44, 21, 6, 10, 7, 25, 23, 34, 22, 49, 20, 32, 39, 0, 7, 18
            |26, 32, 9, 35, 55, 32, 22, 36, 13, 42, 36, 19, 11, 43, 41, 44, 11, 41, 35, 23, 9, 11, 33, 28, 23, 32, 42, 44, 29, 39, 45, 27, 46, 16, 9, 21, 47, 22, 18, 38, 16, 40, 40, 40, 33, 22, 24, 23, 22, 30, 27, 31, 33, 39, 41, 23, 20, 46, 45, 34, 20, 51, 25, 51, 36, 9, 33, 8, 37, 19, 29, 33, 23, 55, 37, 21, 22, 23, 23, 32, 56, 14, 34, 19, 12, 44, 21, 8, 10, 2, 29, 25, 28, 18, 49, 26, 36, 44, 7, 0, 14
            |13, 19, 22, 31, 41, 18, 15, 23, 8, 35, 22, 21, 16, 29, 29, 33, 13, 30, 30, 9, 5, 10, 26, 16, 25, 30, 40, 36, 15, 34, 31, 13, 33, 24, 13, 7, 33, 9, 4, 25, 19, 28, 29, 34, 19, 9, 24, 11, 20, 17, 18, 29, 19, 25, 35, 16, 6, 35, 37, 20, 6, 39, 17, 38, 26, 7, 27, 9, 24, 25, 29, 25, 11, 42, 35, 9, 8, 23, 22, 19, 42, 19, 20, 8, 8, 31, 10, 13, 9, 12, 23, 18, 17, 5, 35, 28, 32, 41, 18, 14, 0|];