% n100w120.004    18.68 979
n = 101;
duration = [|0, 25, 3, 25, 26, 32, 14, 14, 19, 35, 34, 39, 39, 28, 15, 7, 6, 32, 40, 4, 19, 45, 18, 35, 42, 16, 31, 22, 10, 33, 11, 26, 30, 33, 17, 31, 6, 17, 6, 42, 10, 12, 24, 32, 21, 24, 12, 20, 1, 15, 29, 22, 33, 40, 13, 8, 19, 18, 25, 24, 25, 24, 35, 39, 15, 30, 24, 22, 5, 16, 18, 4, 31, 22, 32, 27, 10, 34, 25, 25, 26, 22, 10, 22, 30, 26, 24, 38, 16, 11, 15, 28, 38, 18, 24, 37, 24, 31, 31, 20, 41
            |25, 0, 25, 42, 17, 12, 40, 36, 37, 42, 52, 41, 46, 28, 38, 22, 21, 47, 42, 23, 7, 38, 43, 52, 60, 40, 47, 25, 16, 43, 35, 29, 42, 21, 12, 21, 30, 41, 24, 35, 17, 21, 37, 14, 6, 45, 37, 16, 27, 38, 42, 6, 35, 44, 33, 33, 44, 8, 24, 47, 47, 3, 39, 56, 25, 45, 6, 32, 21, 10, 26, 29, 24, 37, 7, 34, 17, 32, 48, 12, 37, 32, 16, 44, 45, 40, 46, 33, 11, 29, 17, 29, 46, 43, 38, 49, 9, 51, 6, 45, 59
            |3, 25, 0, 23, 24, 31, 14, 16, 16, 32, 32, 36, 36, 25, 13, 9, 8, 29, 37, 2, 19, 42, 17, 33, 40, 15, 28, 19, 9, 30, 13, 23, 27, 31, 18, 29, 8, 16, 9, 39, 9, 9, 21, 30, 20, 22, 13, 18, 3, 13, 26, 22, 30, 37, 16, 8, 18, 18, 23, 23, 23, 24, 32, 36, 12, 27, 25, 19, 4, 16, 15, 4, 29, 19, 32, 23, 9, 31, 23, 23, 23, 19, 11, 21, 27, 23, 23, 35, 17, 14, 13, 25, 35, 17, 21, 34, 23, 29, 31, 20, 38
            |25, 42, 23, 0, 30, 41, 21, 34, 6, 17, 10, 23, 19, 21, 14, 32, 30, 7, 24, 23, 38, 35, 16, 11, 18, 18, 6, 20, 28, 12, 30, 18, 8, 34, 38, 32, 28, 15, 31, 33, 27, 21, 6, 39, 35, 10, 25, 27, 24, 14, 6, 42, 20, 22, 35, 19, 19, 37, 23, 14, 11, 39, 19, 14, 16, 5, 44, 12, 26, 33, 16, 23, 30, 5, 48, 13, 27, 25, 13, 33, 8, 12, 33, 11, 5, 4, 11, 29, 38, 35, 25, 20, 16, 19, 4, 12, 35, 10, 46, 19, 18
            |26, 17, 24, 30, 0, 11, 36, 39, 27, 26, 39, 24, 29, 12, 32, 27, 25, 34, 25, 22, 19, 22, 37, 40, 47, 36, 35, 10, 17, 28, 37, 13, 28, 7, 23, 6, 32, 35, 28, 19, 16, 15, 24, 9, 12, 37, 37, 6, 26, 32, 29, 21, 18, 28, 38, 30, 39, 19, 8, 39, 38, 14, 22, 43, 16, 32, 22, 18, 21, 15, 15, 28, 7, 25, 22, 19, 16, 15, 40, 5, 24, 18, 22, 36, 32, 27, 38, 16, 22, 35, 11, 13, 30, 38, 26, 35, 8, 40, 19, 40, 47
            |32, 12, 31, 41, 11, 0, 45, 45, 38, 36, 50, 34, 40, 23, 42, 31, 29, 45, 34, 29, 18, 28, 47, 51, 59, 45, 46, 22, 22, 39, 43, 25, 39, 11, 23, 12, 38, 45, 33, 25, 22, 23, 36, 3, 12, 47, 44, 15, 33, 42, 40, 18, 29, 38, 43, 38, 48, 19, 19, 50, 49, 11, 32, 54, 26, 44, 18, 30, 27, 17, 25, 35, 16, 36, 13, 30, 22, 25, 50, 8, 35, 30, 25, 47, 44, 38, 48, 24, 22, 39, 19, 24, 41, 47, 37, 46, 8, 51, 10, 49, 59
            |14, 40, 14, 21, 36, 45, 0, 14, 16, 36, 27, 42, 39, 34, 7, 20, 20, 28, 42, 16, 33, 51, 6, 28, 33, 3, 25, 29, 24, 32, 10, 31, 28, 43, 31, 41, 12, 6, 18, 48, 23, 22, 23, 44, 35, 14, 5, 31, 13, 7, 26, 36, 37, 42, 17, 7, 5, 32, 33, 12, 15, 38, 37, 31, 21, 26, 38, 25, 19, 30, 24, 11, 40, 21, 46, 29, 23, 40, 13, 37, 26, 25, 25, 12, 26, 24, 14, 44, 30, 18, 26, 34, 37, 4, 22, 33, 37, 22, 45, 6, 31
            |14, 36, 16, 34, 39, 45, 14, 0, 28, 47, 41, 51, 51, 41, 20, 14, 16, 41, 52, 18, 29, 58, 20, 42, 47, 17, 38, 35, 23, 44, 4, 39, 40, 47, 25, 45, 8, 20, 12, 55, 23, 26, 35, 45, 33, 28, 9, 34, 13, 20, 39, 31, 46, 52, 4, 15, 19, 28, 39, 26, 29, 36, 47, 45, 28, 39, 33, 34, 18, 28, 31, 13, 45, 32, 42, 39, 23, 47, 27, 38, 37, 34, 20, 26, 39, 36, 28, 51, 25, 7, 28, 41, 48, 18, 34, 46, 37, 36, 42, 20, 45
            |19, 37, 16, 6, 27, 38, 16, 28, 0, 20, 16, 26, 23, 20, 9, 26, 24, 13, 26, 17, 33, 36, 13, 17, 24, 14, 12, 17, 22, 16, 24, 17, 12, 32, 33, 30, 22, 11, 25, 34, 21, 16, 7, 36, 31, 10, 20, 23, 18, 9, 10, 36, 21, 25, 29, 13, 16, 32, 21, 13, 11, 34, 21, 20, 12, 11, 38, 10, 20, 28, 12, 17, 28, 4, 43, 13, 21, 25, 13, 30, 10, 10, 27, 10, 11, 8, 11, 29, 32, 29, 20, 19, 21, 15, 6, 18, 31, 14, 42, 16, 23
            |35, 42, 32, 17, 26, 36, 36, 47, 20, 0, 20, 7, 4, 14, 29, 41, 38, 14, 7, 32, 41, 20, 33, 20, 26, 34, 17, 17, 33, 5, 43, 13, 9, 26, 43, 25, 40, 31, 41, 19, 32, 26, 13, 33, 36, 27, 40, 26, 35, 29, 11, 44, 8, 6, 48, 32, 35, 41, 18, 31, 27, 39, 4, 22, 21, 15, 46, 13, 33, 36, 18, 35, 21, 16, 47, 9, 32, 13, 30, 30, 10, 13, 39, 28, 15, 13, 28, 16, 42, 46, 27, 13, 4, 35, 14, 11, 33, 25, 44, 35, 27
            |34, 52, 32, 10, 39, 50, 27, 41, 16, 20, 0, 27, 21, 29, 21, 41, 40, 6, 27, 33, 48, 40, 21, 1, 8, 24, 4, 29, 38, 15, 37, 26, 12, 43, 48, 41, 36, 21, 41, 39, 37, 31, 15, 48, 45, 13, 32, 37, 33, 21, 11, 52, 26, 25, 43, 27, 24, 47, 32, 16, 13, 49, 24, 4, 26, 7, 54, 21, 35, 43, 25, 32, 38, 15, 58, 21, 37, 32, 15, 43, 16, 21, 42, 15, 7, 12, 14, 35, 48, 43, 35, 28, 17, 24, 13, 10, 45, 6, 56, 23, 8
            |39, 41, 36, 23, 24, 34, 42, 51, 26, 7, 27, 0, 8, 13, 35, 43, 41, 21, 1, 35, 41, 13, 39, 27, 33, 40, 25, 18, 35, 12, 47, 13, 16, 22, 44, 21, 44, 37, 44, 13, 34, 28, 19, 30, 35, 34, 45, 26, 38, 35, 18, 44, 6, 4, 51, 37, 41, 41, 17, 37, 34, 38, 4, 29, 24, 22, 45, 17, 36, 36, 21, 39, 18, 21, 45, 13, 34, 9, 37, 29, 16, 17, 41, 34, 22, 19, 34, 11, 43, 50, 28, 12, 10, 41, 20, 18, 32, 32, 42, 42, 34
            |39, 46, 36, 19, 29, 40, 39, 51, 23, 4, 21, 8, 0, 17, 32, 45, 42, 15, 7, 36, 45, 21, 35, 20, 26, 37, 19, 21, 37, 7, 47, 16, 11, 29, 47, 28, 44, 34, 45, 21, 36, 30, 16, 37, 40, 29, 43, 30, 39, 32, 13, 48, 11, 4, 51, 36, 38, 45, 22, 33, 29, 42, 7, 22, 25, 16, 49, 17, 37, 39, 22, 38, 24, 19, 51, 13, 36, 16, 32, 34, 13, 17, 43, 30, 16, 16, 30, 18, 46, 50, 31, 16, 3, 38, 17, 11, 37, 26, 48, 38, 27
            |28, 28, 25, 21, 12, 23, 34, 41, 20, 14, 29, 13, 17, 0, 28, 31, 29, 23, 14, 24, 28, 17, 33, 30, 37, 33, 25, 6, 22, 16, 37, 3, 17, 13, 31, 12, 33, 31, 32, 14, 21, 16, 15, 20, 22, 30, 36, 13, 28, 28, 18, 31, 7, 16, 41, 28, 35, 28, 4, 33, 31, 25, 10, 33, 13, 22, 32, 10, 24, 23, 10, 28, 9, 17, 33, 9, 21, 6, 33, 17, 14, 10, 28, 30, 22, 17, 31, 10, 30, 38, 16, 1, 18, 34, 17, 23, 19, 32, 30, 36, 37
            |15, 38, 13, 14, 32, 42, 7, 20, 9, 29, 21, 35, 32, 28, 0, 22, 21, 21, 35, 15, 32, 44, 5, 22, 28, 5, 18, 24, 22, 25, 16, 25, 21, 38, 31, 36, 16, 3, 21, 42, 21, 18, 16, 40, 32, 9, 11, 27, 14, 0, 19, 36, 30, 35, 22, 7, 7, 32, 28, 9, 10, 36, 30, 25, 16, 19, 38, 18, 18, 28, 18, 12, 35, 13, 45, 22, 21, 34, 10, 33, 19, 18, 25, 7, 19, 17, 9, 38, 30, 23, 23, 27, 30, 6, 15, 26, 34, 17, 43, 8, 26
            |7, 22, 9, 32, 27, 31, 20, 14, 26, 41, 41, 43, 45, 31, 22, 0, 2, 39, 44, 9, 15, 47, 25, 42, 49, 22, 37, 25, 10, 39, 13, 30, 36, 34, 11, 33, 9, 23, 2, 44, 11, 15, 30, 31, 19, 31, 17, 21, 8, 22, 35, 17, 37, 45, 12, 15, 25, 14, 28, 31, 32, 21, 40, 46, 19, 37, 19, 27, 7, 14, 23, 10, 33, 28, 28, 32, 11, 38, 31, 25, 32, 27, 6, 29, 37, 32, 31, 40, 11, 8, 16, 32, 43, 24, 30, 43, 23, 38, 28, 26, 47
            |6, 21, 8, 30, 25, 29, 20, 16, 24, 38, 40, 41, 42, 29, 21, 2, 0, 37, 42, 7, 14, 45, 24, 40, 47, 21, 36, 23, 8, 37, 14, 28, 34, 32, 11, 30, 9, 23, 4, 42, 8, 13, 28, 30, 17, 29, 17, 19, 7, 21, 33, 17, 35, 43, 13, 14, 24, 13, 26, 30, 31, 20, 37, 44, 17, 35, 19, 25, 5, 12, 21, 9, 31, 26, 27, 29, 8, 35, 30, 23, 30, 25, 5, 28, 35, 30, 30, 38, 11, 10, 14, 30, 41, 24, 28, 41, 22, 37, 27, 26, 46
            |32, 47, 29, 7, 34, 45, 28, 41, 13, 14, 6, 21, 15, 23, 21, 39, 37, 0, 21, 30, 44, 34, 22, 6, 14, 25, 4, 23, 34, 9, 36, 21, 6, 37, 45, 35, 35, 22, 38, 33, 33, 27, 10, 42, 41, 15, 32, 32, 31, 21, 5, 48, 20, 19, 42, 26, 25, 43, 26, 18, 15, 44, 18, 9, 22, 2, 49, 16, 32, 39, 21, 30, 32, 11, 53, 15, 33, 25, 18, 38, 10, 16, 39, 17, 2, 7, 16, 29, 44, 42, 30, 22, 12, 25, 9, 6, 40, 11, 51, 25, 14
            |40, 42, 37, 24, 25, 34, 42, 52, 26, 7, 27, 1, 7, 14, 35, 44, 42, 21, 0, 36, 42, 13, 39, 27, 33, 40, 25, 19, 36, 12, 48, 14, 16, 23, 45, 22, 45, 38, 45, 13, 35, 29, 19, 31, 36, 34, 45, 27, 39, 35, 18, 45, 7, 4, 52, 38, 42, 42, 18, 38, 34, 39, 5, 29, 25, 22, 46, 18, 37, 37, 22, 39, 19, 22, 46, 14, 35, 10, 37, 30, 16, 18, 42, 35, 22, 20, 35, 11, 44, 51, 29, 13, 10, 41, 21, 18, 33, 32, 43, 42, 34
            |4, 23, 2, 23, 22, 29, 16, 18, 17, 32, 33, 35, 36, 24, 15, 9, 7, 30, 36, 0, 17, 40, 19, 34, 41, 17, 29, 18, 7, 30, 15, 22, 27, 29, 16, 27, 10, 17, 9, 37, 7, 8, 21, 28, 18, 23, 15, 16, 4, 15, 26, 21, 29, 37, 17, 9, 20, 17, 21, 24, 25, 22, 31, 37, 11, 28, 23, 18, 3, 14, 14, 6, 27, 19, 30, 23, 7, 30, 25, 21, 23, 18, 10, 22, 28, 23, 24, 33, 16, 15, 11, 24, 34, 19, 21, 34, 21, 30, 29, 22, 39
            |19, 7, 19, 38, 19, 18, 33, 29, 33, 41, 48, 41, 45, 28, 32, 15, 14, 44, 42, 17, 0, 41, 37, 49, 56, 34, 44, 23, 11, 41, 28, 28, 39, 25, 5, 24, 23, 35, 17, 38, 11, 17, 34, 19, 7, 40, 31, 15, 20, 32, 39, 4, 35, 44, 26, 27, 38, 1, 24, 42, 42, 7, 38, 52, 22, 42, 6, 29, 15, 5, 24, 22, 26, 33, 13, 32, 11, 33, 42, 14, 35, 29, 9, 39, 42, 37, 41, 35, 4, 22, 14, 29, 44, 37, 35, 47, 12, 47, 13, 39, 55
            |45, 38, 42, 35, 22, 28, 51, 58, 36, 20, 40, 13, 21, 17, 44, 47, 45, 34, 13, 40, 41, 0, 49, 40, 46, 49, 37, 23, 38, 25, 54, 19, 28, 17, 45, 17, 50, 47, 49, 3, 37, 33, 29, 25, 34, 45, 53, 27, 45, 44, 30, 43, 15, 17, 57, 45, 51, 41, 19, 48, 46, 36, 16, 42, 30, 34, 44, 26, 41, 37, 27, 45, 15, 32, 41, 22, 37, 11, 48, 27, 27, 26, 43, 46, 34, 31, 46, 7, 44, 55, 31, 17, 23, 51, 31, 31, 30, 44, 38, 52, 47
            |18, 43, 17, 16, 37, 47, 6, 20, 13, 33, 21, 39, 35, 33, 5, 25, 24, 22, 39, 19, 37, 49, 0, 22, 27, 3, 19, 28, 26, 28, 16, 30, 24, 43, 35, 41, 17, 2, 23, 47, 26, 23, 20, 45, 37, 8, 11, 32, 17, 5, 22, 40, 34, 38, 23, 10, 3, 36, 33, 6, 9, 40, 34, 25, 21, 21, 42, 23, 22, 33, 23, 15, 40, 17, 49, 26, 26, 38, 7, 38, 23, 23, 29, 6, 21, 20, 8, 42, 34, 24, 27, 32, 33, 2, 18, 28, 39, 16, 48, 3, 25
            |35, 52, 33, 11, 40, 51, 28, 42, 17, 20, 1, 27, 20, 30, 22, 42, 40, 6, 27, 34, 49, 40, 22, 0, 8, 25, 5, 29, 39, 15, 38, 27, 13, 43, 49, 41, 37, 22, 41, 39, 38, 32, 16, 49, 46, 14, 33, 38, 34, 22, 11, 52, 26, 24, 44, 28, 25, 48, 32, 17, 14, 50, 24, 4, 27, 7, 54, 21, 36, 44, 26, 33, 38, 16, 59, 21, 38, 32, 16, 43, 16, 21, 43, 16, 7, 13, 15, 36, 48, 44, 35, 28, 17, 25, 14, 9, 45, 7, 57, 24, 8
            |42, 60, 40, 18, 47, 59, 33, 47, 24, 26, 8, 33, 26, 37, 28, 49, 47, 14, 33, 41, 56, 46, 27, 8, 0, 30, 13, 37, 46, 22, 43, 34, 20, 51, 57, 49, 43, 27, 48, 46, 45, 40, 23, 56, 54, 19, 38, 45, 41, 28, 19, 60, 34, 30, 50, 34, 29, 56, 40, 21, 18, 57, 31, 4, 35, 15, 62, 29, 43, 51, 34, 39, 46, 23, 66, 29, 45, 39, 20, 51, 24, 29, 51, 21, 15, 21, 19, 42, 56, 50, 43, 36, 23, 29, 22, 15, 53, 11, 64, 28, 2
            |16, 40, 15, 18, 36, 45, 3, 17, 14, 34, 24, 40, 37, 33, 5, 22, 21, 25, 40, 17, 34, 49, 3, 25, 30, 0, 22, 28, 24, 30, 13, 30, 26, 43, 32, 41, 14, 3, 21, 47, 24, 22, 21, 44, 35, 11, 8, 31, 14, 5, 24, 38, 35, 40, 20, 8, 3, 34, 32, 9, 12, 39, 35, 28, 20, 23, 40, 23, 20, 31, 23, 12, 39, 18, 47, 27, 24, 38, 10, 37, 24, 23, 26, 9, 23, 21, 11, 42, 32, 21, 26, 32, 34, 2, 20, 30, 37, 19, 46, 4, 28
            |31, 47, 28, 6, 35, 46, 25, 38, 12, 17, 4, 25, 19, 25, 18, 37, 36, 4, 25, 29, 44, 37, 19, 5, 13, 22, 0, 25, 34, 12, 34, 22, 9, 39, 44, 37, 33, 19, 37, 36, 33, 27, 11, 44, 41, 12, 29, 33, 30, 18, 7, 47, 23, 22, 40, 24, 22, 43, 28, 15, 11, 45, 21, 9, 22, 3, 49, 17, 31, 39, 21, 28, 34, 11, 54, 17, 33, 28, 14, 39, 12, 17, 38, 13, 3, 8, 12, 32, 43, 40, 30, 24, 16, 22, 9, 9, 40, 7, 52, 21, 12
            |22, 25, 19, 20, 10, 22, 29, 35, 17, 17, 29, 18, 21, 6, 24, 25, 23, 23, 19, 18, 23, 23, 28, 29, 37, 28, 25, 0, 16, 18, 32, 5, 18, 15, 26, 13, 28, 26, 26, 20, 16, 10, 14, 19, 18, 27, 31, 9, 22, 24, 18, 27, 12, 21, 35, 23, 31, 23, 4, 30, 28, 21, 15, 33, 8, 22, 28, 8, 18, 18, 5, 23, 11, 15, 30, 9, 16, 12, 30, 14, 13, 8, 23, 27, 22, 17, 28, 16, 25, 32, 10, 6, 21, 30, 16, 25, 16, 30, 28, 32, 37
            |10, 16, 9, 28, 17, 22, 24, 23, 22, 33, 38, 35, 37, 22, 22, 10, 8, 34, 36, 7, 11, 38, 26, 39, 46, 24, 34, 16, 0, 32, 21, 21, 30, 24, 11, 23, 16, 25, 11, 35, 1, 7, 24, 22, 11, 30, 22, 11, 11, 22, 30, 14, 29, 37, 21, 17, 28, 10, 19, 31, 31, 14, 31, 42, 12, 32, 16, 20, 5, 6, 15, 13, 23, 23, 23, 24, 1, 28, 32, 15, 26, 20, 6, 29, 32, 27, 31, 31, 10, 18, 7, 23, 36, 27, 25, 38, 14, 36, 22, 29, 45
            |33, 43, 30, 12, 28, 39, 32, 44, 16, 5, 15, 12, 7, 16, 25, 39, 37, 9, 12, 30, 41, 25, 28, 15, 22, 30, 12, 18, 32, 0, 40, 14, 4, 29, 43, 28, 37, 27, 39, 24, 31, 25, 9, 36, 37, 22, 36, 27, 33, 25, 6, 45, 12, 10, 45, 29, 31, 41, 20, 26, 22, 40, 9, 17, 20, 9, 46, 12, 32, 36, 17, 32, 24, 12, 49, 9, 31, 17, 25, 32, 7, 12, 38, 23, 9, 9, 23, 21, 42, 44, 27, 15, 4, 30, 10, 7, 35, 20, 46, 31, 22
            |11, 35, 13, 30, 37, 43, 10, 4, 24, 43, 37, 47, 47, 37, 16, 13, 14, 36, 48, 15, 28, 54, 16, 38, 43, 13, 34, 32, 21, 40, 0, 35, 36, 44, 25, 42, 5, 16, 11, 52, 21, 22, 30, 43, 31, 24, 5, 31, 10, 16, 34, 30, 42, 48, 6, 11, 15, 27, 36, 23, 25, 34, 43, 41, 24, 35, 33, 30, 16, 26, 28, 9, 42, 28, 41, 35, 21, 44, 24, 36, 33, 30, 19, 22, 35, 32, 24, 47, 24, 8, 25, 37, 44, 15, 30, 42, 35, 32, 41, 17, 42
            |26, 29, 23, 18, 13, 25, 31, 39, 17, 13, 26, 13, 16, 3, 25, 30, 28, 21, 14, 22, 28, 19, 30, 27, 34, 30, 22, 5, 21, 14, 35, 0, 14, 16, 31, 14, 31, 28, 31, 17, 20, 15, 12, 22, 23, 27, 33, 14, 26, 25, 16, 32, 7, 16, 39, 26, 32, 28, 6, 30, 28, 26, 10, 30, 11, 20, 33, 7, 23, 23, 8, 26, 11, 14, 34, 6, 20, 9, 30, 18, 11, 7, 27, 27, 20, 15, 28, 13, 30, 37, 15, 2, 17, 31, 14, 21, 21, 29, 32, 33, 34
            |30, 42, 27, 8, 28, 39, 28, 40, 12, 9, 12, 16, 11, 17, 21, 36, 34, 6, 16, 27, 39, 28, 24, 13, 20, 26, 9, 18, 30, 4, 36, 14, 0, 30, 41, 29, 34, 23, 36, 27, 29, 23, 6, 36, 36, 18, 32, 26, 29, 21, 2, 43, 14, 14, 41, 25, 27, 39, 20, 22, 18, 39, 12, 16, 18, 6, 45, 10, 29, 34, 16, 28, 25, 8, 48, 9, 29, 19, 21, 32, 4, 10, 36, 19, 6, 4, 19, 23, 40, 40, 25, 16, 9, 26, 6, 8, 34, 16, 45, 27, 20
            |33, 21, 31, 34, 7, 11, 43, 47, 32, 26, 43, 22, 29, 13, 38, 34, 32, 37, 23, 29, 25, 17, 43, 43, 51, 43, 39, 15, 24, 29, 44, 16, 30, 0, 29, 2, 39, 41, 36, 14, 24, 22, 28, 8, 18, 42, 44, 13, 34, 38, 32, 27, 18, 27, 45, 36, 45, 25, 11, 45, 43, 19, 22, 46, 22, 36, 27, 23, 28, 21, 20, 35, 5, 30, 24, 22, 24, 14, 45, 10, 27, 23, 29, 42, 36, 31, 43, 13, 28, 42, 18, 15, 30, 44, 30, 37, 13, 45, 21, 46, 51
            |17, 12, 18, 38, 23, 23, 31, 25, 33, 43, 48, 44, 47, 31, 31, 11, 11, 45, 45, 16, 5, 45, 35, 49, 57, 32, 44, 26, 11, 43, 25, 31, 41, 29, 0, 28, 20, 33, 13, 42, 12, 18, 35, 24, 11, 40, 28, 18, 18, 31, 40, 6, 38, 47, 22, 25, 36, 4, 27, 40, 41, 12, 41, 53, 23, 43, 8, 31, 13, 8, 25, 20, 30, 34, 17, 34, 12, 37, 41, 19, 36, 31, 6, 38, 43, 38, 40, 39, 1, 18, 16, 32, 47, 35, 36, 48, 16, 46, 17, 37, 55
            |31, 21, 29, 32, 6, 12, 41, 45, 30, 25, 41, 21, 28, 12, 36, 33, 30, 35, 22, 27, 24, 17, 41, 41, 49, 41, 37, 13, 23, 28, 42, 14, 29, 2, 28, 0, 37, 39, 34, 14, 22, 20, 26, 9, 17, 40, 42, 11, 32, 36, 30, 26, 17, 26, 44, 34, 43, 24, 9, 43, 41, 18, 21, 44, 20, 34, 26, 21, 27, 20, 18, 33, 4, 28, 24, 20, 22, 13, 43, 9, 25, 21, 28, 40, 34, 29, 41, 12, 27, 40, 17, 13, 29, 42, 28, 35, 12, 43, 21, 44, 49
            |6, 30, 8, 28, 32, 38, 12, 8, 22, 40, 36, 44, 44, 33, 16, 9, 9, 35, 45, 10, 23, 50, 17, 37, 43, 14, 33, 28, 16, 37, 5, 31, 34, 39, 20, 37, 0, 17, 7, 47, 16, 18, 28, 38, 26, 24, 8, 26, 6, 16, 32, 26, 38, 45, 8, 9, 17, 22, 31, 24, 26, 29, 40, 41, 20, 33, 28, 27, 11, 21, 24, 5, 37, 25, 36, 31, 16, 40, 25, 31, 30, 27, 14, 22, 33, 29, 25, 43, 20, 7, 21, 33, 42, 16, 27, 40, 30, 32, 36, 18, 42
            |17, 41, 16, 15, 35, 45, 6, 20, 11, 31, 21, 37, 34, 31, 3, 23, 23, 22, 38, 17, 35, 47, 2, 22, 27, 3, 19, 26, 25, 27, 16, 28, 23, 41, 33, 39, 17, 0, 22, 45, 24, 21, 18, 43, 35, 8, 11, 30, 16, 3, 21, 38, 33, 37, 22, 8, 4, 34, 31, 7, 9, 39, 33, 25, 19, 20, 40, 21, 20, 31, 21, 13, 38, 16, 47, 25, 24, 36, 8, 36, 21, 21, 27, 6, 20, 18, 8, 40, 33, 23, 25, 30, 31, 4, 17, 27, 37, 16, 46, 5, 25
            |6, 24, 9, 31, 28, 33, 18, 12, 25, 41, 41, 44, 45, 32, 21, 2, 4, 38, 45, 9, 17, 49, 23, 41, 48, 21, 37, 26, 11, 39, 11, 31, 36, 36, 13, 34, 7, 22, 0, 46, 12, 16, 30, 33, 21, 30, 15, 23, 7, 21, 35, 19, 38, 46, 10, 14, 23, 16, 29, 29, 31, 23, 40, 45, 20, 36, 21, 28, 8, 16, 23, 9, 35, 28, 30, 32, 12, 39, 30, 26, 32, 28, 8, 28, 36, 32, 30, 42, 13, 6, 18, 33, 43, 23, 30, 43, 25, 37, 30, 25, 47
            |42, 35, 39, 33, 19, 25, 48, 55, 34, 19, 39, 13, 21, 14, 42, 44, 42, 33, 13, 37, 38, 3, 47, 39, 46, 47, 36, 20, 35, 24, 52, 17, 27, 14, 42, 14, 47, 45, 46, 0, 34, 30, 28, 22, 31, 43, 50, 24, 42, 42, 29, 40, 13, 17, 54, 42, 49, 38, 16, 47, 44, 32, 15, 42, 28, 33, 41, 24, 38, 34, 24, 43, 12, 30, 38, 21, 34, 9, 46, 24, 25, 24, 40, 44, 33, 29, 44, 4, 41, 52, 28, 15, 23, 48, 30, 31, 26, 43, 35, 50, 47
            |10, 17, 9, 27, 16, 22, 23, 23, 21, 32, 37, 34, 36, 21, 21, 11, 8, 33, 35, 7, 11, 37, 26, 38, 45, 24, 33, 16, 1, 31, 21, 20, 29, 24, 12, 22, 16, 24, 12, 34, 0, 6, 23, 22, 11, 29, 22, 11, 11, 21, 29, 15, 28, 36, 22, 16, 27, 11, 18, 31, 31, 15, 30, 41, 11, 31, 17, 19, 5, 7, 14, 13, 23, 22, 23, 23, 0, 27, 31, 15, 25, 19, 7, 28, 31, 26, 30, 30, 11, 18, 6, 22, 35, 26, 24, 37, 14, 35, 22, 28, 44
            |12, 21, 9, 21, 15, 23, 22, 26, 16, 26, 31, 28, 30, 16, 18, 15, 13, 27, 29, 8, 17, 33, 23, 32, 40, 22, 27, 10, 7, 25, 22, 15, 23, 22, 18, 20, 18, 21, 16, 30, 6, 0, 17, 22, 14, 25, 22, 9, 12, 18, 23, 20, 22, 30, 25, 15, 25, 16, 13, 27, 26, 18, 25, 36, 5, 26, 22, 13, 8, 11, 8, 13, 19, 17, 27, 17, 6, 22, 27, 15, 19, 13, 13, 24, 26, 20, 26, 26, 17, 22, 4, 17, 29, 24, 18, 31, 16, 30, 26, 26, 39
            |24, 37, 21, 6, 24, 36, 23, 35, 7, 13, 15, 19, 16, 15, 16, 30, 28, 10, 19, 21, 34, 29, 20, 16, 23, 21, 11, 14, 24, 9, 30, 12, 6, 28, 35, 26, 28, 18, 30, 28, 23, 17, 0, 33, 31, 16, 27, 22, 23, 16, 5, 38, 15, 18, 35, 20, 23, 34, 17, 19, 16, 34, 14, 19, 12, 8, 39, 6, 23, 29, 11, 23, 24, 3, 43, 7, 23, 19, 19, 28, 3, 6, 30, 16, 8, 3, 16, 23, 34, 35, 20, 14, 14, 22, 2, 13, 30, 16, 41, 23, 23
            |32, 14, 30, 39, 9, 3, 44, 45, 36, 33, 48, 30, 37, 20, 40, 31, 30, 42, 31, 28, 19, 25, 45, 49, 56, 44, 44, 19, 22, 36, 43, 22, 36, 8, 24, 9, 38, 43, 33, 22, 22, 22, 33, 0, 13, 46, 44, 13, 33, 40, 37, 20, 26, 34, 43, 37, 47, 20, 16, 48, 47, 12, 29, 52, 25, 41, 20, 27, 27, 17, 23, 35, 13, 34, 16, 28, 22, 21, 48, 7, 32, 27, 26, 45, 41, 36, 47, 21, 23, 39, 18, 21, 38, 46, 35, 43, 8, 49, 13, 48, 56
            |21, 6, 20, 35, 12, 12, 35, 33, 31, 36, 45, 35, 40, 22, 32, 19, 17, 41, 36, 18, 7, 34, 37, 46, 54, 35, 41, 18, 11, 37, 31, 23, 36, 18, 11, 17, 26, 35, 21, 31, 11, 14, 31, 13, 0, 39, 33, 9, 22, 32, 36, 9, 29, 39, 31, 28, 38, 7, 18, 41, 41, 4, 33, 50, 19, 39, 10, 25, 16, 5, 20, 24, 19, 30, 13, 28, 11, 27, 42, 8, 31, 25, 13, 38, 39, 33, 40, 28, 11, 27, 11, 24, 40, 37, 32, 43, 5, 45, 11, 40, 53
            |24, 45, 22, 10, 37, 47, 14, 28, 10, 27, 13, 34, 29, 30, 9, 31, 29, 15, 34, 23, 40, 45, 8, 14, 19, 11, 12, 27, 30, 22, 24, 27, 18, 42, 40, 40, 24, 8, 30, 43, 29, 25, 16, 46, 39, 0, 19, 33, 22, 9, 16, 44, 30, 32, 30, 16, 10, 40, 31, 4, 1, 43, 30, 17, 21, 13, 46, 20, 26, 36, 22, 21, 38, 13, 52, 23, 29, 35, 3, 39, 18, 20, 33, 2, 13, 14, 1, 39, 39, 31, 29, 29, 26, 10, 14, 21, 40, 8, 51, 10, 17
            |12, 37, 13, 25, 37, 44, 5, 9, 20, 40, 32, 45, 43, 36, 11, 17, 17, 32, 45, 15, 31, 53, 11, 33, 38, 8, 29, 31, 22, 36, 5, 33, 32, 44, 28, 42, 8, 11, 15, 50, 22, 22, 27, 44, 33, 19, 0, 31, 11, 11, 30, 34, 40, 45, 12, 8, 10, 30, 34, 17, 20, 36, 40, 36, 22, 30, 36, 28, 17, 28, 26, 9, 41, 24, 44, 32, 22, 42, 18, 36, 30, 28, 22, 17, 30, 28, 19, 46, 28, 14, 26, 36, 41, 9, 26, 38, 36, 27, 43, 11, 36
            |20, 16, 18, 27, 6, 15, 31, 34, 23, 26, 37, 26, 30, 13, 27, 21, 19, 32, 27, 16, 15, 27, 32, 38, 45, 31, 33, 9, 11, 27, 31, 14, 26, 13, 18, 11, 26, 30, 23, 24, 11, 9, 22, 13, 9, 33, 31, 0, 21, 27, 27, 18, 20, 29, 32, 24, 34, 15, 9, 35, 34, 13, 23, 41, 12, 30, 19, 16, 15, 10, 11, 22, 12, 22, 21, 18, 11, 18, 35, 6, 22, 16, 17, 32, 30, 25, 34, 20, 17, 29, 5, 14, 30, 33, 23, 34, 8, 37, 19, 35, 45
            |1, 27, 3, 24, 26, 33, 13, 13, 18, 35, 33, 38, 39, 28, 14, 8, 7, 31, 39, 4, 20, 45, 17, 34, 41, 14, 30, 22, 11, 33, 10, 26, 29, 34, 18, 32, 6, 16, 7, 42, 11, 12, 23, 33, 22, 22, 11, 21, 0, 14, 28, 23, 33, 40, 13, 7, 17, 19, 25, 23, 24, 25, 34, 38, 14, 29, 25, 22, 6, 17, 18, 2, 32, 21, 33, 26, 11, 34, 23, 26, 25, 22, 12, 21, 29, 25, 23, 37, 17, 11, 15, 28, 37, 17, 23, 36, 25, 30, 33, 19, 39
            |15, 38, 13, 14, 32, 42, 7, 20, 9, 29, 21, 35, 32, 28, 0, 22, 21, 21, 35, 15, 32, 44, 5, 22, 28, 5, 18, 24, 22, 25, 16, 25, 21, 38, 31, 36, 16, 3, 21, 42, 21, 18, 16, 40, 32, 9, 11, 27, 14, 0, 19, 36, 30, 35, 22, 7, 7, 32, 28, 9, 10, 36, 30, 25, 16, 19, 38, 18, 18, 28, 18, 12, 35, 13, 45, 22, 21, 34, 10, 33, 19, 18, 25, 7, 19, 17, 9, 38, 30, 23, 23, 27, 30, 6, 15, 26, 34, 17, 43, 8, 26
            |29, 42, 26, 6, 29, 40, 26, 39, 10, 11, 11, 18, 13, 18, 19, 35, 33, 5, 18, 26, 39, 30, 22, 11, 19, 24, 7, 18, 30, 6, 34, 16, 2, 32, 40, 30, 32, 21, 35, 29, 29, 23, 5, 37, 36, 16, 30, 27, 28, 19, 0, 43, 16, 17, 40, 24, 25, 39, 21, 19, 16, 39, 14, 14, 17, 4, 45, 11, 28, 34, 16, 27, 27, 7, 48, 10, 29, 21, 19, 33, 5, 11, 35, 17, 4, 3, 17, 25, 40, 39, 26, 17, 11, 24, 5, 8, 35, 14, 46, 25, 19
            |22, 6, 22, 42, 21, 18, 36, 31, 36, 44, 52, 44, 48, 31, 36, 17, 17, 48, 45, 21, 4, 43, 40, 52, 60, 38, 47, 27, 14, 45, 30, 32, 43, 27, 6, 26, 26, 38, 19, 40, 15, 20, 38, 20, 9, 44, 34, 18, 23, 36, 43, 0, 38, 47, 28, 30, 41, 4, 27, 45, 45, 8, 41, 56, 26, 46, 2, 33, 18, 9, 27, 25, 28, 37, 11, 36, 15, 36, 46, 16, 38, 33, 12, 43, 46, 40, 45, 37, 6, 24, 17, 32, 48, 40, 39, 51, 14, 50, 12, 42, 59
            |33, 35, 30, 20, 18, 29, 37, 46, 21, 8, 26, 6, 11, 7, 30, 37, 35, 20, 7, 29, 35, 15, 34, 26, 34, 35, 23, 12, 29, 12, 42, 7, 14, 18, 38, 17, 38, 33, 38, 13, 28, 22, 15, 26, 29, 30, 40, 20, 33, 30, 16, 38, 0, 9, 46, 32, 37, 35, 11, 34, 31, 32, 4, 29, 18, 20, 39, 12, 30, 30, 15, 33, 13, 17, 40, 8, 28, 5, 34, 23, 12, 12, 35, 31, 20, 16, 31, 9, 37, 44, 22, 6, 12, 36, 17, 19, 26, 30, 37, 38, 34
            |40, 44, 37, 22, 28, 38, 42, 52, 25, 6, 25, 4, 4, 16, 35, 45, 43, 19, 4, 37, 44, 17, 38, 24, 30, 40, 22, 21, 37, 10, 48, 16, 14, 27, 47, 26, 45, 37, 46, 17, 36, 30, 18, 34, 39, 32, 45, 29, 40, 35, 17, 47, 9, 0, 53, 38, 41, 44, 20, 36, 33, 41, 6, 26, 26, 20, 49, 18, 38, 39, 23, 40, 22, 21, 49, 14, 36, 13, 36, 33, 16, 18, 43, 34, 20, 18, 33, 15, 46, 51, 31, 15, 7, 40, 20, 15, 35, 30, 46, 41, 31
            |13, 33, 16, 35, 38, 43, 17, 4, 29, 48, 43, 51, 51, 41, 22, 12, 13, 42, 52, 17, 26, 57, 23, 44, 50, 20, 40, 35, 21, 45, 6, 39, 41, 45, 22, 44, 8, 22, 10, 54, 22, 25, 35, 43, 31, 30, 12, 32, 13, 22, 40, 28, 46, 53, 0, 16, 22, 25, 38, 29, 32, 33, 47, 47, 27, 40, 30, 34, 17, 26, 31, 13, 44, 33, 39, 39, 22, 47, 30, 36, 38, 34, 18, 28, 40, 37, 31, 50, 22, 4, 27, 41, 49, 21, 35, 48, 35, 38, 39, 23, 48
            |8, 33, 8, 19, 30, 38, 7, 15, 13, 32, 27, 37, 36, 28, 7, 15, 14, 26, 38, 9, 27, 45, 10, 28, 34, 8, 24, 23, 17, 29, 11, 26, 25, 36, 25, 34, 9, 8, 14, 42, 16, 15, 20, 37, 28, 16, 8, 24, 7, 7, 24, 30, 32, 38, 16, 0, 11, 26, 27, 16, 17, 31, 33, 32, 15, 24, 32, 20, 12, 23, 18, 5, 34, 17, 40, 24, 16, 34, 16, 30, 22, 20, 19, 14, 24, 21, 16, 38, 24, 16, 19, 28, 34, 10, 19, 31, 30, 23, 39, 12, 33
            |19, 44, 18, 19, 39, 48, 5, 19, 16, 35, 24, 41, 38, 35, 7, 25, 24, 25, 42, 20, 38, 51, 3, 25, 29, 3, 22, 31, 28, 31, 15, 32, 27, 45, 36, 43, 17, 4, 23, 49, 27, 25, 23, 47, 38, 10, 10, 34, 17, 7, 25, 41, 37, 41, 22, 11, 0, 37, 35, 8, 11, 42, 37, 27, 23, 23, 43, 25, 23, 34, 26, 15, 42, 20, 50, 29, 27, 41, 9, 40, 26, 25, 29, 9, 23, 23, 10, 45, 35, 23, 29, 35, 35, 1, 21, 31, 40, 18, 49, 1, 27
            |18, 8, 18, 37, 19, 19, 32, 28, 32, 41, 47, 41, 45, 28, 32, 14, 13, 43, 42, 17, 1, 41, 36, 48, 56, 34, 43, 23, 10, 41, 27, 28, 39, 25, 4, 24, 22, 34, 16, 38, 11, 16, 34, 20, 7, 40, 30, 15, 19, 32, 39, 4, 35, 44, 25, 26, 37, 0, 24, 41, 41, 8, 38, 52, 21, 42, 6, 29, 14, 5, 23, 22, 26, 33, 14, 32, 11, 33, 41, 15, 35, 29, 8, 38, 42, 36, 40, 35, 4, 21, 14, 29, 44, 36, 34, 47, 12, 46, 14, 38, 55
            |25, 24, 23, 23, 8, 19, 33, 39, 21, 18, 32, 17, 22, 4, 28, 28, 26, 26, 18, 21, 24, 19, 33, 32, 40, 32, 28, 4, 19, 20, 36, 6, 20, 11, 27, 9, 31, 31, 29, 16, 18, 13, 17, 16, 18, 31, 34, 9, 25, 28, 21, 27, 11, 20, 38, 27, 35, 24, 0, 34, 32, 21, 15, 36, 12, 25, 28, 11, 21, 19, 9, 26, 7, 18, 29, 11, 18, 9, 34, 13, 16, 11, 25, 31, 25, 20, 32, 12, 26, 36, 12, 5, 22, 34, 19, 27, 15, 34, 26, 36, 40
            |24, 47, 23, 14, 39, 50, 12, 26, 13, 31, 16, 37, 33, 33, 9, 31, 30, 18, 38, 24, 42, 48, 6, 17, 21, 9, 15, 30, 31, 26, 23, 30, 22, 45, 40, 43, 24, 7, 29, 47, 31, 27, 19, 48, 41, 4, 17, 35, 23, 9, 19, 45, 34, 36, 29, 16, 8, 41, 34, 0, 4, 45, 33, 19, 24, 17, 47, 23, 27, 37, 25, 21, 41, 16, 54, 26, 31, 38, 1, 41, 22, 23, 34, 3, 17, 18, 3, 42, 40, 30, 31, 32, 30, 8, 17, 24, 42, 10, 52, 7, 19
            |25, 47, 23, 11, 38, 49, 15, 29, 11, 27, 13, 34, 29, 31, 10, 32, 31, 15, 34, 25, 42, 46, 9, 14, 18, 12, 11, 28, 31, 22, 25, 28, 18, 43, 41, 41, 26, 9, 31, 44, 31, 26, 16, 47, 41, 1, 20, 34, 24, 10, 16, 45, 31, 33, 32, 17, 11, 41, 32, 4, 0, 44, 30, 16, 22, 13, 48, 21, 28, 37, 24, 22, 39, 14, 54, 23, 31, 36, 3, 40, 19, 21, 35, 3, 13, 15, 1, 40, 40, 33, 30, 30, 26, 11, 14, 21, 42, 7, 52, 10, 16
            |24, 3, 24, 39, 14, 11, 38, 36, 34, 39, 49, 38, 42, 25, 36, 21, 20, 44, 39, 22, 7, 36, 40, 50, 57, 39, 45, 21, 14, 40, 34, 26, 39, 19, 12, 18, 29, 39, 23, 32, 15, 18, 34, 12, 4, 43, 36, 13, 25, 36, 39, 8, 32, 41, 33, 31, 42, 8, 21, 45, 44, 0, 35, 53, 23, 43, 8, 29, 19, 8, 23, 27, 21, 34, 9, 31, 15, 29, 45, 9, 34, 29, 15, 42, 43, 37, 44, 30, 12, 29, 14, 26, 43, 41, 35, 46, 6, 48, 8, 43, 57
            |35, 39, 32, 19, 22, 32, 37, 47, 21, 4, 24, 4, 7, 10, 30, 40, 37, 18, 5, 31, 38, 16, 34, 24, 31, 35, 21, 15, 31, 9, 43, 10, 12, 22, 41, 21, 40, 33, 40, 15, 30, 25, 14, 29, 33, 30, 40, 23, 34, 30, 14, 41, 4, 6, 47, 33, 37, 38, 15, 33, 30, 35, 0, 26, 20, 18, 43, 13, 32, 33, 17, 34, 17, 17, 43, 9, 30, 9, 33, 27, 12, 13, 37, 30, 18, 15, 30, 12, 40, 46, 25, 9, 9, 36, 16, 16, 30, 28, 41, 37, 31
            |39, 56, 36, 14, 43, 54, 31, 45, 20, 22, 4, 29, 22, 33, 25, 46, 44, 9, 29, 37, 52, 42, 25, 4, 4, 28, 9, 33, 42, 17, 41, 30, 16, 46, 53, 44, 41, 25, 45, 42, 41, 36, 19, 52, 50, 17, 36, 41, 38, 25, 14, 56, 29, 26, 47, 32, 27, 52, 36, 19, 16, 53, 26, 0, 31, 11, 58, 25, 40, 47, 30, 36, 41, 19, 62, 24, 41, 34, 18, 47, 19, 25, 47, 19, 11, 16, 17, 38, 52, 48, 39, 31, 19, 27, 18, 11, 49, 9, 60, 26, 5
            |15, 25, 12, 16, 16, 26, 21, 28, 12, 21, 26, 24, 25, 13, 16, 19, 17, 22, 25, 11, 22, 30, 21, 27, 35, 20, 22, 8, 12, 20, 24, 11, 18, 22, 23, 20, 20, 19, 20, 28, 11, 5, 12, 25, 19, 21, 22, 12, 14, 16, 17, 26, 18, 26, 27, 15, 23, 21, 12, 24, 22, 23, 20, 31, 0, 20, 27, 8, 12, 17, 4, 15, 19, 11, 32, 12, 11, 20, 24, 18, 13, 8, 18, 21, 20, 15, 22, 23, 22, 25, 8, 13, 24, 22, 13, 25, 19, 26, 30, 24, 34
            |30, 45, 27, 5, 32, 44, 26, 39, 11, 15, 7, 22, 16, 22, 19, 37, 35, 2, 22, 28, 42, 34, 21, 7, 15, 23, 3, 22, 32, 9, 35, 20, 6, 36, 43, 34, 33, 20, 36, 33, 31, 26, 8, 41, 39, 13, 30, 30, 29, 19, 4, 46, 20, 20, 40, 24, 23, 42, 25, 17, 13, 43, 18, 11, 20, 0, 48, 14, 30, 37, 19, 28, 31, 9, 52, 14, 31, 25, 16, 36, 9, 14, 37, 15, 0, 6, 14, 29, 42, 40, 29, 21, 13, 23, 7, 8, 38, 10, 49, 23, 15
            |24, 6, 25, 44, 22, 18, 38, 33, 38, 46, 54, 45, 49, 32, 38, 19, 19, 49, 46, 23, 6, 44, 42, 54, 62, 40, 49, 28, 16, 46, 33, 33, 45, 27, 8, 26, 28, 40, 21, 41, 17, 22, 39, 20, 10, 46, 36, 19, 25, 38, 45, 2, 39, 49, 30, 32, 43, 6, 28, 47, 48, 8, 43, 58, 27, 48, 0, 34, 20, 11, 29, 28, 29, 39, 9, 37, 17, 37, 48, 17, 40, 34, 14, 45, 48, 42, 47, 38, 8, 26, 19, 34, 49, 42, 40, 52, 14, 52, 10, 44, 61
            |22, 32, 19, 12, 18, 30, 25, 34, 10, 13, 21, 17, 17, 10, 18, 27, 25, 16, 18, 18, 29, 26, 23, 21, 29, 23, 17, 8, 20, 12, 30, 7, 10, 23, 31, 21, 27, 21, 28, 24, 19, 13, 6, 27, 25, 20, 28, 16, 22, 18, 11, 33, 12, 18, 34, 20, 25, 29, 11, 23, 21, 29, 13, 25, 8, 14, 34, 0, 20, 24, 5, 21, 18, 7, 38, 4, 19, 15, 23, 22, 6, 0, 26, 20, 14, 9, 21, 19, 30, 33, 15, 9, 16, 25, 8, 18, 24, 22, 35, 26, 29
            |5, 21, 4, 26, 21, 27, 19, 18, 20, 33, 35, 36, 37, 24, 18, 7, 5, 32, 37, 3, 15, 41, 22, 36, 43, 20, 31, 18, 5, 32, 16, 23, 29, 28, 13, 27, 11, 20, 8, 38, 5, 8, 23, 27, 16, 26, 17, 15, 6, 18, 28, 18, 30, 38, 17, 12, 23, 14, 21, 27, 28, 19, 32, 40, 12, 30, 20, 20, 0, 11, 16, 8, 27, 22, 28, 24, 5, 31, 28, 20, 25, 20, 7, 25, 30, 25, 27, 34, 13, 14, 10, 25, 36, 22, 24, 36, 19, 33, 27, 24, 42
            |16, 10, 16, 33, 15, 17, 30, 28, 28, 36, 43, 36, 39, 23, 28, 14, 12, 39, 37, 14, 5, 37, 33, 44, 51, 31, 39, 18, 6, 36, 26, 23, 34, 21, 8, 20, 21, 31, 16, 34, 7, 11, 29, 17, 5, 36, 28, 10, 17, 28, 34, 9, 30, 39, 26, 23, 34, 5, 19, 37, 37, 8, 33, 47, 17, 37, 11, 24, 11, 0, 18, 19, 22, 28, 17, 27, 7, 28, 38, 11, 30, 24, 8, 35, 37, 31, 37, 30, 7, 22, 9, 24, 39, 33, 30, 42, 9, 42, 16, 35, 50
            |18, 26, 15, 16, 15, 25, 24, 31, 12, 18, 25, 21, 22, 10, 18, 23, 21, 21, 22, 14, 24, 27, 23, 26, 34, 23, 21, 5, 15, 17, 28, 8, 16, 20, 25, 18, 24, 21, 23, 24, 14, 8, 11, 23, 20, 22, 26, 11, 18, 18, 16, 27, 15, 23, 31, 18, 26, 23, 9, 25, 24, 23, 17, 30, 4, 19, 29, 5, 16, 18, 0, 18, 16, 11, 33, 9, 14, 16, 25, 17, 11, 5, 21, 22, 19, 13, 23, 20, 25, 29, 10, 10, 21, 25, 12, 23, 19, 26, 30, 26, 33
            |4, 29, 4, 23, 28, 35, 11, 13, 17, 35, 32, 39, 38, 28, 12, 10, 9, 30, 39, 6, 22, 45, 15, 33, 39, 12, 28, 23, 13, 32, 9, 26, 28, 35, 20, 33, 5, 13, 9, 43, 13, 13, 23, 35, 24, 21, 9, 22, 2, 12, 27, 25, 33, 40, 13, 5, 15, 22, 26, 21, 22, 27, 34, 36, 15, 28, 28, 21, 8, 19, 18, 0, 33, 20, 35, 26, 13, 35, 21, 27, 25, 21, 14, 19, 28, 24, 21, 38, 20, 12, 17, 28, 36, 14, 22, 35, 27, 28, 35, 17, 38
            |31, 24, 29, 30, 7, 16, 40, 45, 28, 21, 38, 18, 24, 9, 35, 33, 31, 32, 19, 27, 26, 15, 40, 38, 46, 39, 34, 11, 23, 24, 42, 11, 25, 5, 30, 4, 37, 38, 35, 12, 23, 19, 24, 13, 19, 38, 41, 12, 32, 35, 27, 28, 13, 22, 44, 34, 42, 26, 7, 41, 39, 21, 17, 41, 19, 31, 29, 18, 27, 22, 16, 33, 0, 25, 28, 17, 23, 9, 41, 12, 22, 18, 29, 38, 31, 26, 39, 9, 29, 41, 17, 10, 25, 41, 25, 32, 15, 40, 25, 43, 46
            |22, 37, 19, 5, 25, 36, 21, 32, 4, 16, 15, 21, 19, 17, 13, 28, 26, 11, 22, 19, 33, 32, 17, 16, 23, 18, 11, 15, 23, 12, 28, 14, 8, 30, 34, 28, 25, 16, 28, 30, 22, 17, 3, 34, 30, 13, 24, 22, 21, 13, 7, 37, 17, 21, 33, 17, 20, 33, 18, 16, 14, 34, 17, 19, 11, 9, 39, 7, 22, 28, 11, 20, 25, 0, 43, 9, 22, 22, 16, 28, 6, 7, 28, 14, 9, 4, 14, 26, 33, 32, 20, 16, 17, 19, 2, 15, 30, 15, 41, 20, 23
            |32, 7, 32, 48, 22, 13, 46, 42, 43, 47, 58, 45, 51, 33, 45, 28, 27, 53, 46, 30, 13, 41, 49, 59, 66, 47, 54, 30, 23, 49, 41, 34, 48, 24, 17, 24, 36, 47, 30, 38, 23, 27, 43, 16, 13, 52, 44, 21, 33, 45, 48, 11, 40, 49, 39, 40, 50, 14, 29, 54, 54, 9, 43, 62, 32, 52, 9, 38, 28, 17, 33, 35, 28, 43, 0, 40, 23, 36, 54, 17, 43, 38, 22, 51, 52, 46, 53, 36, 17, 35, 23, 34, 51, 49, 45, 55, 14, 58, 3, 52, 66
            |27, 34, 23, 13, 19, 30, 29, 39, 13, 9, 21, 13, 13, 9, 22, 32, 29, 15, 14, 23, 32, 22, 26, 21, 29, 27, 17, 9, 24, 9, 35, 6, 9, 22, 34, 20, 31, 25, 32, 21, 23, 17, 7, 28, 28, 23, 32, 18, 26, 22, 10, 36, 8, 14, 39, 24, 29, 32, 11, 26, 23, 31, 9, 24, 12, 14, 37, 4, 24, 27, 9, 26, 17, 9, 40, 0, 23, 12, 26, 23, 5, 4, 30, 23, 14, 9, 24, 16, 33, 37, 18, 7, 12, 28, 9, 16, 26, 23, 37, 30, 29
            |10, 17, 9, 27, 16, 22, 23, 23, 21, 32, 37, 34, 36, 21, 21, 11, 8, 33, 35, 7, 11, 37, 26, 38, 45, 24, 33, 16, 1, 31, 21, 20, 29, 24, 12, 22, 16, 24, 12, 34, 0, 6, 23, 22, 11, 29, 22, 11, 11, 21, 29, 15, 28, 36, 22, 16, 27, 11, 18, 31, 31, 15, 30, 41, 11, 31, 17, 19, 5, 7, 14, 13, 23, 22, 23, 23, 0, 27, 31, 15, 25, 19, 7, 28, 31, 26, 30, 30, 11, 18, 6, 22, 35, 26, 24, 37, 14, 35, 22, 28, 44
            |34, 32, 31, 25, 15, 25, 40, 47, 25, 13, 32, 9, 16, 6, 34, 38, 35, 25, 10, 30, 33, 11, 38, 32, 39, 38, 28, 12, 28, 17, 44, 9, 19, 14, 37, 13, 40, 36, 39, 9, 27, 22, 19, 21, 27, 35, 42, 18, 34, 34, 21, 36, 5, 13, 47, 34, 41, 33, 9, 38, 36, 29, 9, 34, 20, 25, 37, 15, 31, 28, 16, 35, 9, 22, 36, 12, 27, 0, 38, 20, 17, 15, 34, 35, 25, 21, 36, 4, 36, 45, 22, 6, 17, 40, 21, 24, 23, 35, 34, 41, 39
            |25, 48, 23, 13, 40, 50, 13, 27, 13, 30, 15, 37, 32, 33, 10, 31, 30, 18, 37, 25, 42, 48, 7, 16, 20, 10, 14, 30, 32, 25, 24, 30, 21, 45, 41, 43, 25, 8, 30, 46, 31, 27, 19, 48, 42, 3, 18, 35, 23, 10, 19, 46, 34, 36, 30, 16, 9, 41, 34, 1, 3, 45, 33, 18, 24, 16, 48, 23, 28, 38, 25, 21, 41, 16, 54, 26, 31, 38, 0, 42, 21, 23, 35, 3, 16, 17, 2, 42, 40, 31, 31, 32, 29, 9, 17, 23, 43, 9, 53, 8, 18
            |25, 12, 23, 33, 5, 8, 37, 38, 30, 30, 43, 29, 34, 17, 33, 25, 23, 38, 30, 21, 14, 27, 38, 43, 51, 37, 39, 14, 15, 32, 36, 18, 32, 10, 19, 9, 31, 36, 26, 24, 15, 15, 28, 7, 8, 39, 36, 6, 26, 33, 33, 16, 23, 33, 36, 30, 40, 15, 13, 41, 40, 9, 27, 47, 18, 36, 17, 22, 20, 11, 17, 27, 12, 28, 17, 23, 15, 20, 42, 0, 28, 22, 19, 39, 36, 31, 40, 21, 18, 33, 11, 18, 34, 39, 29, 39, 3, 43, 14, 41, 51
            |26, 37, 23, 8, 24, 35, 26, 37, 10, 10, 16, 16, 13, 14, 19, 32, 30, 10, 16, 23, 35, 27, 23, 16, 24, 24, 12, 13, 26, 7, 33, 11, 4, 27, 36, 25, 30, 21, 32, 25, 25, 19, 3, 32, 31, 18, 30, 22, 25, 19, 5, 38, 12, 16, 38, 22, 26, 35, 16, 22, 19, 34, 12, 19, 13, 9, 40, 6, 25, 30, 11, 25, 22, 6, 43, 5, 25, 17, 21, 28, 0, 6, 31, 19, 9, 4, 19, 21, 35, 37, 21, 12, 11, 25, 4, 12, 30, 18, 41, 26, 24
            |22, 32, 19, 12, 18, 30, 25, 34, 10, 13, 21, 17, 17, 10, 18, 27, 25, 16, 18, 18, 29, 26, 23, 21, 29, 23, 17, 8, 20, 12, 30, 7, 10, 23, 31, 21, 27, 21, 28, 24, 19, 13, 6, 27, 25, 20, 28, 16, 22, 18, 11, 33, 12, 18, 34, 20, 25, 29, 11, 23, 21, 29, 13, 25, 8, 14, 34, 0, 20, 24, 5, 21, 18, 7, 38, 4, 19, 15, 23, 22, 6, 0, 26, 20, 14, 9, 21, 19, 30, 33, 15, 9, 16, 25, 8, 18, 24, 22, 35, 26, 29
            |10, 16, 11, 33, 22, 25, 25, 20, 27, 39, 42, 41, 43, 28, 25, 6, 5, 39, 42, 10, 9, 43, 29, 43, 51, 26, 38, 23, 6, 38, 19, 27, 36, 29, 6, 28, 14, 27, 8, 40, 7, 13, 30, 26, 13, 33, 22, 17, 12, 25, 35, 12, 35, 43, 18, 19, 29, 8, 25, 34, 35, 15, 37, 47, 18, 37, 14, 26, 7, 8, 21, 14, 29, 28, 22, 30, 7, 34, 35, 19, 31, 26, 0, 32, 37, 32, 34, 37, 6, 14, 13, 29, 42, 28, 30, 43, 17, 40, 22, 31, 49
            |22, 44, 21, 11, 36, 47, 12, 26, 10, 28, 15, 34, 30, 30, 7, 29, 28, 17, 35, 22, 39, 46, 6, 16, 21, 9, 13, 27, 29, 23, 22, 27, 19, 42, 38, 40, 22, 6, 28, 44, 28, 24, 16, 45, 38, 2, 17, 32, 21, 7, 17, 43, 31, 34, 28, 14, 9, 38, 31, 3, 3, 42, 30, 19, 21, 15, 45, 20, 25, 35, 22, 19, 38, 14, 51, 23, 28, 35, 3, 39, 19, 20, 32, 0, 15, 15, 2, 39, 37, 29, 28, 29, 28, 8, 14, 22, 40, 10, 50, 8, 19
            |30, 45, 27, 5, 32, 44, 26, 39, 11, 15, 7, 22, 16, 22, 19, 37, 35, 2, 22, 28, 42, 34, 21, 7, 15, 23, 3, 22, 32, 9, 35, 20, 6, 36, 43, 34, 33, 20, 36, 33, 31, 26, 8, 41, 39, 13, 30, 30, 29, 19, 4, 46, 20, 20, 40, 24, 23, 42, 25, 17, 13, 43, 18, 11, 20, 0, 48, 14, 30, 37, 19, 28, 31, 9, 52, 14, 31, 25, 16, 36, 9, 14, 37, 15, 0, 6, 14, 29, 42, 40, 29, 21, 13, 23, 7, 8, 38, 10, 49, 23, 15
            |26, 40, 23, 4, 27, 38, 24, 36, 8, 13, 12, 19, 16, 17, 17, 32, 30, 7, 20, 23, 37, 31, 20, 13, 21, 21, 8, 17, 27, 9, 32, 15, 4, 31, 38, 29, 29, 18, 32, 29, 26, 20, 3, 36, 33, 14, 28, 25, 25, 17, 3, 40, 16, 18, 37, 21, 23, 36, 20, 18, 15, 37, 15, 16, 15, 6, 42, 9, 25, 31, 13, 24, 26, 4, 46, 9, 26, 21, 17, 31, 4, 9, 32, 15, 6, 0, 15, 25, 37, 36, 23, 16, 13, 22, 2, 11, 33, 14, 44, 23, 20
            |24, 46, 23, 11, 38, 48, 14, 28, 11, 28, 14, 34, 30, 31, 9, 31, 30, 16, 35, 24, 41, 46, 8, 15, 19, 11, 12, 28, 31, 23, 24, 28, 19, 43, 40, 41, 25, 8, 30, 44, 30, 26, 16, 47, 40, 1, 19, 34, 23, 9, 17, 45, 31, 33, 31, 16, 10, 40, 32, 3, 1, 44, 30, 17, 22, 14, 47, 21, 27, 37, 23, 21, 39, 14, 53, 24, 30, 36, 2, 40, 19, 21, 34, 2, 14, 15, 0, 40, 40, 32, 30, 30, 27, 10, 15, 21, 41, 8, 51, 9, 17
            |38, 33, 35, 29, 16, 24, 44, 51, 29, 16, 35, 11, 18, 10, 38, 40, 38, 29, 11, 33, 35, 7, 42, 36, 42, 42, 32, 16, 31, 21, 47, 13, 23, 13, 39, 12, 43, 40, 42, 4, 30, 26, 23, 21, 28, 39, 46, 20, 37, 38, 25, 37, 9, 15, 50, 38, 45, 35, 12, 42, 40, 30, 12, 38, 23, 29, 38, 19, 34, 30, 20, 38, 9, 26, 36, 16, 30, 4, 42, 21, 21, 19, 37, 39, 29, 25, 40, 0, 38, 48, 24, 10, 20, 44, 25, 28, 24, 39, 34, 45, 43
            |16, 11, 17, 38, 22, 22, 30, 25, 32, 42, 48, 43, 46, 30, 30, 11, 11, 44, 44, 16, 4, 44, 34, 48, 56, 32, 43, 25, 10, 42, 24, 30, 40, 28, 1, 27, 20, 33, 13, 41, 11, 17, 34, 23, 11, 39, 28, 17, 17, 30, 40, 6, 37, 46, 22, 24, 35, 4, 26, 40, 40, 12, 40, 52, 22, 42, 8, 30, 13, 7, 25, 20, 29, 33, 17, 33, 11, 36, 40, 18, 35, 30, 6, 37, 42, 37, 40, 38, 0, 18, 15, 31, 46, 34, 35, 47, 16, 46, 17, 36, 55
            |11, 29, 14, 35, 35, 39, 18, 7, 29, 46, 43, 50, 50, 38, 23, 8, 10, 42, 51, 15, 22, 55, 24, 44, 50, 21, 40, 32, 18, 44, 8, 37, 40, 42, 18, 40, 7, 23, 6, 52, 18, 22, 35, 39, 27, 31, 14, 29, 11, 23, 39, 24, 44, 51, 4, 16, 23, 21, 36, 30, 33, 29, 46, 48, 25, 40, 26, 33, 14, 22, 29, 12, 41, 32, 35, 37, 18, 45, 31, 33, 37, 33, 14, 29, 40, 36, 32, 48, 18, 0, 24, 39, 48, 23, 34, 47, 31, 39, 35, 25, 49
            |15, 17, 13, 25, 11, 19, 26, 28, 20, 27, 35, 28, 31, 16, 23, 16, 14, 30, 29, 11, 14, 31, 27, 35, 43, 26, 30, 10, 7, 27, 25, 15, 25, 18, 16, 17, 21, 25, 18, 28, 6, 4, 20, 18, 11, 29, 26, 5, 15, 23, 26, 17, 22, 31, 27, 19, 29, 14, 12, 31, 30, 14, 25, 39, 8, 29, 19, 15, 10, 9, 10, 17, 17, 20, 23, 18, 6, 22, 31, 11, 21, 15, 13, 28, 29, 23, 30, 24, 15, 24, 0, 16, 31, 28, 21, 33, 11, 34, 22, 30, 42
            |28, 29, 25, 20, 13, 24, 34, 41, 19, 13, 28, 12, 16, 1, 27, 32, 30, 22, 13, 24, 29, 17, 32, 28, 36, 32, 24, 6, 23, 15, 37, 2, 16, 15, 32, 13, 33, 30, 33, 15, 22, 17, 14, 21, 24, 29, 36, 14, 28, 27, 17, 32, 6, 15, 41, 28, 35, 29, 5, 32, 30, 26, 9, 31, 13, 21, 34, 9, 25, 24, 10, 28, 10, 16, 34, 7, 22, 6, 32, 18, 12, 9, 29, 29, 21, 16, 30, 10, 31, 39, 16, 0, 17, 34, 16, 22, 21, 30, 32, 35, 36
            |38, 46, 35, 16, 30, 41, 37, 48, 21, 4, 17, 10, 3, 18, 30, 43, 41, 12, 10, 34, 44, 23, 33, 17, 23, 34, 16, 21, 36, 4, 44, 17, 9, 30, 47, 29, 42, 31, 43, 23, 35, 29, 14, 38, 40, 26, 41, 30, 37, 30, 11, 48, 12, 7, 49, 34, 35, 44, 22, 30, 26, 43, 9, 19, 24, 13, 49, 16, 36, 39, 21, 36, 25, 17, 51, 12, 35, 17, 29, 34, 11, 16, 42, 28, 13, 13, 27, 20, 46, 48, 31, 17, 0, 35, 15, 8, 37, 23, 48, 35, 24
            |18, 43, 17, 19, 38, 47, 4, 18, 15, 35, 24, 41, 38, 34, 6, 24, 24, 25, 41, 19, 37, 51, 2, 25, 29, 2, 22, 30, 27, 30, 15, 31, 26, 44, 35, 42, 16, 4, 23, 48, 26, 24, 22, 46, 37, 10, 9, 33, 17, 6, 24, 40, 36, 40, 21, 10, 1, 36, 34, 8, 11, 41, 36, 27, 22, 23, 42, 25, 22, 33, 25, 14, 41, 19, 49, 28, 26, 40, 9, 39, 25, 25, 28, 8, 23, 22, 10, 44, 34, 23, 28, 34, 35, 0, 21, 30, 39, 18, 48, 2, 27
            |24, 38, 21, 4, 26, 37, 22, 34, 6, 14, 13, 20, 17, 17, 15, 30, 28, 9, 21, 21, 35, 31, 18, 14, 22, 20, 9, 16, 25, 10, 30, 14, 6, 30, 36, 28, 27, 17, 30, 30, 24, 18, 2, 35, 32, 14, 26, 23, 23, 15, 5, 39, 17, 20, 35, 19, 21, 34, 19, 17, 14, 35, 16, 18, 13, 7, 40, 8, 24, 30, 12, 22, 25, 2, 45, 9, 24, 21, 17, 29, 4, 8, 30, 14, 7, 2, 15, 25, 35, 34, 21, 16, 15, 21, 0, 13, 31, 15, 42, 21, 21
            |37, 49, 34, 12, 35, 46, 33, 46, 18, 11, 10, 18, 11, 23, 26, 43, 41, 6, 18, 34, 47, 31, 28, 9, 15, 30, 9, 25, 38, 7, 42, 21, 8, 37, 48, 35, 40, 27, 43, 31, 37, 31, 13, 43, 43, 21, 38, 34, 36, 26, 8, 51, 19, 15, 48, 31, 31, 47, 27, 24, 21, 46, 16, 11, 25, 8, 52, 18, 36, 42, 23, 35, 32, 15, 55, 16, 37, 24, 23, 39, 12, 18, 43, 22, 8, 11, 21, 28, 47, 47, 33, 22, 8, 30, 13, 0, 41, 16, 53, 31, 16
            |24, 9, 23, 35, 8, 8, 37, 37, 31, 33, 45, 32, 37, 19, 34, 23, 22, 40, 33, 21, 12, 30, 39, 45, 53, 37, 40, 16, 14, 35, 35, 21, 34, 13, 16, 12, 30, 37, 25, 26, 14, 16, 30, 8, 5, 40, 36, 8, 25, 34, 35, 14, 26, 35, 35, 30, 40, 12, 15, 42, 42, 6, 30, 49, 19, 38, 14, 24, 19, 9, 19, 27, 15, 30, 14, 26, 14, 23, 43, 3, 30, 24, 17, 40, 38, 33, 41, 24, 16, 31, 11, 21, 37, 39, 31, 41, 0, 45, 11, 42, 53
            |31, 51, 29, 10, 40, 51, 22, 36, 14, 25, 6, 32, 26, 32, 17, 38, 37, 11, 32, 30, 47, 44, 16, 7, 11, 19, 7, 30, 36, 20, 32, 29, 16, 45, 46, 43, 32, 16, 37, 43, 35, 30, 16, 49, 45, 8, 27, 37, 30, 17, 14, 50, 30, 30, 38, 23, 18, 46, 34, 10, 7, 48, 28, 9, 26, 10, 52, 22, 33, 42, 26, 28, 40, 15, 58, 23, 35, 35, 9, 43, 18, 22, 40, 10, 10, 14, 8, 39, 46, 39, 34, 30, 23, 18, 15, 16, 45, 0, 56, 17, 9
            |31, 6, 31, 46, 19, 10, 45, 42, 42, 44, 56, 42, 48, 30, 43, 28, 27, 51, 43, 29, 13, 38, 48, 57, 64, 46, 52, 28, 22, 46, 41, 32, 45, 21, 17, 21, 36, 46, 30, 35, 22, 26, 41, 13, 11, 51, 43, 19, 33, 43, 46, 12, 37, 46, 39, 39, 49, 14, 26, 52, 52, 8, 41, 60, 30, 49, 10, 35, 27, 16, 30, 35, 25, 41, 3, 37, 22, 34, 53, 14, 41, 35, 22, 50, 49, 44, 51, 34, 17, 35, 22, 32, 48, 48, 42, 53, 11, 56, 0, 51, 64
            |20, 45, 20, 19, 40, 49, 6, 20, 16, 35, 23, 42, 38, 36, 8, 26, 26, 25, 42, 22, 39, 52, 3, 24, 28, 4, 21, 32, 29, 31, 17, 33, 27, 46, 37, 44, 18, 5, 25, 50, 28, 26, 23, 48, 40, 10, 11, 35, 19, 8, 25, 42, 38, 41, 23, 12, 1, 38, 36, 7, 10, 43, 37, 26, 24, 23, 44, 26, 24, 35, 26, 17, 43, 20, 52, 30, 28, 41, 8, 41, 26, 26, 31, 8, 23, 23, 9, 45, 36, 25, 30, 35, 35, 2, 21, 31, 42, 17, 51, 0, 26
            |41, 59, 38, 18, 47, 59, 31, 45, 23, 27, 8, 34, 27, 37, 26, 47, 46, 14, 34, 39, 55, 47, 25, 8, 2, 28, 12, 37, 45, 22, 42, 34, 20, 51, 55, 49, 42, 25, 47, 47, 44, 39, 23, 56, 53, 17, 36, 45, 39, 26, 19, 59, 34, 31, 48, 33, 27, 55, 40, 19, 16, 57, 31, 5, 34, 15, 61, 29, 42, 50, 33, 38, 46, 23, 66, 29, 44, 39, 18, 51, 24, 29, 49, 19, 15, 20, 17, 43, 55, 49, 42, 36, 24, 27, 21, 16, 53, 9, 64, 26, 0|];