% n20w200.005    98.15 360
n = 21;
duration = [|0, 14, 18, 46, 46, 29, 44, 42, 16, 35, 23, 10, 32, 13, 41, 38, 56, 39, 22, 25, 26
            |14, 0, 9, 41, 34, 21, 40, 28, 19, 21, 9, 15, 21, 10, 27, 38, 47, 33, 8, 20, 27
            |18, 9, 0, 32, 28, 13, 31, 27, 14, 19, 14, 13, 15, 6, 24, 29, 39, 24, 11, 11, 20
            |46, 41, 32, 0, 26, 20, 3, 40, 31, 36, 43, 37, 27, 34, 33, 15, 17, 9, 40, 22, 23
            |46, 34, 28, 26, 0, 19, 27, 16, 38, 16, 30, 40, 13, 34, 10, 36, 17, 18, 28, 26, 36
            |29, 21, 13, 20, 19, 0, 19, 26, 18, 19, 24, 21, 10, 16, 20, 21, 26, 11, 20, 7, 17
            |44, 40, 31, 3, 27, 19, 0, 41, 29, 36, 43, 35, 27, 33, 34, 12, 20, 10, 40, 20, 21
            |42, 28, 27, 40, 16, 26, 41, 0, 40, 8, 21, 40, 16, 33, 7, 47, 34, 31, 21, 32, 43
            |16, 19, 14, 31, 38, 18, 29, 40, 0, 32, 27, 6, 26, 9, 36, 22, 43, 26, 25, 12, 10
            |35, 21, 19, 36, 16, 19, 36, 8, 32, 0, 15, 32, 9, 25, 7, 40, 33, 26, 14, 25, 35
            |23, 9, 14, 43, 30, 24, 43, 21, 27, 15, 0, 24, 18, 18, 22, 43, 45, 34, 3, 25, 34
            |10, 15, 13, 37, 40, 21, 35, 40, 6, 32, 24, 0, 27, 7, 37, 28, 47, 31, 22, 16, 16
            |32, 21, 15, 27, 13, 10, 27, 16, 26, 9, 18, 27, 0, 21, 10, 31, 27, 17, 16, 16, 27
            |13, 10, 6, 34, 34, 16, 33, 33, 9, 25, 18, 7, 21, 0, 30, 28, 43, 27, 16, 12, 17
            |41, 27, 24, 33, 10, 20, 34, 7, 36, 7, 22, 37, 10, 30, 0, 40, 27, 24, 21, 26, 37
            |38, 38, 29, 15, 36, 21, 12, 47, 22, 40, 43, 28, 31, 28, 40, 0, 32, 17, 40, 18, 12
            |56, 47, 39, 17, 17, 26, 20, 34, 43, 33, 45, 47, 27, 43, 27, 32, 0, 17, 43, 32, 38
            |39, 33, 24, 9, 18, 11, 10, 31, 26, 26, 34, 31, 17, 27, 24, 17, 17, 0, 31, 15, 21
            |22, 8, 11, 40, 28, 20, 40, 21, 25, 14, 3, 22, 16, 16, 21, 40, 43, 31, 0, 22, 31
            |25, 20, 11, 22, 26, 7, 20, 32, 12, 25, 25, 16, 16, 12, 26, 18, 32, 15, 22, 0, 11
            |26, 27, 20, 23, 36, 17, 21, 43, 10, 35, 34, 16, 27, 17, 37, 12, 38, 21, 31, 11, 0|];