% n20w120.001    16.75 391
n = 21;
duration = [|0, 20, 17, 34, 8, 20, 10, 17, 29, 16, 25, 30, 24, 30, 22, 20, 9, 17, 22, 14, 13
            |20, 0, 10, 42, 27, 3, 27, 25, 15, 17, 18, 14, 19, 49, 17, 6, 21, 14, 17, 13, 31
            |17, 10, 0, 47, 23, 13, 27, 16, 25, 23, 27, 25, 27, 45, 7, 5, 23, 21, 25, 19, 30
            |34, 42, 47, 0, 37, 40, 26, 52, 36, 25, 28, 39, 26, 45, 54, 47, 26, 28, 26, 29, 27
            |8, 27, 23, 37, 0, 28, 11, 17, 37, 22, 32, 38, 31, 22, 26, 26, 15, 24, 29, 21, 11
            |20, 3, 13, 40, 28, 0, 26, 27, 12, 15, 15, 12, 16, 50, 20, 9, 20, 12, 14, 11, 30
            |10, 27, 27, 26, 11, 26, 0, 27, 32, 15, 25, 33, 23, 26, 32, 29, 7, 18, 22, 16, 4
            |17, 25, 16, 52, 17, 27, 27, 0, 39, 31, 38, 39, 38, 34, 13, 21, 27, 31, 36, 28, 28
            |29, 15, 25, 36, 37, 12, 32, 39, 0, 17, 9, 2, 11, 57, 32, 21, 25, 13, 11, 16, 36
            |16, 17, 23, 25, 22, 15, 15, 31, 17, 0, 10, 19, 9, 41, 30, 22, 8, 4, 7, 4, 19
            |25, 18, 27, 28, 32, 15, 25, 38, 9, 10, 0, 11, 2, 51, 34, 24, 18, 8, 3, 11, 29
            |30, 14, 25, 39, 38, 12, 33, 39, 2, 19, 11, 0, 13, 59, 31, 20, 26, 15, 13, 17, 38
            |24, 19, 27, 26, 31, 16, 23, 38, 11, 9, 2, 13, 0, 50, 34, 25, 17, 7, 2, 10, 28
            |30, 49, 45, 45, 22, 50, 26, 34, 57, 41, 51, 59, 50, 0, 46, 49, 33, 44, 48, 42, 22
            |22, 17, 7, 54, 26, 20, 32, 13, 32, 30, 34, 31, 34, 46, 0, 11, 29, 28, 33, 26, 34
            |20, 6, 5, 47, 26, 9, 29, 21, 21, 22, 24, 20, 25, 49, 11, 0, 24, 19, 23, 18, 32
            |9, 21, 23, 26, 15, 20, 7, 27, 25, 8, 18, 26, 17, 33, 29, 24, 0, 12, 16, 9, 11
            |17, 14, 21, 28, 24, 12, 18, 31, 13, 4, 8, 15, 7, 44, 28, 19, 12, 0, 5, 3, 23
            |22, 17, 25, 26, 29, 14, 22, 36, 11, 7, 3, 13, 2, 48, 33, 23, 16, 5, 0, 8, 26
            |14, 13, 19, 29, 21, 11, 16, 28, 16, 4, 11, 17, 10, 42, 26, 18, 9, 3, 8, 0, 21
            |13, 31, 30, 27, 11, 30, 4, 28, 36, 19, 29, 38, 28, 22, 34, 32, 11, 23, 26, 21, 0|];