% n20w120.003    21.80 299
n = 21;
duration = [|0, 16, 32, 17, 28, 27, 31, 19, 30, 31, 30, 35, 23, 6, 19, 29, 41, 23, 26, 41, 17
            |16, 0, 25, 25, 27, 35, 37, 24, 30, 45, 44, 46, 36, 13, 14, 40, 50, 35, 23, 44, 30
            |32, 25, 0, 24, 11, 26, 25, 19, 13, 44, 44, 40, 35, 26, 13, 35, 39, 33, 7, 26, 33
            |17, 25, 24, 0, 14, 10, 14, 4, 16, 22, 22, 21, 12, 14, 16, 15, 25, 11, 16, 25, 9
            |28, 27, 11, 14, 0, 15, 13, 10, 3, 33, 33, 29, 25, 22, 13, 24, 28, 22, 6, 17, 23
            |27, 35, 26, 10, 15, 0, 5, 11, 15, 18, 19, 14, 11, 24, 23, 9, 15, 9, 20, 16, 13
            |31, 37, 25, 14, 13, 5, 0, 13, 12, 22, 23, 16, 16, 27, 24, 13, 14, 14, 19, 11, 18
            |19, 24, 19, 4, 10, 11, 13, 0, 12, 25, 25, 23, 16, 15, 13, 17, 26, 14, 12, 22, 14
            |30, 30, 13, 16, 3, 15, 12, 12, 0, 33, 34, 28, 25, 25, 16, 24, 26, 23, 8, 15, 25
            |31, 45, 44, 22, 33, 18, 22, 25, 33, 0, 1, 9, 9, 31, 38, 9, 18, 11, 37, 32, 14
            |30, 44, 44, 22, 33, 19, 23, 25, 34, 1, 0, 10, 9, 31, 37, 10, 19, 11, 37, 32, 14
            |35, 46, 40, 21, 29, 14, 16, 23, 28, 9, 10, 0, 12, 34, 36, 6, 9, 12, 34, 23, 17
            |23, 36, 35, 12, 25, 11, 16, 16, 25, 9, 9, 12, 0, 23, 28, 6, 19, 2, 28, 27, 6
            |6, 13, 26, 14, 22, 24, 27, 15, 25, 31, 31, 34, 23, 0, 14, 27, 38, 22, 21, 37, 17
            |19, 14, 13, 16, 13, 23, 24, 13, 16, 38, 37, 36, 28, 14, 0, 30, 38, 27, 9, 31, 24
            |29, 40, 35, 15, 24, 9, 13, 17, 24, 9, 10, 6, 6, 27, 30, 0, 13, 5, 28, 23, 11
            |41, 50, 39, 25, 28, 15, 14, 26, 26, 18, 19, 9, 19, 38, 38, 13, 0, 18, 33, 17, 24
            |23, 35, 33, 11, 22, 9, 14, 14, 23, 11, 11, 12, 2, 22, 27, 5, 18, 0, 26, 25, 6
            |26, 23, 7, 16, 6, 20, 19, 12, 8, 37, 37, 34, 28, 21, 9, 28, 33, 26, 0, 23, 26
            |41, 44, 26, 25, 17, 16, 11, 22, 15, 32, 32, 23, 27, 37, 31, 23, 17, 25, 23, 0, 30
            |17, 30, 33, 9, 23, 13, 18, 14, 25, 14, 14, 17, 6, 17, 24, 11, 24, 6, 26, 30, 0|];
early = [0, 0, 146, 111, 0, 28, 135, 15, 5, 196, 90, 29, 106, 241, 0, 22, 41, 93, 0, 67, 186];
late = [368, 74, 276, 236, 103, 148, 256, 139, 126, 322, 212, 148, 231, 362, 81, 156, 164, 206, 106, 178, 304];