% n20w200.001    96.50 363
n = 21;
duration = [|0, 27, 12, 35, 25, 32, 27, 43, 23, 4, 16, 10, 38, 39, 13, 18, 19, 42, 22, 28, 40
            |27, 0, 16, 23, 4, 5, 10, 39, 4, 27, 26, 18, 13, 36, 34, 24, 11, 27, 27, 5, 13
            |12, 16, 0, 25, 14, 20, 16, 36, 11, 12, 13, 2, 26, 33, 19, 18, 10, 32, 18, 17, 29
            |35, 23, 25, 0, 27, 23, 14, 16, 23, 32, 22, 26, 18, 15, 33, 42, 30, 8, 18, 28, 32
            |25, 4, 14, 27, 0, 9, 13, 42, 4, 26, 26, 16, 17, 39, 34, 20, 7, 31, 28, 3, 15
            |32, 5, 20, 23, 9, 0, 10, 39, 9, 32, 29, 22, 9, 37, 39, 28, 16, 25, 30, 8, 10
            |27, 10, 16, 14, 13, 10, 0, 29, 9, 26, 21, 17, 11, 27, 31, 30, 17, 18, 20, 15, 20
            |43, 39, 36, 16, 42, 39, 29, 0, 38, 39, 27, 36, 34, 4, 36, 55, 44, 18, 21, 44, 48
            |23, 4, 11, 23, 4, 9, 9, 38, 0, 23, 22, 13, 16, 35, 30, 21, 8, 28, 24, 7, 18
            |4, 27, 12, 32, 26, 32, 26, 39, 23, 0, 12, 9, 37, 35, 9, 21, 20, 40, 18, 28, 40
            |16, 26, 13, 22, 26, 29, 21, 27, 22, 12, 0, 12, 31, 23, 11, 30, 24, 30, 6, 29, 39
            |10, 18, 2, 26, 16, 22, 17, 36, 13, 9, 12, 0, 28, 33, 17, 19, 12, 33, 17, 19, 31
            |38, 13, 26, 18, 17, 9, 11, 34, 16, 37, 31, 28, 0, 32, 42, 37, 24, 18, 30, 17, 15
            |39, 36, 33, 15, 39, 37, 27, 4, 35, 35, 23, 33, 32, 0, 32, 51, 41, 18, 17, 41, 46
            |13, 34, 19, 33, 34, 39, 31, 36, 30, 9, 11, 17, 42, 32, 0, 31, 29, 41, 16, 36, 48
            |18, 24, 18, 42, 20, 28, 30, 55, 21, 21, 30, 19, 37, 51, 31, 0, 13, 48, 36, 21, 32
            |19, 11, 10, 30, 7, 16, 17, 44, 8, 20, 24, 12, 24, 41, 29, 13, 0, 36, 27, 9, 21
            |42, 27, 32, 8, 31, 25, 18, 18, 28, 40, 30, 33, 18, 18, 41, 48, 36, 0, 26, 32, 33
            |22, 27, 18, 18, 28, 30, 20, 21, 24, 18, 6, 17, 30, 17, 16, 36, 27, 26, 0, 31, 40
            |28, 5, 17, 28, 3, 8, 15, 44, 7, 28, 29, 19, 17, 41, 36, 21, 9, 32, 31, 0, 12
            |40, 13, 29, 32, 15, 10, 20, 48, 18, 40, 39, 31, 15, 46, 48, 32, 21, 33, 40, 12, 0|];
early = [0, 0, 0, 106, 0, 0, 19, 171, 0, 0, 0, 0, 148, 66, 31, 0, 0, 84, 97, 193, 220];
late = [455, 183, 167, 310, 208, 140, 203, 330, 133, 83, 174, 75, 380, 235, 232, 176, 206, 321, 263, 427, 408];