% n20w160.004    62.55 341
n = 21;
duration = [|0, 25, 26, 4, 32, 24, 33, 7, 35, 26, 36, 13, 18, 39, 27, 36, 43, 23, 37, 5, 22
            |25, 0, 28, 25, 34, 1, 22, 18, 26, 7, 20, 16, 11, 16, 8, 13, 37, 8, 14, 22, 8
            |26, 28, 0, 22, 7, 27, 14, 24, 13, 23, 20, 30, 32, 43, 22, 40, 18, 33, 29, 21, 20
            |4, 25, 22, 0, 28, 24, 30, 8, 32, 25, 34, 15, 20, 40, 25, 37, 39, 24, 36, 3, 21
            |32, 34, 7, 28, 0, 33, 17, 31, 15, 29, 23, 37, 39, 49, 28, 46, 14, 40, 34, 27, 26
            |24, 1, 27, 24, 33, 0, 21, 17, 25, 6, 20, 15, 11, 17, 7, 14, 36, 8, 14, 21, 7
            |33, 22, 14, 30, 17, 21, 0, 28, 4, 15, 6, 31, 31, 34, 14, 31, 15, 29, 17, 28, 15
            |7, 18, 24, 8, 31, 17, 28, 0, 31, 20, 30, 7, 12, 32, 20, 29, 40, 16, 30, 6, 16
            |35, 26, 13, 32, 15, 25, 4, 31, 0, 19, 9, 35, 34, 38, 18, 35, 11, 33, 21, 30, 19
            |26, 7, 23, 25, 29, 6, 15, 20, 19, 0, 14, 20, 17, 21, 1, 17, 30, 14, 10, 22, 4
            |36, 20, 20, 34, 23, 20, 6, 30, 9, 14, 0, 32, 30, 30, 13, 27, 19, 28, 12, 31, 15
            |13, 16, 30, 15, 37, 15, 31, 7, 35, 20, 32, 0, 6, 27, 21, 25, 45, 11, 29, 13, 17
            |18, 11, 32, 20, 39, 11, 31, 12, 34, 17, 30, 6, 0, 21, 18, 19, 45, 5, 25, 18, 16
            |39, 16, 43, 40, 49, 17, 34, 32, 38, 21, 30, 27, 21, 0, 21, 4, 49, 16, 19, 37, 23
            |27, 8, 22, 25, 28, 7, 14, 20, 18, 1, 13, 21, 18, 21, 0, 18, 29, 15, 10, 23, 4
            |36, 13, 40, 37, 46, 14, 31, 29, 35, 17, 27, 25, 19, 4, 18, 0, 46, 14, 16, 34, 20
            |43, 37, 18, 39, 14, 36, 15, 40, 11, 30, 19, 45, 45, 49, 29, 46, 0, 44, 31, 38, 30
            |23, 8, 33, 24, 40, 8, 29, 16, 33, 14, 28, 11, 5, 16, 15, 14, 44, 0, 21, 21, 14
            |37, 14, 29, 36, 34, 14, 17, 30, 21, 10, 12, 29, 25, 19, 10, 16, 31, 21, 0, 33, 14
            |5, 22, 21, 3, 27, 21, 28, 6, 30, 22, 31, 13, 18, 37, 23, 34, 38, 21, 33, 0, 18
            |22, 8, 20, 21, 26, 7, 15, 16, 19, 4, 15, 17, 16, 23, 4, 20, 30, 14, 14, 18, 0|];