% n20w120.0003    21.55 412
n = 21;
duration = [|0, 21, 30, 21, 35, 3, 2, 32, 36, 36, 40, 46, 43, 9, 34, 32, 40, 40, 64, 9, 20
            |21, 0, 23, 10, 24, 24, 21, 31, 18, 20, 19, 48, 45, 12, 36, 35, 25, 41, 54, 28, 5
            |30, 23, 0, 13, 6, 32, 32, 10, 18, 14, 29, 26, 24, 23, 16, 16, 14, 20, 34, 30, 18
            |21, 10, 13, 0, 15, 23, 22, 21, 16, 15, 23, 38, 35, 12, 26, 25, 19, 31, 46, 24, 5
            |35, 24, 6, 15, 0, 37, 36, 15, 14, 9, 26, 30, 28, 27, 21, 21, 8, 24, 31, 35, 19
            |3, 24, 32, 23, 37, 0, 4, 33, 39, 39, 43, 45, 42, 12, 34, 32, 42, 40, 66, 7, 23
            |2, 21, 32, 22, 36, 4, 0, 34, 37, 37, 40, 48, 45, 10, 36, 34, 41, 42, 66, 11, 21
            |32, 31, 10, 21, 15, 33, 34, 0, 28, 24, 39, 17, 14, 27, 6, 6, 23, 11, 35, 28, 26
            |36, 18, 18, 16, 14, 39, 37, 28, 0, 5, 11, 44, 42, 27, 35, 34, 10, 38, 39, 40, 16
            |36, 20, 14, 15, 9, 39, 37, 24, 5, 0, 17, 39, 37, 27, 30, 30, 5, 33, 34, 39, 17
            |40, 19, 29, 23, 26, 43, 40, 39, 11, 17, 0, 55, 53, 31, 45, 45, 21, 49, 48, 46, 20
            |46, 48, 26, 38, 30, 45, 48, 17, 44, 39, 55, 0, 3, 43, 12, 14, 37, 6, 35, 39, 43
            |43, 45, 24, 35, 28, 42, 45, 14, 42, 37, 53, 3, 0, 40, 9, 11, 35, 4, 36, 36, 40
            |9, 12, 23, 12, 27, 12, 10, 27, 27, 27, 31, 43, 40, 0, 31, 29, 32, 37, 57, 15, 11
            |34, 36, 16, 26, 21, 34, 36, 6, 35, 30, 45, 12, 9, 31, 0, 2, 29, 6, 37, 29, 31
            |32, 35, 16, 25, 21, 32, 34, 6, 34, 30, 45, 14, 11, 29, 2, 0, 29, 8, 39, 26, 30
            |40, 25, 14, 19, 8, 42, 41, 23, 10, 5, 21, 37, 35, 32, 29, 29, 0, 31, 29, 42, 22
            |40, 41, 20, 31, 24, 40, 42, 11, 38, 33, 49, 6, 4, 37, 6, 8, 31, 0, 34, 34, 36
            |64, 54, 34, 46, 31, 66, 66, 35, 39, 34, 48, 35, 36, 57, 37, 39, 29, 34, 0, 62, 50
            |9, 28, 30, 24, 35, 7, 11, 28, 40, 39, 46, 39, 36, 15, 29, 26, 42, 34, 62, 0, 25
            |20, 5, 18, 5, 19, 23, 21, 26, 16, 17, 20, 43, 40, 11, 31, 30, 22, 36, 50, 25, 0|];
early = [0, 0, 121, 35, 18, 0, 258, 59, 0, 26, 143, 93, 301, 0, 68, 60, 0, 77, 192, 0, 242];
late = [467, 90, 227, 165, 126, 70, 387, 169, 118, 152, 272, 210, 424, 88, 199, 191, 135, 192, 318, 76, 355];