% n20w120.004    20.20 404
n = 21;
duration = [|0, 31, 16, 5, 19, 32, 29, 16, 32, 29, 15, 6, 6, 21, 14, 23, 25, 30, 27, 17, 9
            |31, 0, 21, 33, 42, 4, 18, 23, 8, 33, 21, 35, 36, 25, 29, 37, 50, 53, 45, 14, 38
            |16, 21, 0, 14, 34, 24, 29, 2, 19, 16, 18, 22, 18, 27, 25, 17, 29, 31, 24, 12, 19
            |5, 33, 14, 0, 24, 34, 33, 14, 32, 25, 19, 10, 4, 26, 19, 18, 20, 25, 22, 19, 6
            |19, 42, 34, 24, 0, 41, 30, 35, 46, 48, 21, 14, 22, 19, 12, 41, 39, 45, 45, 29, 25
            |32, 4, 24, 34, 41, 0, 15, 26, 12, 36, 20, 35, 37, 23, 28, 40, 52, 55, 48, 15, 40
            |29, 18, 29, 33, 30, 15, 0, 31, 25, 44, 14, 30, 35, 11, 19, 45, 53, 57, 52, 16, 38
            |16, 23, 2, 14, 35, 26, 31, 0, 20, 14, 20, 22, 18, 29, 26, 14, 27, 29, 22, 15, 18
            |32, 8, 19, 32, 46, 12, 25, 20, 0, 26, 25, 37, 36, 31, 34, 33, 47, 49, 41, 17, 37
            |29, 33, 16, 25, 48, 36, 44, 14, 26, 0, 34, 34, 28, 43, 40, 11, 27, 26, 17, 28, 26
            |15, 21, 18, 19, 21, 20, 14, 20, 25, 34, 0, 16, 21, 9, 9, 33, 39, 43, 39, 8, 24
            |6, 35, 22, 10, 14, 35, 30, 22, 37, 34, 16, 0, 8, 21, 12, 28, 27, 33, 31, 21, 12
            |6, 36, 18, 4, 22, 37, 35, 18, 36, 28, 21, 8, 0, 27, 19, 20, 19, 25, 23, 22, 4
            |21, 25, 27, 26, 19, 23, 11, 29, 31, 43, 9, 21, 27, 0, 9, 41, 46, 51, 47, 17, 31
            |14, 29, 25, 19, 12, 28, 19, 26, 34, 40, 9, 12, 19, 9, 0, 36, 39, 44, 41, 17, 23
            |23, 37, 17, 18, 41, 40, 45, 14, 33, 11, 33, 28, 20, 41, 36, 0, 16, 16, 8, 29, 17
            |25, 50, 29, 20, 39, 52, 53, 27, 47, 27, 39, 27, 19, 46, 39, 16, 0, 6, 11, 38, 15
            |30, 53, 31, 25, 45, 55, 57, 29, 49, 26, 43, 33, 25, 51, 44, 16, 6, 0, 9, 42, 21
            |27, 45, 24, 22, 45, 48, 52, 22, 41, 17, 39, 31, 23, 47, 41, 8, 11, 9, 0, 36, 19
            |17, 14, 12, 19, 29, 15, 16, 15, 17, 28, 8, 21, 22, 17, 17, 29, 38, 42, 36, 0, 25
            |9, 38, 19, 6, 25, 40, 38, 18, 37, 26, 24, 12, 4, 31, 23, 17, 15, 21, 19, 25, 0|];
early = [0, 319, 0, 0, 116, 65, 67, 0, 41, 17, 84, 0, 129, 214, 100, 5, 162, 268, 150, 0, 248];
late = [458, 427, 91, 73, 233, 176, 192, 118, 165, 142, 201, 69, 253, 325, 226, 134, 290, 374, 283, 98, 352];