% n20w160.002    47.45 308
n = 21;
duration = [|0, 31, 24, 43, 6, 49, 24, 43, 26, 42, 41, 37, 25, 10, 22, 35, 24, 40, 11, 3, 32
            |31, 0, 43, 26, 27, 38, 44, 21, 6, 41, 23, 45, 12, 21, 35, 15, 11, 24, 24, 28, 13
            |24, 43, 0, 38, 30, 39, 3, 43, 36, 26, 38, 16, 31, 30, 8, 37, 31, 36, 34, 25, 35
            |43, 26, 38, 0, 43, 12, 41, 8, 24, 21, 4, 30, 20, 37, 31, 11, 22, 3, 42, 40, 14
            |6, 27, 30, 43, 0, 51, 29, 42, 23, 45, 40, 41, 23, 6, 26, 34, 21, 40, 5, 5, 30
            |49, 38, 39, 12, 51, 0, 42, 20, 35, 15, 16, 26, 30, 45, 33, 23, 32, 14, 51, 47, 25
            |24, 44, 3, 41, 29, 42, 0, 46, 38, 29, 41, 19, 33, 30, 10, 40, 33, 39, 34, 24, 37
            |43, 21, 43, 8, 42, 20, 46, 0, 21, 29, 5, 37, 18, 36, 35, 8, 20, 8, 40, 40, 12
            |26, 6, 36, 24, 23, 35, 38, 21, 0, 36, 21, 39, 6, 16, 29, 13, 5, 22, 20, 23, 10
            |42, 41, 26, 21, 45, 15, 29, 29, 36, 0, 24, 11, 30, 41, 22, 28, 32, 21, 47, 41, 29
            |41, 23, 38, 4, 40, 16, 41, 5, 21, 24, 0, 32, 17, 34, 31, 8, 19, 3, 39, 38, 11
            |37, 45, 16, 30, 41, 26, 19, 37, 39, 11, 32, 0, 33, 39, 16, 34, 34, 29, 44, 36, 33
            |25, 12, 31, 20, 23, 30, 33, 18, 6, 30, 17, 33, 0, 17, 24, 10, 2, 17, 22, 22, 7
            |10, 21, 30, 37, 6, 45, 30, 36, 16, 41, 34, 39, 17, 0, 25, 27, 15, 34, 5, 8, 24
            |22, 35, 8, 31, 26, 33, 10, 35, 29, 22, 31, 16, 24, 25, 0, 29, 24, 29, 29, 21, 27
            |35, 15, 37, 11, 34, 23, 40, 8, 13, 28, 8, 34, 10, 27, 29, 0, 12, 9, 32, 32, 4
            |24, 11, 31, 22, 21, 32, 33, 20, 5, 32, 19, 34, 2, 15, 24, 12, 0, 19, 20, 21, 9
            |40, 24, 36, 3, 40, 14, 39, 8, 22, 21, 3, 29, 17, 34, 29, 9, 19, 0, 39, 37, 12
            |11, 24, 34, 42, 5, 51, 34, 40, 20, 47, 39, 44, 22, 5, 29, 32, 20, 39, 0, 9, 28
            |3, 28, 25, 40, 5, 47, 24, 40, 23, 41, 38, 36, 22, 8, 21, 32, 21, 37, 9, 0, 29
            |32, 13, 35, 14, 30, 25, 37, 12, 10, 29, 11, 33, 7, 24, 27, 4, 9, 12, 28, 29, 0|];
early = [0, 0, 197, 11, 0, 46, 103, 0, 0, 57, 25, 106, 0, 201, 104, 0, 141, 18, 0, 0, 177];
late = [371, 96, 347, 139, 106, 175, 262, 162, 132, 189, 191, 254, 125, 351, 246, 127, 293, 179, 91, 62, 337];