% n20w180.003    75.85 368
n = 21;
duration = [|0, 31, 23, 12, 25, 4, 15, 18, 29, 14, 39, 22, 9, 26, 30, 6, 25, 42, 26, 28, 28
            |31, 0, 48, 32, 45, 35, 18, 50, 12, 18, 36, 40, 39, 29, 34, 26, 12, 41, 52, 19, 43
            |23, 48, 0, 34, 9, 22, 30, 17, 40, 31, 36, 12, 14, 26, 26, 28, 38, 36, 4, 35, 15
            |12, 32, 34, 0, 37, 12, 22, 25, 34, 20, 50, 34, 20, 36, 41, 10, 30, 53, 37, 36, 40
            |25, 45, 9, 37, 0, 26, 28, 25, 36, 29, 28, 6, 18, 19, 18, 30, 34, 27, 11, 30, 6
            |4, 35, 22, 12, 26, 0, 19, 15, 33, 18, 42, 24, 8, 29, 33, 9, 29, 45, 25, 32, 29
            |15, 18, 30, 22, 28, 19, 0, 32, 14, 2, 29, 22, 21, 17, 22, 12, 10, 33, 34, 14, 27
            |18, 50, 17, 25, 25, 15, 32, 0, 46, 32, 49, 26, 12, 37, 39, 24, 42, 50, 18, 43, 30
            |29, 12, 40, 34, 36, 33, 14, 46, 0, 15, 24, 30, 34, 18, 22, 25, 4, 29, 45, 7, 33
            |14, 18, 31, 20, 29, 18, 2, 32, 15, 0, 31, 24, 21, 19, 24, 10, 11, 35, 35, 16, 28
            |39, 36, 36, 50, 28, 42, 29, 49, 24, 31, 0, 24, 38, 14, 10, 40, 26, 5, 39, 17, 22
            |22, 40, 12, 34, 6, 24, 22, 26, 30, 24, 24, 0, 17, 14, 14, 26, 28, 24, 16, 24, 5
            |9, 39, 14, 20, 18, 8, 21, 12, 34, 21, 38, 17, 0, 25, 28, 15, 30, 40, 17, 31, 22
            |26, 29, 26, 36, 19, 29, 17, 37, 18, 19, 14, 14, 25, 0, 5, 26, 18, 16, 29, 11, 15
            |30, 34, 26, 41, 18, 33, 22, 39, 22, 24, 10, 14, 28, 5, 0, 31, 22, 12, 29, 15, 13
            |6, 26, 28, 10, 30, 9, 12, 24, 25, 10, 40, 26, 15, 26, 31, 0, 21, 43, 32, 26, 31
            |25, 12, 38, 30, 34, 29, 10, 42, 4, 11, 26, 28, 30, 18, 22, 21, 0, 30, 42, 8, 31
            |42, 41, 36, 53, 27, 45, 33, 50, 29, 35, 5, 24, 40, 16, 12, 43, 30, 0, 38, 22, 21
            |26, 52, 4, 37, 11, 25, 34, 18, 45, 35, 39, 16, 17, 29, 29, 32, 42, 38, 0, 39, 17
            |28, 19, 35, 36, 30, 32, 14, 43, 7, 16, 17, 24, 31, 11, 15, 26, 8, 22, 39, 0, 26
            |28, 43, 15, 40, 6, 29, 27, 30, 33, 28, 22, 5, 22, 15, 13, 31, 31, 21, 17, 26, 0|];