% n20w140.003    37.40 363
n = 21;
duration = [|0, 41, 46, 13, 24, 38, 15, 23, 10, 6, 21, 8, 37, 16, 13, 17, 41, 8, 31, 26, 26
            |41, 0, 10, 37, 27, 24, 26, 52, 39, 40, 40, 49, 24, 29, 40, 39, 14, 48, 32, 15, 16
            |46, 10, 0, 40, 37, 34, 32, 61, 47, 47, 41, 54, 34, 32, 48, 41, 24, 54, 42, 21, 24
            |13, 37, 40, 0, 30, 42, 13, 36, 22, 18, 9, 19, 41, 8, 25, 4, 42, 19, 38, 23, 26
            |24, 27, 37, 30, 0, 14, 18, 26, 17, 20, 38, 30, 13, 25, 16, 35, 20, 29, 8, 19, 13
            |38, 24, 34, 42, 14, 0, 29, 38, 31, 34, 49, 44, 1, 36, 30, 46, 11, 43, 12, 24, 18
            |15, 26, 32, 13, 18, 29, 0, 32, 17, 16, 21, 23, 28, 7, 19, 17, 29, 22, 26, 12, 13
            |23, 52, 61, 36, 26, 38, 32, 0, 16, 18, 44, 21, 37, 37, 13, 40, 46, 20, 26, 40, 37
            |10, 39, 47, 22, 17, 31, 17, 16, 0, 4, 30, 14, 30, 21, 3, 26, 36, 12, 22, 26, 24
            |6, 40, 47, 18, 20, 34, 16, 18, 4, 0, 26, 10, 33, 19, 7, 22, 38, 9, 26, 26, 25
            |21, 40, 41, 9, 38, 49, 21, 44, 30, 26, 0, 25, 48, 14, 33, 4, 47, 26, 46, 28, 32
            |8, 49, 54, 19, 30, 44, 23, 21, 14, 10, 25, 0, 43, 23, 16, 22, 48, 1, 36, 34, 34
            |37, 24, 34, 41, 13, 1, 28, 37, 30, 33, 48, 43, 0, 35, 29, 45, 11, 42, 11, 23, 17
            |16, 29, 32, 8, 25, 36, 7, 37, 21, 19, 14, 23, 35, 0, 24, 11, 34, 23, 33, 15, 19
            |13, 40, 48, 25, 16, 30, 19, 13, 3, 7, 33, 16, 29, 24, 0, 29, 36, 14, 20, 28, 25
            |17, 39, 41, 4, 35, 46, 17, 40, 26, 22, 4, 22, 45, 11, 29, 0, 45, 23, 43, 26, 30
            |41, 14, 24, 42, 20, 11, 29, 46, 36, 38, 47, 48, 11, 34, 36, 45, 0, 47, 21, 20, 16
            |8, 48, 54, 19, 29, 43, 22, 20, 12, 9, 26, 1, 42, 23, 14, 23, 47, 0, 34, 34, 34
            |31, 32, 42, 38, 8, 12, 26, 26, 22, 26, 46, 36, 11, 33, 20, 43, 21, 34, 0, 26, 20
            |26, 15, 21, 23, 19, 24, 12, 40, 26, 26, 28, 34, 23, 15, 28, 26, 20, 34, 26, 0, 6
            |26, 16, 24, 26, 13, 18, 13, 37, 24, 25, 32, 34, 17, 19, 25, 30, 16, 34, 20, 6, 0|];
early = [0, 148, 228, 9, 100, 194, 92, 0, 47, 0, 23, 0, 106, 28, 0, 24, 132, 7, 250, 159, 186];
late = [422, 292, 366, 155, 252, 303, 216, 107, 213, 69, 148, 72, 241, 152, 86, 186, 281, 137, 391, 292, 348];