% n20w120.005    18.60 369
n = 21;
duration = [|0, 27, 22, 27, 21, 23, 25, 17, 28, 21, 21, 8, 46, 12, 25, 31, 22, 30, 23, 11, 22
            |27, 0, 21, 7, 29, 24, 46, 30, 1, 39, 25, 20, 43, 16, 29, 39, 22, 10, 11, 18, 10
            |22, 21, 0, 26, 9, 3, 28, 35, 20, 21, 5, 20, 26, 14, 8, 18, 34, 15, 26, 12, 25
            |27, 7, 26, 0, 33, 29, 48, 25, 8, 42, 30, 19, 50, 17, 34, 44, 16, 17, 5, 20, 5
            |21, 29, 9, 33, 0, 6, 20, 36, 28, 12, 4, 22, 26, 18, 5, 11, 38, 24, 32, 15, 31
            |23, 24, 3, 29, 6, 0, 26, 37, 23, 19, 3, 22, 24, 16, 5, 15, 36, 18, 29, 14, 28
            |25, 46, 28, 48, 20, 26, 0, 41, 46, 8, 23, 31, 39, 31, 24, 19, 47, 43, 46, 28, 45
            |17, 30, 35, 25, 36, 37, 41, 0, 31, 37, 35, 15, 61, 21, 40, 47, 11, 37, 20, 23, 20
            |28, 1, 20, 8, 28, 23, 46, 31, 0, 38, 25, 21, 42, 16, 28, 38, 23, 9, 12, 18, 12
            |21, 39, 21, 42, 12, 19, 8, 37, 38, 0, 16, 26, 33, 25, 16, 14, 42, 35, 40, 22, 39
            |21, 25, 5, 30, 4, 3, 23, 35, 25, 16, 0, 21, 26, 16, 5, 14, 36, 20, 29, 13, 28
            |8, 20, 20, 19, 22, 22, 31, 15, 21, 26, 21, 0, 46, 6, 26, 33, 16, 24, 15, 8, 14
            |46, 43, 26, 50, 26, 24, 39, 61, 42, 33, 26, 46, 0, 40, 21, 20, 60, 34, 51, 38, 50
            |12, 16, 14, 17, 18, 16, 31, 21, 16, 25, 16, 6, 40, 0, 21, 29, 20, 18, 15, 3, 14
            |25, 29, 8, 34, 5, 5, 24, 40, 28, 16, 5, 26, 21, 21, 0, 10, 41, 22, 34, 18, 33
            |31, 39, 18, 44, 11, 15, 19, 47, 38, 14, 14, 33, 20, 29, 10, 0, 49, 33, 43, 26, 42
            |22, 22, 34, 16, 38, 36, 47, 11, 23, 42, 36, 16, 60, 20, 41, 49, 0, 31, 11, 23, 12
            |30, 10, 15, 17, 24, 18, 43, 37, 9, 35, 20, 24, 34, 18, 22, 33, 31, 0, 20, 19, 19
            |23, 11, 26, 5, 32, 29, 46, 20, 12, 40, 29, 15, 51, 15, 34, 43, 11, 20, 0, 18, 1
            |11, 18, 12, 20, 15, 14, 28, 23, 18, 22, 13, 8, 38, 3, 18, 26, 23, 19, 18, 0, 17
            |22, 10, 25, 5, 31, 28, 45, 20, 12, 39, 28, 14, 50, 14, 33, 42, 12, 19, 1, 17, 0|];
early = [0, 226, 75, 57, 91, 93, 169, 0, 38, 123, 83, 0, 256, 34, 148, 120, 7, 76, 0, 0, 218];
late = [425, 347, 206, 177, 219, 215, 281, 90, 159, 235, 205, 71, 379, 149, 269, 234, 117, 192, 105, 70, 333];