% n20w140.001    37.90 293
n = 21;
duration = [|0, 35, 17, 38, 21, 9, 11, 26, 14, 29, 37, 13, 23, 12, 30, 31, 34, 14, 34, 24, 24
            |35, 0, 34, 26, 22, 31, 25, 32, 21, 34, 27, 23, 16, 35, 8, 36, 30, 31, 36, 13, 19
            |17, 34, 0, 26, 32, 9, 13, 40, 20, 13, 23, 15, 30, 5, 27, 14, 19, 4, 17, 21, 16
            |38, 26, 26, 0, 40, 30, 28, 51, 30, 16, 3, 28, 35, 30, 19, 17, 8, 26, 15, 19, 15
            |21, 22, 32, 40, 0, 24, 18, 11, 12, 39, 40, 17, 6, 29, 23, 42, 40, 27, 43, 21, 25
            |9, 31, 9, 30, 24, 0, 7, 32, 13, 20, 28, 9, 24, 5, 25, 22, 25, 5, 25, 19, 17
            |11, 25, 13, 28, 18, 7, 0, 27, 7, 22, 27, 2, 17, 11, 19, 24, 25, 9, 26, 13, 13
            |26, 32, 40, 51, 11, 32, 27, 0, 21, 49, 50, 26, 17, 36, 34, 51, 50, 36, 53, 31, 36
            |14, 21, 20, 30, 12, 13, 7, 21, 0, 28, 30, 5, 10, 18, 17, 30, 29, 16, 32, 12, 15
            |29, 34, 13, 16, 39, 20, 22, 49, 28, 0, 14, 23, 36, 18, 26, 2, 8, 15, 4, 22, 16
            |37, 27, 23, 3, 40, 28, 27, 50, 30, 14, 0, 26, 35, 28, 20, 14, 6, 24, 12, 19, 14
            |13, 23, 15, 28, 17, 9, 2, 26, 5, 23, 26, 0, 15, 14, 17, 25, 25, 11, 27, 11, 12
            |23, 16, 30, 35, 6, 24, 17, 17, 10, 36, 35, 15, 0, 28, 17, 38, 36, 26, 39, 16, 21
            |12, 35, 5, 30, 29, 5, 11, 36, 18, 18, 28, 14, 28, 0, 28, 20, 24, 4, 22, 22, 19
            |30, 8, 27, 19, 23, 25, 19, 34, 17, 26, 20, 17, 17, 28, 0, 28, 22, 24, 28, 6, 11
            |31, 36, 14, 17, 42, 22, 24, 51, 30, 2, 14, 25, 38, 20, 28, 0, 8, 17, 3, 24, 18
            |34, 30, 19, 8, 40, 25, 25, 50, 29, 8, 6, 25, 36, 24, 22, 8, 0, 20, 7, 20, 14
            |14, 31, 4, 26, 27, 5, 9, 36, 16, 15, 24, 11, 26, 4, 24, 17, 20, 0, 20, 18, 14
            |34, 36, 17, 15, 43, 25, 26, 53, 32, 4, 12, 27, 39, 22, 28, 3, 7, 20, 0, 25, 19
            |24, 13, 21, 19, 21, 19, 13, 31, 12, 22, 19, 11, 16, 22, 6, 24, 20, 18, 25, 0, 6
            |24, 19, 16, 15, 25, 17, 13, 36, 15, 16, 14, 12, 21, 19, 11, 18, 14, 14, 19, 6, 0|];