% n20w160.005    61.80 426
n = 21;
duration = [|0, 10, 25, 21, 2, 32, 43, 38, 23, 23, 28, 48, 40, 7, 20, 19, 21, 39, 37, 40, 31
            |10, 0, 35, 13, 8, 31, 50, 35, 19, 27, 26, 54, 39, 6, 29, 24, 12, 35, 37, 45, 26
            |25, 35, 0, 43, 28, 40, 29, 51, 39, 24, 40, 35, 48, 30, 7, 23, 44, 53, 43, 34, 48
            |21, 13, 43, 0, 20, 23, 50, 23, 10, 27, 17, 53, 30, 14, 36, 25, 4, 23, 29, 42, 13
            |2, 8, 28, 20, 0, 32, 45, 38, 22, 24, 28, 50, 41, 6, 22, 21, 19, 39, 37, 42, 30
            |32, 31, 40, 23, 32, 0, 33, 11, 13, 17, 5, 35, 9, 27, 34, 18, 27, 14, 6, 22, 14
            |43, 50, 29, 50, 45, 33, 0, 43, 41, 23, 36, 6, 35, 44, 27, 25, 53, 46, 30, 12, 46
            |38, 35, 51, 23, 38, 11, 43, 0, 16, 28, 11, 44, 10, 33, 44, 28, 27, 3, 14, 32, 10
            |23, 19, 39, 10, 22, 13, 41, 16, 0, 19, 7, 44, 20, 17, 32, 18, 14, 16, 19, 32, 9
            |23, 27, 24, 27, 24, 17, 23, 28, 19, 0, 17, 27, 24, 22, 17, 3, 30, 30, 19, 18, 27
            |28, 26, 40, 17, 28, 5, 36, 11, 7, 17, 0, 38, 13, 23, 33, 17, 22, 13, 12, 26, 10
            |48, 54, 35, 53, 50, 35, 6, 44, 44, 27, 38, 0, 35, 49, 33, 30, 57, 48, 31, 13, 49
            |40, 39, 48, 30, 41, 9, 35, 10, 20, 24, 13, 35, 0, 36, 41, 25, 34, 13, 5, 23, 18
            |7, 6, 30, 14, 6, 27, 44, 33, 17, 22, 23, 49, 36, 0, 24, 19, 14, 33, 33, 39, 25
            |20, 29, 7, 36, 22, 34, 27, 44, 32, 17, 33, 33, 41, 24, 0, 16, 37, 46, 36, 30, 41
            |19, 24, 23, 25, 21, 18, 25, 28, 18, 3, 17, 30, 25, 19, 16, 0, 28, 30, 21, 21, 26
            |21, 12, 44, 4, 19, 27, 53, 27, 14, 30, 22, 57, 34, 14, 37, 28, 0, 26, 33, 45, 17
            |39, 35, 53, 23, 39, 14, 46, 3, 16, 30, 13, 48, 13, 33, 46, 30, 26, 0, 17, 35, 9
            |37, 37, 43, 29, 37, 6, 30, 14, 19, 19, 12, 31, 5, 33, 36, 21, 33, 17, 0, 18, 20
            |40, 45, 34, 42, 42, 22, 12, 32, 32, 18, 26, 13, 23, 39, 30, 21, 45, 35, 18, 0, 36
            |31, 26, 48, 13, 30, 14, 46, 10, 9, 27, 10, 49, 18, 25, 41, 26, 17, 9, 20, 36, 0|];