% n20w140.002    32.75 358
n = 21;
duration = [|0, 38, 29, 22, 21, 34, 17, 47, 5, 29, 6, 30, 48, 44, 30, 13, 16, 17, 21, 23, 32
            |38, 0, 24, 36, 17, 15, 35, 10, 35, 39, 37, 24, 12, 12, 21, 26, 23, 25, 26, 37, 9
            |29, 24, 0, 14, 20, 33, 16, 29, 29, 15, 32, 38, 26, 21, 4, 24, 16, 28, 8, 43, 15
            |22, 36, 14, 0, 26, 41, 5, 42, 25, 7, 27, 43, 40, 35, 18, 25, 18, 30, 10, 43, 27
            |21, 17, 20, 26, 0, 16, 22, 27, 18, 31, 20, 18, 28, 25, 19, 8, 8, 9, 16, 24, 13
            |34, 15, 33, 41, 16, 0, 38, 24, 30, 46, 31, 10, 27, 27, 30, 21, 24, 17, 31, 25, 20
            |17, 35, 16, 5, 22, 38, 0, 42, 20, 12, 22, 39, 40, 36, 19, 21, 14, 25, 9, 38, 26
            |47, 10, 29, 42, 27, 24, 42, 0, 45, 44, 47, 33, 5, 9, 25, 35, 32, 35, 33, 47, 16
            |5, 35, 29, 25, 18, 30, 20, 45, 0, 33, 2, 25, 45, 42, 30, 9, 14, 12, 22, 18, 30
            |29, 39, 15, 7, 31, 46, 12, 44, 33, 0, 34, 49, 41, 36, 19, 32, 24, 36, 15, 50, 30
            |6, 37, 32, 27, 20, 31, 22, 47, 2, 34, 0, 26, 47, 44, 33, 11, 17, 14, 24, 18, 32
            |30, 24, 38, 43, 18, 10, 39, 33, 25, 49, 26, 0, 36, 36, 36, 19, 25, 14, 34, 16, 27
            |48, 12, 26, 40, 28, 27, 40, 5, 45, 41, 47, 36, 0, 5, 22, 36, 32, 36, 31, 49, 16
            |44, 12, 21, 35, 25, 27, 36, 9, 42, 36, 44, 36, 5, 0, 17, 33, 28, 34, 26, 48, 12
            |30, 21, 4, 18, 19, 30, 19, 25, 30, 19, 33, 36, 22, 17, 0, 24, 16, 27, 10, 42, 12
            |13, 26, 24, 25, 8, 21, 21, 35, 9, 32, 11, 19, 36, 33, 24, 0, 8, 5, 18, 19, 21
            |16, 23, 16, 18, 8, 24, 14, 32, 14, 24, 17, 25, 32, 28, 16, 8, 0, 13, 10, 27, 16
            |17, 25, 28, 30, 9, 17, 25, 35, 12, 36, 14, 14, 36, 34, 27, 5, 13, 0, 22, 15, 22
            |21, 26, 8, 10, 16, 31, 9, 33, 22, 15, 24, 34, 31, 26, 10, 18, 10, 22, 0, 37, 17
            |23, 37, 43, 43, 24, 25, 38, 47, 18, 50, 18, 16, 49, 48, 42, 19, 27, 15, 37, 0, 36
            |32, 9, 15, 27, 13, 20, 26, 16, 30, 30, 32, 27, 16, 12, 12, 21, 16, 22, 17, 36, 0|];
early = [0, 45, 153, 281, 0, 79, 4, 52, 117, 202, 0, 122, 212, 25, 15, 0, 0, 0, 17, 94, 251];
late = [436, 173, 310, 414, 99, 202, 139, 183, 262, 317, 59, 258, 350, 179, 139, 91, 105, 116, 136, 213, 381];