% n20w200.004    98.15 441
n = 21;
duration = [|0, 47, 25, 10, 37, 42, 9, 43, 30, 37, 15, 28, 37, 6, 21, 41, 39, 14, 22, 45, 5
            |47, 0, 24, 42, 18, 28, 45, 17, 39, 49, 31, 19, 15, 50, 28, 35, 8, 37, 44, 16, 42
            |25, 24, 0, 18, 13, 21, 26, 28, 33, 44, 10, 6, 12, 26, 14, 37, 18, 21, 32, 29, 20
            |10, 42, 18, 0, 29, 33, 18, 42, 36, 45, 12, 23, 30, 9, 21, 45, 35, 18, 30, 43, 6
            |37, 18, 13, 29, 0, 11, 39, 30, 43, 54, 23, 13, 4, 38, 25, 44, 17, 33, 44, 30, 32
            |42, 28, 21, 33, 11, 0, 46, 41, 53, 64, 30, 23, 15, 42, 35, 55, 28, 42, 53, 41, 37
            |9, 45, 26, 18, 39, 46, 0, 38, 22, 28, 16, 28, 38, 15, 17, 34, 37, 8, 13, 40, 11
            |43, 17, 28, 42, 30, 41, 38, 0, 25, 34, 30, 22, 26, 48, 23, 18, 13, 30, 33, 2, 40
            |30, 39, 33, 36, 43, 53, 22, 25, 0, 11, 26, 30, 40, 36, 19, 13, 31, 17, 10, 27, 30
            |37, 49, 44, 45, 54, 64, 28, 34, 11, 0, 37, 41, 51, 43, 30, 17, 42, 26, 15, 36, 39
            |15, 31, 10, 12, 23, 30, 16, 30, 26, 37, 0, 13, 22, 18, 9, 34, 24, 11, 23, 31, 11
            |28, 19, 6, 23, 13, 23, 28, 22, 30, 41, 13, 0, 10, 31, 13, 33, 12, 21, 31, 22, 24
            |37, 15, 12, 30, 4, 15, 38, 26, 40, 51, 22, 10, 0, 39, 23, 41, 13, 31, 41, 26, 32
            |6, 50, 26, 9, 38, 42, 15, 48, 36, 43, 18, 31, 39, 0, 25, 47, 43, 20, 28, 49, 8
            |21, 28, 14, 21, 25, 35, 17, 23, 19, 30, 9, 13, 23, 25, 0, 25, 20, 9, 18, 24, 17
            |41, 35, 37, 45, 44, 55, 34, 18, 13, 17, 34, 33, 41, 47, 25, 0, 29, 28, 23, 20, 40
            |39, 8, 18, 35, 17, 28, 37, 13, 31, 42, 24, 12, 13, 43, 20, 29, 0, 29, 36, 12, 35
            |14, 37, 21, 18, 33, 42, 8, 30, 17, 26, 11, 21, 31, 20, 9, 28, 29, 0, 12, 32, 13
            |22, 44, 32, 30, 44, 53, 13, 33, 10, 15, 23, 31, 41, 28, 18, 23, 36, 12, 0, 35, 23
            |45, 16, 29, 43, 30, 41, 40, 2, 27, 36, 31, 22, 26, 49, 24, 20, 12, 32, 35, 0, 41
            |5, 42, 20, 6, 32, 37, 11, 40, 30, 39, 11, 24, 32, 8, 17, 40, 35, 13, 23, 41, 0|];
early = [0, 52, 0, 109, 106, 208, 0, 206, 117, 270, 0, 0, 0, 0, 0, 124, 60, 0, 0, 31, 237];
late = [518, 286, 205, 290, 317, 404, 124, 358, 292, 481, 168, 199, 179, 96, 183, 321, 252, 188, 148, 215, 446];