% n20w140.004    38.45 404
n = 21;
duration = [|0, 31, 48, 30, 23, 23, 28, 26, 28, 52, 26, 20, 43, 8, 40, 27, 12, 20, 33, 31, 4
            |31, 0, 38, 39, 8, 8, 17, 18, 36, 45, 10, 28, 47, 33, 49, 38, 21, 15, 8, 34, 30
            |48, 38, 0, 24, 36, 41, 23, 24, 24, 7, 31, 28, 19, 54, 26, 27, 47, 31, 31, 19, 44
            |30, 39, 24, 0, 33, 37, 23, 22, 3, 26, 30, 13, 13, 38, 10, 4, 36, 25, 35, 7, 27
            |23, 8, 36, 33, 0, 5, 13, 13, 30, 43, 6, 21, 42, 26, 43, 31, 15, 8, 10, 28, 22
            |23, 8, 41, 37, 5, 0, 18, 18, 34, 48, 11, 25, 47, 25, 47, 35, 13, 12, 14, 33, 23
            |28, 17, 23, 23, 13, 18, 0, 2, 20, 30, 8, 14, 30, 34, 32, 22, 25, 8, 12, 17, 25
            |26, 18, 24, 22, 13, 18, 2, 0, 19, 30, 8, 12, 29, 32, 31, 21, 23, 7, 13, 16, 23
            |28, 36, 24, 3, 30, 34, 20, 19, 0, 26, 26, 10, 15, 36, 13, 3, 33, 22, 32, 5, 25
            |52, 45, 7, 26, 43, 48, 30, 30, 26, 0, 37, 33, 17, 60, 25, 29, 53, 38, 38, 22, 49
            |26, 10, 31, 30, 6, 11, 8, 8, 26, 37, 0, 18, 38, 30, 39, 28, 20, 6, 7, 24, 24
            |20, 28, 28, 13, 21, 25, 14, 12, 10, 33, 18, 0, 25, 27, 23, 10, 23, 13, 25, 11, 16
            |43, 47, 19, 13, 42, 47, 30, 29, 15, 17, 38, 25, 0, 51, 8, 17, 48, 35, 41, 14, 40
            |8, 33, 54, 38, 26, 25, 34, 32, 36, 60, 30, 27, 51, 0, 47, 35, 12, 25, 37, 38, 11
            |40, 49, 26, 10, 43, 47, 32, 31, 13, 25, 39, 23, 8, 47, 0, 13, 46, 35, 44, 15, 36
            |27, 38, 27, 4, 31, 35, 22, 21, 3, 29, 28, 10, 17, 35, 13, 0, 33, 23, 34, 8, 23
            |12, 21, 47, 36, 15, 13, 25, 23, 33, 53, 20, 23, 48, 12, 46, 33, 0, 16, 25, 34, 13
            |20, 15, 31, 25, 8, 12, 8, 7, 22, 38, 6, 13, 35, 25, 35, 23, 16, 0, 14, 21, 18
            |33, 8, 31, 35, 10, 14, 12, 13, 32, 38, 7, 25, 41, 37, 44, 34, 25, 14, 0, 29, 31
            |31, 34, 19, 7, 28, 33, 17, 16, 5, 22, 24, 11, 14, 38, 15, 8, 34, 21, 29, 0, 27
            |4, 30, 44, 27, 22, 23, 25, 23, 25, 49, 24, 16, 40, 11, 36, 23, 13, 18, 31, 27, 0|];