% n20w180.002    81.70 415
n = 21;
duration = [|0, 10, 26, 32, 32, 25, 15, 44, 14, 13, 32, 40, 15, 11, 24, 11, 7, 22, 10, 33, 38
            |10, 0, 34, 38, 23, 32, 25, 37, 15, 17, 33, 34, 5, 12, 24, 13, 3, 31, 1, 25, 31
            |26, 34, 0, 8, 46, 2, 27, 50, 40, 36, 22, 48, 38, 37, 22, 21, 32, 6, 34, 47, 45
            |32, 38, 8, 0, 46, 7, 34, 48, 46, 43, 17, 45, 41, 43, 20, 24, 36, 14, 38, 47, 43
            |32, 23, 46, 46, 0, 44, 47, 16, 37, 40, 33, 13, 19, 35, 26, 27, 26, 46, 24, 1, 11
            |25, 32, 2, 7, 44, 0, 27, 48, 39, 36, 20, 45, 36, 36, 20, 20, 31, 7, 33, 45, 43
            |15, 25, 27, 34, 47, 27, 0, 59, 20, 14, 41, 55, 30, 18, 35, 24, 22, 21, 24, 49, 52
            |44, 37, 50, 48, 16, 48, 59, 0, 51, 54, 31, 4, 34, 49, 28, 36, 40, 52, 38, 15, 6
            |14, 15, 40, 46, 37, 39, 20, 51, 0, 6, 46, 48, 17, 3, 37, 25, 13, 35, 14, 38, 45
            |13, 17, 36, 43, 40, 36, 14, 54, 6, 0, 45, 51, 21, 6, 37, 24, 15, 31, 16, 42, 48
            |32, 33, 22, 17, 33, 20, 41, 31, 46, 45, 0, 29, 34, 43, 9, 21, 33, 26, 34, 33, 27
            |40, 34, 48, 45, 13, 45, 55, 4, 48, 51, 29, 0, 30, 46, 26, 32, 36, 49, 34, 12, 3
            |15, 5, 38, 41, 19, 36, 30, 34, 17, 21, 34, 30, 0, 16, 26, 17, 8, 35, 5, 21, 28
            |11, 12, 37, 43, 35, 36, 18, 49, 3, 6, 43, 46, 16, 0, 34, 21, 10, 33, 11, 36, 43
            |24, 24, 22, 20, 26, 20, 35, 28, 37, 37, 9, 26, 26, 34, 0, 13, 25, 24, 25, 27, 23
            |11, 13, 21, 24, 27, 20, 24, 36, 25, 24, 21, 32, 17, 21, 13, 0, 13, 20, 14, 28, 29
            |7, 3, 32, 36, 26, 31, 22, 40, 13, 15, 33, 36, 8, 10, 25, 13, 0, 29, 3, 28, 33
            |22, 31, 6, 14, 46, 7, 21, 52, 35, 31, 26, 49, 35, 33, 24, 20, 29, 0, 31, 47, 47
            |10, 1, 34, 38, 24, 33, 24, 38, 14, 16, 34, 34, 5, 11, 25, 14, 3, 31, 0, 25, 32
            |33, 25, 47, 47, 1, 45, 49, 15, 38, 42, 33, 12, 21, 36, 27, 28, 28, 47, 25, 0, 10
            |38, 31, 45, 43, 11, 43, 52, 6, 45, 48, 27, 3, 28, 43, 23, 29, 33, 47, 32, 10, 0|];
early = [0, 0, 295, 0, 45, 31, 0, 156, 225, 0, 0, 109, 0, 0, 98, 4, 0, 17, 89, 83, 277];
late = [494, 65, 456, 198, 268, 196, 144, 373, 405, 149, 232, 267, 85, 107, 341, 242, 63, 183, 250, 266, 456];