% n20w160.003    47.30 387
n = 21;
duration = [|0, 49, 54, 37, 47, 30, 34, 20, 43, 38, 4, 9, 37, 42, 3, 29, 32, 43, 44, 27, 37
            |49, 0, 5, 13, 3, 19, 31, 29, 25, 29, 49, 44, 43, 16, 47, 25, 34, 19, 20, 38, 13
            |54, 5, 0, 18, 8, 24, 36, 35, 26, 31, 55, 49, 46, 18, 52, 29, 39, 21, 21, 44, 18
            |37, 13, 18, 0, 10, 9, 21, 17, 24, 26, 37, 31, 38, 16, 35, 17, 24, 20, 21, 27, 8
            |47, 3, 8, 10, 0, 17, 28, 27, 25, 29, 47, 41, 43, 17, 45, 24, 31, 20, 21, 35, 12
            |30, 19, 24, 9, 17, 0, 25, 12, 19, 19, 31, 26, 30, 14, 29, 9, 27, 16, 17, 28, 7
            |34, 31, 36, 21, 28, 25, 0, 19, 44, 44, 31, 25, 53, 37, 31, 33, 3, 40, 41, 9, 28
            |20, 29, 35, 17, 27, 12, 19, 0, 30, 28, 20, 14, 34, 26, 18, 16, 20, 28, 29, 18, 19
            |43, 25, 26, 24, 25, 19, 44, 30, 0, 6, 45, 42, 20, 9, 42, 14, 46, 5, 5, 47, 16
            |38, 29, 31, 26, 29, 19, 44, 28, 6, 0, 41, 38, 14, 13, 38, 12, 45, 10, 11, 46, 18
            |4, 49, 55, 37, 47, 31, 31, 20, 45, 41, 0, 7, 40, 44, 3, 32, 30, 45, 46, 24, 38
            |9, 44, 49, 31, 41, 26, 25, 14, 42, 38, 7, 0, 40, 40, 6, 28, 23, 41, 42, 18, 33
            |37, 43, 46, 38, 43, 30, 53, 34, 20, 14, 40, 40, 0, 27, 38, 21, 54, 25, 25, 52, 31
            |42, 16, 18, 16, 17, 14, 37, 26, 9, 13, 44, 40, 27, 0, 41, 13, 39, 4, 4, 41, 9
            |3, 47, 52, 35, 45, 29, 31, 18, 42, 38, 3, 6, 38, 41, 0, 29, 29, 42, 43, 24, 35
            |29, 25, 29, 17, 24, 9, 33, 16, 14, 12, 32, 28, 21, 13, 29, 0, 34, 14, 15, 34, 11
            |32, 34, 39, 24, 31, 27, 3, 20, 46, 45, 30, 23, 54, 39, 29, 34, 0, 42, 43, 6, 30
            |43, 19, 21, 20, 20, 16, 40, 28, 5, 10, 45, 41, 25, 4, 42, 14, 42, 0, 1, 44, 12
            |44, 20, 21, 21, 21, 17, 41, 29, 5, 11, 46, 42, 25, 4, 43, 15, 43, 1, 0, 45, 13
            |27, 38, 44, 27, 35, 28, 9, 18, 47, 46, 24, 18, 52, 41, 24, 34, 6, 44, 45, 0, 33
            |37, 13, 18, 8, 12, 7, 28, 19, 16, 18, 38, 33, 31, 9, 35, 11, 30, 12, 13, 33, 0|];