% n20w180.001    71.85 408
n = 21;
duration = [|0, 33, 23, 2, 24, 23, 25, 39, 25, 24, 29, 30, 12, 17, 33, 23, 31, 35, 16, 11, 16
            |33, 0, 16, 33, 50, 10, 44, 30, 50, 49, 7, 4, 22, 48, 12, 14, 35, 13, 21, 44, 48
            |23, 16, 0, 22, 45, 13, 42, 40, 45, 45, 17, 17, 16, 35, 25, 2, 39, 12, 20, 34, 35
            |2, 33, 22, 0, 25, 24, 26, 41, 26, 26, 29, 31, 13, 16, 34, 23, 33, 34, 17, 11, 15
            |24, 50, 45, 25, 0, 40, 10, 40, 2, 3, 44, 46, 29, 28, 44, 44, 27, 56, 29, 18, 26
            |23, 10, 13, 24, 40, 0, 34, 27, 40, 39, 6, 7, 12, 39, 12, 11, 28, 18, 11, 34, 39
            |25, 44, 42, 26, 10, 34, 0, 30, 9, 8, 37, 40, 26, 34, 36, 41, 17, 52, 23, 24, 32
            |39, 30, 40, 41, 40, 27, 30, 0, 38, 37, 24, 27, 30, 55, 18, 38, 13, 43, 25, 46, 54
            |25, 50, 45, 26, 2, 40, 9, 38, 0, 1, 43, 46, 29, 30, 44, 45, 25, 56, 29, 20, 28
            |24, 49, 45, 26, 3, 39, 8, 37, 1, 0, 42, 45, 29, 30, 43, 44, 24, 55, 28, 20, 28
            |29, 7, 17, 29, 44, 6, 37, 24, 43, 42, 0, 3, 17, 45, 7, 15, 28, 19, 15, 39, 44
            |30, 4, 17, 31, 46, 7, 40, 27, 46, 45, 3, 0, 19, 46, 9, 14, 31, 16, 17, 41, 46
            |12, 22, 16, 13, 29, 12, 26, 30, 29, 29, 17, 19, 0, 28, 21, 16, 25, 27, 5, 22, 27
            |17, 48, 35, 16, 28, 39, 34, 55, 30, 30, 45, 46, 28, 0, 50, 36, 45, 47, 32, 10, 2
            |33, 12, 25, 34, 44, 12, 36, 18, 44, 43, 7, 9, 21, 50, 0, 22, 24, 25, 18, 43, 49
            |23, 14, 2, 23, 44, 11, 41, 38, 45, 44, 15, 14, 16, 36, 22, 0, 38, 12, 18, 34, 36
            |31, 35, 39, 33, 27, 28, 17, 13, 25, 24, 28, 31, 25, 45, 24, 38, 0, 46, 20, 36, 44
            |35, 13, 12, 34, 56, 18, 52, 43, 56, 55, 19, 16, 27, 47, 25, 12, 46, 0, 28, 46, 47
            |16, 21, 20, 17, 29, 11, 23, 25, 29, 28, 15, 17, 5, 32, 18, 18, 20, 28, 0, 25, 31
            |11, 44, 34, 11, 18, 34, 24, 46, 20, 20, 39, 41, 22, 10, 43, 34, 36, 46, 25, 0, 9
            |16, 48, 35, 15, 26, 39, 32, 54, 28, 28, 44, 46, 27, 2, 49, 36, 44, 47, 31, 9, 0|];