% n20w200.002    98.95 341
n = 21;
duration = [|0, 27, 22, 27, 35, 30, 29, 27, 18, 16, 9, 23, 18, 35, 11, 19, 21, 20, 8, 31, 10
            |27, 0, 28, 16, 15, 24, 9, 27, 9, 39, 17, 23, 28, 27, 23, 9, 23, 26, 18, 16, 30
            |22, 28, 0, 39, 26, 13, 36, 45, 21, 37, 22, 6, 4, 50, 30, 19, 5, 2, 22, 19, 14
            |27, 16, 39, 0, 31, 38, 9, 13, 18, 33, 19, 35, 38, 11, 18, 21, 34, 37, 20, 32, 35
            |35, 15, 26, 31, 0, 16, 23, 42, 19, 50, 28, 20, 29, 41, 36, 16, 21, 25, 28, 7, 34
            |30, 24, 13, 38, 16, 0, 32, 47, 21, 46, 26, 8, 16, 49, 35, 18, 10, 13, 26, 9, 25
            |29, 9, 36, 9, 23, 32, 0, 21, 15, 38, 20, 31, 35, 18, 22, 16, 31, 34, 21, 25, 35
            |27, 27, 45, 13, 42, 47, 21, 0, 26, 26, 23, 42, 42, 11, 16, 29, 41, 42, 23, 42, 37
            |18, 9, 21, 18, 19, 21, 15, 26, 0, 32, 9, 17, 21, 29, 17, 3, 16, 19, 10, 16, 21
            |16, 39, 37, 33, 50, 46, 38, 26, 32, 0, 23, 39, 33, 37, 16, 34, 37, 36, 22, 46, 24
            |9, 17, 22, 19, 28, 26, 20, 23, 9, 23, 0, 20, 19, 29, 9, 11, 18, 20, 1, 24, 16
            |23, 23, 6, 35, 20, 8, 31, 42, 17, 39, 20, 0, 9, 46, 29, 15, 2, 5, 20, 13, 17
            |18, 28, 4, 38, 29, 16, 35, 42, 21, 33, 19, 9, 0, 48, 27, 19, 7, 4, 19, 22, 9
            |35, 27, 50, 11, 41, 49, 18, 11, 29, 37, 29, 46, 48, 0, 25, 32, 45, 48, 30, 43, 44
            |11, 23, 30, 18, 36, 35, 22, 16, 17, 16, 9, 29, 27, 25, 0, 20, 27, 28, 9, 33, 21
            |19, 9, 19, 21, 16, 18, 16, 29, 3, 34, 11, 15, 19, 32, 20, 0, 14, 17, 12, 13, 21
            |21, 23, 5, 34, 21, 10, 31, 41, 16, 37, 18, 2, 7, 45, 27, 14, 0, 4, 18, 15, 15
            |20, 26, 2, 37, 25, 13, 34, 42, 19, 36, 20, 5, 4, 48, 28, 17, 4, 0, 19, 18, 13
            |8, 18, 22, 20, 28, 26, 21, 23, 10, 22, 1, 20, 19, 30, 9, 12, 18, 19, 0, 25, 15
            |31, 16, 19, 32, 7, 9, 25, 42, 16, 46, 24, 13, 22, 43, 33, 13, 15, 18, 25, 0, 28
            |10, 30, 14, 35, 34, 25, 35, 37, 21, 24, 16, 17, 9, 44, 21, 21, 15, 13, 15, 28, 0|];
early = [0, 0, 36, 94, 0, 3, 197, 61, 0, 134, 0, 0, 0, 79, 36, 0, 0, 18, 176, 0, 172];
late = [396, 112, 256, 310, 252, 159, 367, 296, 163, 352, 112, 222, 210, 291, 221, 135, 145, 188, 329, 198, 345];