% n40w200.001    99.70 501
n = 41;
duration = [|0, 6, 32, 27, 27, 15, 23, 33, 38, 49, 43, 45, 29, 30, 35, 26, 13, 9, 9, 30, 19, 25, 43, 14, 34, 28, 7, 5, 21, 19, 25, 26, 18, 26, 12, 45, 32, 35, 17, 42, 40
            |6, 0, 38, 30, 26, 10, 22, 38, 44, 53, 44, 48, 29, 36, 41, 27, 7, 14, 14, 36, 24, 30, 48, 10, 37, 30, 1, 11, 17, 24, 26, 31, 24, 32, 8, 46, 34, 38, 19, 44, 42
            |32, 38, 0, 27, 44, 44, 43, 6, 11, 35, 47, 37, 42, 6, 5, 34, 45, 24, 24, 8, 18, 19, 18, 42, 30, 33, 39, 27, 45, 20, 38, 11, 14, 6, 40, 50, 34, 32, 31, 42, 36
            |27, 30, 27, 0, 19, 30, 20, 23, 24, 23, 20, 18, 15, 31, 26, 8, 35, 21, 21, 20, 12, 9, 25, 27, 7, 5, 31, 25, 25, 11, 12, 16, 21, 23, 26, 23, 7, 8, 11, 17, 13
            |27, 26, 44, 19, 0, 19, 4, 41, 43, 38, 21, 31, 6, 46, 44, 11, 27, 27, 27, 38, 26, 26, 44, 17, 23, 15, 26, 29, 10, 24, 7, 33, 34, 38, 18, 22, 17, 22, 14, 22, 25
            |15, 10, 44, 30, 19, 0, 15, 44, 48, 52, 39, 46, 24, 44, 46, 25, 8, 21, 21, 41, 28, 32, 52, 3, 36, 28, 10, 19, 9, 27, 22, 36, 31, 38, 4, 41, 32, 36, 18, 40, 40
            |23, 22, 43, 20, 4, 15, 0, 40, 43, 41, 24, 33, 9, 45, 43, 13, 23, 24, 24, 37, 25, 26, 45, 13, 25, 16, 23, 25, 7, 23, 9, 32, 32, 37, 14, 26, 19, 24, 12, 26, 28
            |33, 38, 6, 23, 41, 44, 40, 0, 6, 29, 41, 31, 38, 12, 3, 30, 46, 24, 24, 3, 16, 15, 13, 41, 25, 28, 40, 28, 43, 17, 34, 8, 15, 7, 40, 44, 29, 26, 28, 37, 30
            |38, 44, 11, 24, 43, 48, 43, 6, 0, 25, 41, 28, 39, 17, 6, 32, 51, 29, 29, 8, 20, 17, 7, 46, 25, 30, 45, 33, 47, 21, 36, 13, 21, 13, 44, 44, 30, 26, 31, 36, 29
            |49, 53, 35, 23, 38, 52, 41, 29, 25, 0, 24, 8, 33, 41, 31, 28, 58, 42, 42, 28, 31, 25, 20, 50, 16, 25, 54, 46, 47, 30, 32, 29, 38, 34, 49, 26, 21, 16, 34, 19, 13
            |43, 44, 47, 20, 21, 39, 24, 41, 41, 24, 0, 16, 16, 51, 44, 17, 47, 40, 40, 39, 32, 28, 39, 37, 16, 16, 45, 43, 31, 31, 18, 36, 42, 43, 37, 3, 13, 15, 26, 5, 13
            |45, 48, 37, 18, 31, 46, 33, 31, 28, 8, 16, 0, 25, 42, 33, 21, 52, 38, 38, 29, 28, 22, 24, 43, 10, 18, 49, 43, 40, 27, 25, 28, 36, 34, 43, 18, 14, 10, 29, 11, 6
            |29, 29, 42, 15, 6, 24, 9, 38, 39, 33, 16, 25, 0, 44, 41, 7, 31, 27, 27, 35, 24, 23, 40, 21, 18, 10, 30, 30, 16, 22, 4, 30, 33, 36, 22, 17, 12, 17, 14, 17, 19
            |30, 36, 6, 31, 46, 44, 45, 12, 17, 41, 51, 42, 44, 0, 11, 37, 44, 23, 23, 13, 21, 23, 24, 42, 35, 36, 38, 25, 46, 22, 40, 15, 13, 8, 40, 54, 38, 36, 32, 47, 40
            |35, 41, 5, 26, 44, 46, 43, 3, 6, 31, 44, 33, 41, 11, 0, 34, 48, 26, 26, 6, 19, 18, 13, 44, 28, 31, 42, 30, 46, 20, 37, 11, 17, 9, 42, 47, 32, 29, 31, 40, 33
            |26, 27, 34, 8, 11, 25, 13, 30, 32, 28, 17, 21, 7, 37, 34, 0, 31, 22, 22, 28, 17, 16, 33, 22, 12, 4, 29, 26, 18, 16, 4, 23, 26, 29, 22, 20, 7, 12, 9, 16, 16
            |13, 7, 45, 35, 27, 8, 23, 46, 51, 58, 47, 52, 31, 44, 48, 31, 0, 22, 22, 43, 31, 36, 55, 10, 42, 34, 6, 18, 17, 31, 29, 38, 32, 40, 9, 49, 38, 43, 24, 47, 47
            |9, 14, 24, 21, 27, 21, 24, 24, 29, 42, 40, 38, 27, 23, 26, 22, 22, 0, 0, 22, 11, 17, 35, 19, 28, 24, 16, 4, 24, 12, 23, 17, 10, 18, 17, 42, 27, 29, 14, 37, 34
            |9, 14, 24, 21, 27, 21, 24, 24, 29, 42, 40, 38, 27, 23, 26, 22, 22, 0, 0, 22, 11, 17, 35, 19, 28, 24, 16, 4, 24, 12, 23, 17, 10, 18, 17, 42, 27, 29, 14, 37, 34
            |30, 36, 8, 20, 38, 41, 37, 3, 8, 28, 39, 29, 35, 13, 6, 28, 43, 22, 22, 0, 13, 12, 14, 38, 23, 25, 37, 26, 40, 14, 31, 5, 13, 6, 37, 42, 27, 24, 25, 35, 28
            |19, 24, 18, 12, 26, 28, 25, 16, 20, 31, 32, 28, 24, 21, 19, 17, 31, 11, 11, 13, 0, 6, 24, 25, 18, 16, 25, 16, 27, 1, 20, 8, 9, 13, 24, 35, 19, 19, 12, 29, 24
            |25, 30, 19, 9, 26, 32, 26, 15, 17, 25, 28, 22, 23, 23, 18, 16, 36, 17, 17, 12, 6, 0, 20, 30, 13, 14, 31, 22, 30, 6, 19, 8, 14, 14, 28, 31, 16, 14, 15, 25, 19
            |43, 48, 18, 25, 44, 52, 45, 13, 7, 20, 39, 24, 40, 24, 13, 33, 55, 35, 35, 14, 24, 20, 0, 49, 23, 30, 50, 39, 49, 25, 37, 18, 27, 20, 48, 41, 29, 25, 34, 34, 26
            |14, 10, 42, 27, 17, 3, 13, 41, 46, 50, 37, 43, 21, 42, 44, 22, 10, 19, 19, 38, 25, 30, 49, 0, 33, 25, 10, 18, 8, 25, 19, 33, 29, 36, 2, 38, 29, 34, 16, 37, 38
            |34, 37, 30, 7, 23, 36, 25, 25, 25, 16, 16, 10, 18, 35, 28, 12, 42, 28, 28, 23, 18, 13, 23, 33, 0, 9, 38, 32, 31, 17, 16, 20, 27, 27, 33, 19, 6, 1, 18, 12, 6
            |28, 30, 33, 5, 15, 28, 16, 28, 30, 25, 16, 18, 10, 36, 31, 4, 34, 24, 24, 25, 16, 14, 30, 25, 9, 0, 31, 27, 22, 15, 8, 22, 26, 28, 25, 19, 4, 8, 11, 14, 13
            |7, 1, 39, 31, 26, 10, 23, 40, 45, 54, 45, 49, 30, 38, 42, 29, 6, 16, 16, 37, 25, 31, 50, 10, 38, 31, 0, 12, 18, 25, 27, 32, 26, 34, 9, 47, 35, 39, 20, 45, 44
            |5, 11, 27, 25, 29, 19, 25, 28, 33, 46, 43, 43, 30, 25, 30, 26, 18, 4, 4, 26, 16, 22, 39, 18, 32, 27, 12, 0, 24, 16, 26, 21, 13, 21, 16, 45, 31, 33, 17, 41, 38
            |21, 17, 45, 25, 10, 9, 7, 43, 47, 47, 31, 40, 16, 46, 46, 18, 17, 24, 24, 40, 27, 30, 49, 8, 31, 22, 18, 24, 0, 26, 15, 35, 33, 39, 9, 32, 25, 30, 15, 32, 34
            |19, 24, 20, 11, 24, 27, 23, 17, 21, 30, 31, 27, 22, 22, 20, 16, 31, 12, 12, 14, 1, 6, 25, 25, 17, 15, 25, 16, 26, 0, 18, 9, 11, 14, 23, 34, 18, 18, 11, 28, 23
            |25, 26, 38, 12, 7, 22, 9, 34, 36, 32, 18, 25, 4, 40, 37, 4, 29, 23, 23, 31, 20, 19, 37, 19, 16, 8, 27, 26, 15, 18, 0, 27, 28, 32, 20, 20, 11, 16, 9, 18, 19
            |26, 31, 11, 16, 33, 36, 32, 8, 13, 29, 36, 28, 30, 15, 11, 23, 38, 17, 17, 5, 8, 8, 18, 33, 20, 22, 32, 21, 35, 9, 27, 0, 9, 6, 32, 39, 23, 22, 20, 32, 26
            |18, 24, 14, 21, 34, 31, 32, 15, 21, 38, 42, 36, 33, 13, 17, 26, 32, 10, 10, 13, 9, 14, 27, 29, 27, 26, 26, 13, 33, 11, 28, 9, 0, 8, 27, 44, 29, 28, 20, 38, 33
            |26, 32, 6, 23, 38, 38, 37, 7, 13, 34, 43, 34, 36, 8, 9, 29, 40, 18, 18, 6, 13, 14, 20, 36, 27, 28, 34, 21, 39, 14, 32, 6, 8, 0, 34, 45, 30, 28, 25, 39, 32
            |12, 8, 40, 26, 18, 4, 14, 40, 44, 49, 37, 43, 22, 40, 42, 22, 9, 17, 17, 37, 24, 28, 48, 2, 33, 25, 9, 16, 9, 23, 20, 32, 27, 34, 0, 39, 29, 33, 15, 38, 38
            |45, 46, 50, 23, 22, 41, 26, 44, 44, 26, 3, 18, 17, 54, 47, 20, 49, 42, 42, 42, 35, 31, 41, 38, 19, 19, 47, 45, 32, 34, 20, 39, 44, 45, 39, 0, 16, 18, 29, 8, 15
            |32, 34, 34, 7, 17, 32, 19, 29, 30, 21, 13, 14, 12, 38, 32, 7, 38, 27, 27, 27, 19, 16, 29, 29, 6, 4, 35, 31, 25, 18, 11, 23, 29, 30, 29, 16, 0, 5, 15, 10, 9
            |35, 38, 32, 8, 22, 36, 24, 26, 26, 16, 15, 10, 17, 36, 29, 12, 43, 29, 29, 24, 19, 14, 25, 34, 1, 8, 39, 33, 30, 18, 16, 22, 28, 28, 33, 18, 5, 0, 19, 11, 5
            |17, 19, 31, 11, 14, 18, 12, 28, 31, 34, 26, 29, 14, 32, 31, 9, 24, 14, 14, 25, 12, 15, 34, 16, 18, 11, 20, 17, 15, 11, 9, 20, 20, 25, 15, 29, 15, 19, 0, 25, 23
            |42, 44, 42, 17, 22, 40, 26, 37, 36, 19, 5, 11, 17, 47, 40, 16, 47, 37, 37, 35, 29, 25, 34, 37, 12, 14, 45, 41, 32, 28, 18, 32, 38, 39, 38, 8, 10, 11, 25, 0, 8
            |40, 42, 36, 13, 25, 40, 28, 30, 29, 13, 13, 6, 19, 40, 33, 16, 47, 34, 34, 28, 24, 19, 26, 38, 6, 13, 44, 38, 34, 23, 19, 26, 33, 32, 38, 15, 9, 5, 23, 8, 0|];