% n40w140.003    36.35 542
n = 41;
duration = [|0, 14, 17, 19, 18, 20, 22, 32, 22, 30, 25, 19, 22, 38, 24, 28, 10, 13, 18, 10, 25, 32, 29, 10, 11, 29, 19, 2, 38, 28, 23, 22, 12, 30, 28, 23, 10, 25, 25, 26, 15
            |14, 0, 31, 31, 27, 20, 32, 25, 35, 17, 13, 9, 11, 26, 21, 18, 4, 7, 28, 25, 37, 26, 22, 4, 26, 18, 31, 16, 26, 33, 11, 11, 21, 16, 21, 12, 9, 34, 19, 15, 8
            |17, 31, 0, 19, 15, 28, 14, 48, 17, 47, 42, 36, 37, 51, 33, 45, 27, 30, 24, 8, 20, 41, 39, 27, 8, 42, 19, 15, 51, 25, 40, 39, 14, 47, 44, 40, 24, 17, 41, 40, 29
            |19, 31, 19, 0, 31, 39, 32, 37, 6, 40, 35, 30, 40, 56, 43, 36, 28, 25, 6, 14, 7, 51, 48, 26, 13, 48, 0, 19, 56, 42, 34, 34, 26, 45, 34, 34, 29, 36, 30, 45, 33
            |18, 27, 15, 31, 0, 15, 5, 50, 31, 44, 40, 34, 28, 41, 20, 44, 23, 29, 34, 17, 34, 28, 27, 24, 18, 31, 31, 16, 39, 11, 38, 37, 6, 41, 45, 38, 17, 7, 42, 30, 22
            |20, 20, 28, 39, 15, 0, 19, 44, 40, 36, 33, 29, 16, 26, 5, 38, 18, 25, 39, 26, 43, 13, 12, 20, 27, 17, 39, 20, 25, 14, 31, 30, 14, 31, 40, 32, 12, 20, 38, 16, 12
            |22, 32, 14, 32, 5, 19, 0, 54, 31, 49, 45, 39, 33, 46, 24, 49, 28, 34, 36, 19, 34, 32, 31, 29, 19, 36, 32, 20, 44, 12, 43, 42, 11, 47, 50, 43, 22, 3, 47, 35, 27
            |32, 25, 48, 37, 50, 44, 54, 0, 43, 12, 12, 16, 32, 41, 45, 7, 27, 21, 31, 40, 44, 49, 45, 25, 41, 38, 37, 35, 43, 57, 14, 15, 43, 22, 4, 13, 33, 57, 8, 36, 32
            |22, 35, 17, 6, 31, 40, 31, 43, 0, 46, 41, 35, 44, 60, 45, 42, 32, 30, 12, 14, 3, 53, 51, 31, 13, 51, 6, 21, 59, 42, 39, 40, 27, 50, 40, 39, 32, 34, 36, 48, 37
            |30, 17, 47, 40, 44, 36, 49, 12, 46, 0, 5, 11, 22, 29, 36, 6, 21, 17, 35, 39, 48, 38, 34, 20, 40, 27, 40, 32, 31, 50, 7, 7, 38, 10, 10, 7, 27, 51, 13, 25, 24
            |25, 13, 42, 35, 40, 33, 45, 12, 41, 5, 0, 6, 20, 30, 33, 5, 17, 12, 30, 34, 43, 36, 32, 16, 35, 26, 35, 27, 31, 46, 2, 3, 34, 12, 9, 2, 23, 47, 10, 23, 21
            |19, 9, 36, 30, 34, 29, 39, 16, 35, 11, 6, 0, 18, 30, 30, 10, 11, 6, 26, 28, 37, 34, 30, 10, 29, 25, 30, 21, 32, 41, 4, 4, 28, 15, 12, 4, 18, 42, 10, 22, 17
            |22, 11, 37, 40, 28, 16, 33, 32, 44, 22, 20, 18, 0, 16, 14, 25, 13, 18, 38, 32, 47, 16, 12, 14, 33, 8, 40, 23, 16, 30, 18, 17, 24, 15, 29, 19, 13, 35, 28, 4, 8
            |38, 26, 51, 56, 41, 26, 46, 41, 60, 29, 30, 30, 16, 0, 22, 34, 28, 32, 53, 47, 62, 17, 15, 30, 49, 9, 56, 39, 3, 39, 29, 28, 38, 19, 38, 30, 28, 46, 39, 12, 23
            |24, 21, 33, 43, 20, 5, 24, 45, 45, 36, 33, 30, 14, 22, 0, 38, 20, 27, 43, 31, 48, 8, 7, 22, 32, 13, 43, 24, 20, 17, 31, 30, 19, 29, 41, 32, 15, 24, 40, 13, 13
            |28, 18, 45, 36, 44, 38, 49, 7, 42, 6, 5, 10, 25, 34, 38, 0, 21, 16, 31, 37, 44, 42, 38, 20, 38, 31, 36, 30, 36, 51, 7, 8, 38, 16, 4, 6, 28, 52, 7, 29, 26
            |10, 4, 27, 28, 23, 18, 28, 27, 32, 21, 17, 11, 13, 28, 20, 21, 0, 7, 25, 21, 34, 26, 23, 2, 22, 20, 28, 12, 28, 30, 14, 14, 17, 20, 23, 15, 6, 31, 21, 17, 7
            |13, 7, 30, 25, 29, 25, 34, 21, 30, 17, 12, 6, 18, 32, 27, 16, 7, 0, 21, 22, 32, 33, 29, 5, 23, 26, 25, 15, 33, 37, 10, 10, 23, 20, 16, 10, 13, 36, 14, 22, 14
            |18, 28, 24, 6, 34, 39, 36, 31, 12, 35, 30, 26, 38, 53, 43, 31, 25, 21, 0, 17, 13, 50, 47, 24, 17, 45, 6, 19, 54, 44, 29, 30, 28, 40, 28, 29, 28, 39, 24, 42, 32
            |10, 25, 8, 14, 17, 26, 19, 40, 14, 39, 34, 28, 32, 47, 31, 37, 21, 22, 17, 0, 17, 39, 37, 20, 1, 38, 14, 9, 47, 28, 32, 32, 13, 40, 36, 32, 19, 22, 33, 36, 24
            |25, 37, 20, 7, 34, 43, 34, 44, 3, 48, 43, 37, 47, 62, 48, 44, 34, 32, 13, 17, 0, 56, 54, 33, 16, 54, 7, 24, 62, 45, 41, 41, 30, 52, 41, 41, 35, 37, 37, 51, 40
            |32, 26, 41, 51, 28, 13, 32, 49, 53, 38, 36, 34, 16, 17, 8, 42, 26, 33, 50, 39, 56, 0, 4, 28, 41, 11, 51, 32, 15, 23, 35, 34, 28, 30, 45, 36, 22, 32, 44, 13, 19
            |29, 22, 39, 48, 27, 12, 31, 45, 51, 34, 32, 30, 12, 15, 7, 38, 23, 29, 47, 37, 54, 4, 0, 25, 38, 8, 48, 29, 13, 24, 31, 30, 26, 26, 41, 32, 19, 32, 40, 9, 16
            |10, 4, 27, 26, 24, 20, 29, 25, 31, 20, 16, 10, 14, 30, 22, 20, 2, 5, 24, 20, 33, 28, 25, 0, 21, 22, 26, 12, 30, 31, 13, 13, 18, 20, 21, 14, 8, 32, 19, 19, 9
            |11, 26, 8, 13, 18, 27, 19, 41, 13, 40, 35, 29, 33, 49, 32, 38, 22, 23, 17, 1, 16, 41, 38, 21, 0, 39, 13, 10, 48, 29, 33, 33, 14, 42, 37, 33, 20, 23, 33, 37, 26
            |29, 18, 42, 48, 31, 17, 36, 38, 51, 27, 26, 25, 8, 9, 13, 31, 20, 26, 45, 38, 54, 11, 8, 22, 39, 0, 48, 30, 9, 31, 25, 24, 29, 18, 35, 26, 19, 37, 35, 3, 14
            |19, 31, 19, 0, 31, 39, 32, 37, 6, 40, 35, 30, 40, 56, 43, 36, 28, 25, 6, 14, 7, 51, 48, 26, 13, 48, 0, 19, 56, 42, 34, 34, 26, 45, 34, 34, 29, 36, 30, 45, 33
            |2, 16, 15, 19, 16, 20, 20, 35, 21, 32, 27, 21, 23, 39, 24, 30, 12, 15, 19, 9, 24, 32, 29, 12, 10, 30, 19, 0, 38, 26, 25, 25, 10, 32, 31, 25, 11, 23, 27, 27, 16
            |38, 26, 51, 56, 39, 25, 44, 43, 59, 31, 31, 32, 16, 3, 20, 36, 28, 33, 54, 47, 62, 15, 13, 30, 48, 9, 56, 38, 0, 37, 31, 30, 37, 21, 40, 32, 28, 44, 41, 11, 23
            |28, 33, 25, 42, 11, 14, 12, 57, 42, 50, 46, 41, 30, 39, 17, 51, 30, 37, 44, 28, 45, 23, 24, 31, 29, 31, 42, 26, 37, 0, 44, 43, 16, 45, 53, 45, 23, 10, 50, 30, 26
            |23, 11, 40, 34, 38, 31, 43, 14, 39, 7, 2, 4, 18, 29, 31, 7, 14, 10, 29, 32, 41, 35, 31, 13, 33, 25, 34, 25, 31, 44, 0, 1, 32, 12, 10, 1, 21, 45, 10, 22, 19
            |22, 11, 39, 34, 37, 30, 42, 15, 40, 7, 3, 4, 17, 28, 30, 8, 14, 10, 30, 32, 41, 34, 30, 13, 33, 24, 34, 25, 30, 43, 1, 0, 31, 11, 11, 2, 20, 44, 11, 21, 18
            |12, 21, 14, 26, 6, 14, 11, 43, 27, 38, 34, 28, 24, 38, 19, 38, 17, 23, 28, 13, 30, 28, 26, 18, 14, 29, 26, 10, 37, 16, 32, 31, 0, 36, 39, 32, 12, 13, 36, 27, 17
            |30, 16, 47, 45, 41, 31, 47, 22, 50, 10, 12, 15, 15, 19, 29, 16, 20, 20, 40, 40, 52, 30, 26, 20, 42, 18, 45, 32, 21, 45, 12, 11, 36, 0, 20, 13, 24, 48, 21, 16, 20
            |28, 21, 44, 34, 45, 40, 50, 4, 40, 10, 9, 12, 29, 38, 41, 4, 23, 16, 28, 36, 41, 45, 41, 21, 37, 35, 34, 31, 40, 53, 10, 11, 39, 20, 0, 9, 29, 52, 4, 32, 28
            |23, 12, 40, 34, 38, 32, 43, 13, 39, 7, 2, 4, 19, 30, 32, 6, 15, 10, 29, 32, 41, 36, 32, 14, 33, 26, 34, 25, 32, 45, 1, 2, 32, 13, 9, 0, 21, 45, 9, 23, 19
            |10, 9, 24, 29, 17, 12, 22, 33, 32, 27, 23, 18, 13, 28, 15, 28, 6, 13, 28, 19, 35, 22, 19, 8, 20, 19, 29, 11, 28, 23, 21, 20, 12, 24, 29, 21, 0, 25, 27, 17, 5
            |25, 34, 17, 36, 7, 20, 3, 57, 34, 51, 47, 42, 35, 46, 24, 52, 31, 36, 39, 22, 37, 32, 32, 32, 23, 37, 36, 23, 44, 10, 45, 44, 13, 48, 52, 45, 25, 0, 50, 36, 28
            |25, 19, 41, 30, 42, 38, 47, 8, 36, 13, 10, 10, 28, 39, 40, 7, 21, 14, 24, 33, 37, 44, 40, 19, 33, 35, 30, 27, 41, 50, 10, 11, 36, 21, 4, 9, 27, 50, 0, 32, 27
            |26, 15, 40, 45, 30, 16, 35, 36, 48, 25, 23, 22, 4, 12, 13, 29, 17, 22, 42, 36, 51, 13, 9, 19, 37, 3, 45, 27, 11, 30, 22, 21, 27, 16, 32, 23, 17, 36, 32, 0, 11
            |15, 8, 29, 33, 22, 12, 27, 32, 37, 24, 21, 17, 8, 23, 13, 26, 7, 14, 32, 24, 40, 19, 16, 9, 26, 14, 33, 16, 23, 26, 19, 18, 17, 20, 28, 19, 5, 28, 27, 11, 0|];