% n40w200.003    88.80 489
n = 41;
duration = [|0, 38, 36, 38, 42, 26, 10, 38, 34, 8, 26, 11, 35, 14, 33, 38, 10, 15, 31, 15, 27, 32, 8, 28, 41, 25, 10, 18, 26, 43, 22, 46, 52, 13, 21, 48, 46, 23, 23, 35, 44
            |38, 0, 51, 16, 6, 13, 35, 3, 20, 33, 24, 32, 24, 37, 25, 16, 37, 40, 25, 29, 46, 11, 33, 44, 4, 45, 37, 20, 12, 6, 34, 8, 21, 31, 43, 14, 11, 15, 16, 10, 8
            |36, 51, 0, 39, 57, 47, 45, 53, 33, 43, 27, 44, 30, 22, 27, 39, 26, 21, 27, 47, 9, 40, 31, 9, 52, 11, 26, 37, 43, 57, 19, 57, 50, 46, 15, 52, 62, 41, 46, 42, 59
            |38, 16, 39, 0, 22, 22, 40, 18, 6, 37, 15, 36, 10, 31, 12, 0, 33, 34, 13, 35, 36, 9, 31, 34, 14, 36, 33, 21, 18, 20, 25, 18, 14, 37, 35, 13, 25, 19, 24, 6, 22
            |42, 6, 57, 22, 0, 16, 38, 4, 26, 36, 30, 34, 31, 42, 31, 22, 42, 45, 31, 31, 52, 17, 38, 50, 8, 51, 42, 25, 16, 2, 40, 7, 25, 34, 49, 16, 4, 20, 19, 17, 2
            |26, 13, 47, 22, 16, 0, 22, 12, 22, 20, 21, 19, 26, 28, 25, 22, 27, 31, 24, 16, 40, 13, 22, 38, 17, 38, 27, 10, 4, 17, 28, 21, 32, 18, 35, 26, 20, 6, 3, 16, 18
            |10, 35, 45, 40, 38, 22, 0, 34, 37, 3, 30, 4, 39, 23, 37, 40, 19, 25, 35, 7, 36, 31, 15, 37, 39, 35, 19, 18, 24, 39, 29, 43, 52, 4, 31, 47, 41, 22, 19, 35, 40
            |38, 3, 53, 18, 4, 12, 34, 0, 22, 33, 26, 31, 27, 38, 27, 18, 37, 41, 27, 28, 47, 13, 34, 46, 7, 46, 37, 20, 12, 5, 35, 9, 24, 30, 44, 16, 9, 15, 15, 13, 6
            |34, 20, 33, 6, 26, 22, 37, 22, 0, 34, 9, 34, 4, 26, 6, 6, 28, 28, 6, 33, 30, 10, 27, 27, 19, 29, 28, 19, 18, 25, 19, 24, 19, 35, 29, 19, 30, 18, 24, 9, 27
            |8, 33, 43, 37, 36, 20, 3, 33, 34, 0, 27, 2, 36, 20, 34, 37, 16, 22, 32, 7, 34, 29, 12, 34, 37, 32, 16, 16, 22, 37, 26, 41, 50, 4, 28, 45, 40, 19, 17, 32, 38
            |26, 24, 27, 15, 30, 21, 30, 26, 9, 27, 0, 27, 9, 16, 6, 15, 19, 19, 5, 28, 22, 14, 18, 20, 25, 21, 19, 14, 17, 30, 10, 30, 28, 29, 20, 27, 35, 16, 21, 15, 32
            |11, 32, 44, 36, 34, 19, 4, 31, 34, 2, 27, 0, 36, 22, 34, 36, 18, 23, 32, 4, 35, 28, 13, 36, 35, 33, 18, 15, 20, 36, 27, 40, 49, 2, 29, 43, 38, 18, 16, 31, 36
            |35, 24, 30, 10, 31, 26, 39, 27, 4, 36, 9, 36, 0, 25, 3, 10, 28, 28, 4, 36, 27, 15, 28, 24, 23, 27, 28, 22, 22, 29, 17, 28, 21, 37, 27, 22, 34, 21, 27, 14, 32
            |14, 37, 22, 31, 42, 28, 23, 38, 26, 20, 16, 22, 25, 0, 22, 31, 4, 3, 21, 25, 14, 27, 8, 14, 39, 12, 4, 18, 26, 42, 8, 44, 45, 24, 8, 43, 47, 23, 26, 30, 44
            |33, 25, 27, 12, 31, 25, 37, 27, 6, 34, 6, 34, 3, 22, 0, 12, 25, 24, 1, 34, 24, 15, 25, 22, 25, 24, 25, 20, 21, 30, 14, 30, 24, 35, 24, 25, 35, 20, 26, 15, 33
            |38, 16, 39, 0, 22, 22, 40, 18, 6, 37, 15, 36, 10, 31, 12, 0, 33, 34, 13, 35, 36, 9, 31, 34, 14, 36, 33, 21, 18, 20, 25, 18, 14, 37, 35, 13, 25, 19, 24, 6, 22
            |10, 37, 26, 33, 42, 27, 19, 37, 28, 16, 19, 18, 28, 4, 25, 33, 0, 5, 23, 21, 17, 28, 5, 18, 39, 15, 0, 17, 25, 42, 12, 44, 47, 20, 11, 44, 46, 22, 25, 31, 44
            |15, 40, 21, 34, 45, 31, 25, 41, 28, 22, 19, 23, 28, 3, 24, 34, 5, 0, 23, 27, 12, 30, 10, 13, 42, 10, 5, 21, 29, 46, 10, 47, 48, 26, 6, 46, 50, 26, 29, 33, 47
            |31, 25, 27, 13, 31, 24, 35, 27, 6, 32, 5, 32, 4, 21, 1, 13, 23, 23, 0, 33, 24, 14, 23, 21, 25, 23, 23, 18, 20, 30, 13, 30, 25, 34, 23, 25, 35, 19, 25, 15, 33
            |15, 29, 47, 35, 31, 16, 7, 28, 33, 7, 28, 4, 36, 25, 34, 35, 21, 27, 33, 0, 38, 26, 17, 38, 33, 36, 21, 14, 18, 32, 29, 36, 47, 3, 33, 41, 34, 16, 13, 30, 33
            |27, 46, 9, 36, 52, 40, 36, 47, 30, 34, 22, 35, 27, 14, 24, 36, 17, 12, 24, 38, 0, 35, 22, 3, 47, 2, 17, 30, 37, 52, 12, 52, 48, 37, 6, 49, 56, 34, 38, 37, 54
            |32, 11, 40, 9, 17, 13, 31, 13, 10, 29, 14, 28, 15, 27, 15, 9, 28, 30, 14, 26, 35, 0, 25, 33, 12, 34, 28, 13, 9, 16, 23, 17, 21, 28, 33, 16, 21, 10, 15, 4, 18
            |8, 33, 31, 31, 38, 22, 15, 34, 27, 12, 18, 13, 28, 8, 25, 31, 5, 10, 23, 17, 22, 25, 0, 22, 36, 20, 5, 13, 21, 38, 15, 41, 45, 16, 16, 42, 42, 18, 20, 29, 40
            |28, 44, 9, 34, 50, 38, 37, 46, 27, 34, 20, 36, 24, 14, 22, 34, 18, 13, 21, 38, 3, 33, 22, 0, 45, 4, 18, 29, 35, 50, 11, 50, 45, 38, 8, 46, 54, 33, 37, 35, 52
            |41, 4, 52, 14, 8, 17, 39, 7, 19, 37, 25, 35, 23, 39, 25, 14, 39, 42, 25, 33, 47, 12, 36, 45, 0, 46, 39, 23, 16, 6, 35, 5, 17, 35, 45, 9, 11, 18, 20, 10, 9
            |25, 45, 11, 36, 51, 38, 35, 46, 29, 32, 21, 33, 27, 12, 24, 36, 15, 10, 23, 36, 2, 34, 20, 4, 46, 0, 15, 28, 35, 51, 11, 51, 48, 35, 4, 48, 55, 33, 37, 36, 52
            |10, 37, 26, 33, 42, 27, 19, 37, 28, 16, 19, 18, 28, 4, 25, 33, 0, 5, 23, 21, 17, 28, 5, 18, 39, 15, 0, 17, 25, 42, 12, 44, 47, 20, 11, 44, 46, 22, 25, 31, 44
            |18, 20, 37, 21, 25, 10, 18, 20, 19, 16, 14, 15, 22, 18, 20, 21, 17, 21, 18, 14, 30, 13, 13, 29, 23, 28, 17, 0, 8, 25, 18, 28, 34, 16, 25, 30, 29, 5, 9, 17, 27
            |26, 12, 43, 18, 16, 4, 24, 12, 18, 22, 17, 20, 22, 26, 21, 18, 25, 29, 20, 18, 37, 9, 21, 35, 16, 35, 25, 8, 0, 17, 25, 20, 29, 20, 33, 23, 21, 3, 6, 12, 18
            |43, 6, 57, 20, 2, 17, 39, 5, 25, 37, 30, 36, 29, 42, 30, 20, 42, 46, 30, 32, 52, 16, 38, 50, 6, 51, 42, 25, 17, 0, 39, 5, 22, 35, 49, 14, 5, 20, 20, 16, 2
            |22, 34, 19, 25, 40, 28, 29, 35, 19, 26, 10, 27, 17, 8, 14, 25, 12, 10, 13, 29, 12, 23, 15, 11, 35, 11, 12, 18, 25, 39, 0, 40, 38, 29, 10, 37, 44, 22, 27, 25, 41
            |46, 8, 57, 18, 7, 21, 43, 9, 24, 41, 30, 40, 28, 44, 30, 18, 44, 47, 30, 36, 52, 17, 41, 50, 5, 51, 44, 28, 20, 5, 40, 0, 18, 39, 50, 10, 8, 23, 24, 15, 6
            |52, 21, 50, 14, 25, 32, 52, 24, 19, 50, 28, 49, 21, 45, 24, 14, 47, 48, 25, 47, 48, 21, 45, 45, 17, 48, 47, 34, 29, 22, 38, 18, 0, 49, 48, 8, 26, 31, 35, 17, 24
            |13, 31, 46, 37, 34, 18, 4, 30, 35, 4, 29, 2, 37, 24, 35, 37, 20, 26, 34, 3, 37, 28, 16, 38, 35, 35, 20, 16, 20, 35, 29, 39, 49, 0, 32, 44, 37, 18, 15, 32, 36
            |21, 43, 15, 35, 49, 35, 31, 44, 29, 28, 20, 29, 27, 8, 24, 35, 11, 6, 23, 33, 6, 33, 16, 8, 45, 4, 11, 25, 33, 49, 10, 50, 48, 32, 0, 48, 53, 30, 34, 35, 51
            |48, 14, 52, 13, 16, 26, 47, 16, 19, 45, 27, 43, 22, 43, 25, 13, 44, 46, 25, 41, 49, 16, 42, 46, 9, 48, 44, 30, 23, 14, 37, 10, 8, 44, 48, 0, 18, 25, 29, 13, 16
            |46, 11, 62, 25, 4, 20, 41, 9, 30, 40, 35, 38, 34, 47, 35, 25, 46, 50, 35, 34, 56, 21, 42, 54, 11, 55, 46, 29, 21, 5, 44, 8, 26, 37, 53, 18, 0, 24, 23, 21, 3
            |23, 15, 41, 19, 20, 6, 22, 15, 18, 19, 16, 18, 21, 23, 20, 19, 22, 26, 19, 16, 34, 10, 18, 33, 18, 33, 22, 5, 3, 20, 22, 23, 31, 18, 30, 25, 24, 0, 6, 13, 22
            |23, 16, 46, 24, 19, 3, 19, 15, 24, 17, 21, 16, 27, 26, 26, 24, 25, 29, 25, 13, 38, 15, 20, 37, 20, 37, 25, 9, 6, 20, 27, 24, 35, 15, 34, 29, 23, 6, 0, 18, 21
            |35, 10, 42, 6, 17, 16, 35, 13, 9, 32, 15, 31, 14, 30, 15, 6, 31, 33, 15, 30, 37, 4, 29, 35, 10, 36, 31, 17, 12, 16, 25, 15, 17, 32, 35, 13, 21, 13, 18, 0, 18
            |44, 8, 59, 22, 2, 18, 40, 6, 27, 38, 32, 36, 32, 44, 33, 22, 44, 47, 33, 33, 54, 18, 40, 52, 9, 52, 44, 27, 18, 2, 41, 6, 24, 36, 51, 16, 3, 22, 21, 18, 0|];