% n40w160.001	   58.35 548
n = 41;
duration = [|0, 22, 34, 16, 18, 25, 10, 23, 16, 10, 28, 25, 13, 5, 13, 7, 14, 21, 13, 24, 30, 18, 9, 18, 21, 13, 19, 20, 26, 25, 20, 23, 19, 31, 19, 24, 12, 16, 26, 26, 36
            |22, 0, 42, 38, 23, 46, 26, 23, 26, 13, 17, 34, 26, 27, 29, 17, 29, 30, 24, 18, 17, 33, 16, 40, 41, 14, 40, 3, 46, 42, 42, 2, 10, 24, 40, 46, 29, 34, 41, 36, 22
            |34, 42, 0, 41, 19, 47, 23, 20, 19, 35, 30, 9, 47, 35, 21, 31, 19, 13, 46, 25, 32, 51, 41, 42, 48, 43, 46, 42, 24, 18, 31, 41, 32, 25, 27, 38, 22, 48, 11, 8, 35
            |16, 38, 41, 0, 31, 8, 21, 38, 27, 26, 44, 34, 17, 11, 21, 23, 23, 32, 18, 39, 46, 15, 22, 2, 7, 26, 5, 35, 23, 26, 13, 39, 35, 46, 16, 12, 20, 10, 31, 34, 52
            |18, 23, 19, 31, 0, 39, 10, 6, 5, 17, 15, 11, 30, 21, 11, 13, 10, 6, 30, 10, 18, 36, 23, 33, 38, 25, 36, 22, 27, 22, 28, 22, 14, 15, 24, 34, 12, 34, 18, 13, 23
            |25, 46, 47, 8, 39, 0, 29, 46, 35, 34, 52, 41, 24, 20, 29, 32, 31, 39, 25, 47, 55, 19, 30, 6, 7, 34, 7, 44, 26, 30, 16, 47, 44, 54, 20, 11, 28, 15, 36, 40, 60
            |10, 26, 23, 21, 10, 29, 0, 17, 6, 15, 24, 15, 23, 12, 3, 9, 4, 11, 23, 19, 27, 28, 18, 23, 28, 22, 26, 24, 20, 16, 18, 26, 19, 25, 15, 24, 3, 25, 16, 16, 33
            |23, 23, 20, 38, 6, 46, 17, 0, 11, 20, 10, 14, 35, 27, 18, 17, 16, 10, 34, 5, 13, 41, 26, 39, 44, 28, 42, 23, 33, 27, 34, 21, 13, 8, 30, 40, 18, 40, 22, 16, 17
            |16, 26, 19, 27, 5, 35, 6, 11, 0, 17, 20, 10, 28, 18, 6, 12, 5, 5, 28, 15, 23, 33, 22, 29, 34, 25, 32, 25, 22, 17, 23, 25, 17, 20, 19, 29, 7, 31, 15, 11, 28
            |10, 13, 35, 26, 17, 34, 15, 20, 17, 0, 21, 27, 16, 15, 18, 5, 19, 22, 15, 18, 22, 23, 7, 28, 30, 8, 28, 10, 34, 31, 29, 13, 11, 25, 28, 34, 18, 23, 31, 28, 28
            |28, 17, 30, 44, 15, 52, 24, 10, 20, 21, 0, 24, 37, 32, 26, 21, 25, 20, 36, 5, 3, 44, 27, 46, 49, 27, 47, 19, 42, 37, 42, 16, 10, 6, 39, 48, 27, 43, 32, 26, 8
            |25, 34, 9, 34, 11, 41, 15, 14, 10, 27, 24, 0, 38, 27, 13, 22, 11, 5, 38, 19, 27, 42, 32, 35, 41, 35, 39, 34, 21, 15, 26, 34, 25, 21, 22, 33, 14, 40, 9, 2, 31
            |13, 26, 47, 17, 30, 24, 23, 35, 28, 16, 37, 38, 0, 13, 26, 18, 27, 34, 1, 34, 39, 7, 10, 19, 17, 12, 16, 23, 36, 36, 27, 27, 27, 41, 28, 28, 25, 9, 39, 39, 45
            |5, 27, 35, 11, 21, 20, 12, 27, 18, 15, 32, 27, 13, 0, 14, 12, 16, 23, 13, 28, 35, 16, 13, 13, 17, 17, 15, 25, 24, 23, 16, 28, 24, 35, 16, 19, 13, 13, 26, 27, 41
            |13, 29, 21, 21, 11, 29, 3, 18, 6, 18, 26, 13, 26, 14, 0, 13, 2, 10, 25, 21, 29, 29, 21, 23, 28, 25, 26, 27, 17, 13, 16, 29, 21, 26, 13, 23, 1, 26, 13, 14, 34
            |7, 17, 31, 23, 13, 32, 9, 17, 12, 5, 21, 22, 18, 12, 13, 0, 13, 17, 17, 17, 23, 24, 10, 25, 28, 13, 27, 15, 29, 26, 25, 17, 12, 24, 23, 30, 12, 23, 26, 23, 29
            |14, 29, 19, 23, 10, 31, 4, 16, 5, 19, 25, 11, 27, 16, 2, 13, 0, 8, 27, 20, 28, 31, 23, 25, 30, 26, 28, 28, 17, 13, 18, 29, 21, 25, 14, 24, 3, 28, 12, 12, 33
            |21, 30, 13, 32, 6, 39, 11, 10, 5, 22, 20, 5, 34, 23, 10, 17, 8, 0, 33, 15, 24, 39, 27, 33, 38, 30, 36, 29, 22, 17, 25, 29, 20, 18, 21, 32, 11, 36, 12, 7, 28
            |13, 24, 46, 18, 30, 25, 23, 34, 28, 15, 36, 38, 1, 13, 25, 17, 27, 33, 0, 33, 38, 9, 9, 20, 18, 11, 18, 21, 36, 36, 28, 26, 26, 40, 29, 29, 24, 10, 38, 38, 43
            |24, 18, 25, 39, 10, 47, 19, 5, 15, 18, 5, 19, 34, 28, 21, 17, 20, 15, 33, 0, 9, 41, 25, 41, 45, 25, 43, 19, 37, 31, 37, 17, 9, 7, 34, 43, 21, 40, 27, 21, 14
            |30, 17, 32, 46, 18, 55, 27, 13, 23, 22, 3, 27, 39, 35, 29, 23, 28, 24, 38, 9, 0, 46, 29, 48, 51, 28, 50, 19, 45, 40, 45, 16, 12, 8, 42, 51, 30, 46, 36, 29, 6
            |18, 33, 51, 15, 36, 19, 28, 41, 33, 23, 44, 42, 7, 16, 29, 24, 31, 39, 9, 41, 46, 0, 17, 16, 12, 19, 12, 30, 37, 38, 27, 34, 34, 48, 29, 26, 28, 4, 42, 43, 52
            |9, 16, 41, 22, 23, 30, 18, 26, 22, 7, 27, 32, 10, 13, 21, 10, 23, 27, 9, 25, 29, 17, 0, 25, 25, 4, 24, 13, 36, 34, 29, 18, 17, 32, 29, 32, 21, 18, 35, 33, 35
            |18, 40, 42, 2, 33, 6, 23, 39, 29, 28, 46, 35, 19, 13, 23, 25, 25, 33, 20, 41, 48, 16, 25, 0, 7, 28, 5, 38, 23, 26, 13, 41, 37, 48, 16, 10, 22, 12, 31, 35, 54
            |21, 41, 48, 7, 38, 7, 28, 44, 34, 30, 49, 41, 17, 17, 28, 28, 30, 38, 18, 45, 51, 12, 25, 7, 0, 28, 2, 38, 30, 33, 19, 43, 40, 51, 22, 16, 27, 8, 38, 41, 57
            |13, 14, 43, 26, 25, 34, 22, 28, 25, 8, 27, 35, 12, 17, 25, 13, 26, 30, 11, 25, 28, 19, 4, 28, 28, 0, 27, 11, 40, 38, 33, 15, 17, 32, 33, 36, 24, 21, 38, 36, 34
            |19, 40, 46, 5, 36, 7, 26, 42, 32, 28, 47, 39, 16, 15, 26, 27, 28, 36, 18, 43, 50, 12, 24, 5, 2, 27, 0, 37, 28, 31, 17, 41, 38, 50, 21, 15, 25, 8, 36, 39, 55
            |20, 3, 42, 35, 22, 44, 24, 23, 25, 10, 19, 34, 23, 25, 27, 15, 28, 29, 21, 19, 19, 30, 13, 38, 38, 11, 37, 0, 44, 41, 40, 4, 10, 25, 38, 44, 27, 31, 39, 35, 24
            |26, 46, 24, 23, 27, 26, 20, 33, 22, 34, 42, 21, 36, 24, 17, 29, 17, 22, 36, 37, 45, 37, 36, 23, 30, 40, 28, 44, 0, 6, 10, 46, 38, 41, 8, 15, 17, 33, 13, 20, 50
            |25, 42, 18, 26, 22, 30, 16, 27, 17, 31, 37, 15, 36, 23, 13, 26, 13, 17, 36, 31, 40, 38, 34, 26, 33, 38, 31, 41, 6, 0, 14, 42, 34, 35, 10, 20, 14, 34, 7, 13, 44
            |20, 42, 31, 13, 28, 16, 18, 34, 23, 29, 42, 26, 27, 16, 16, 25, 18, 25, 28, 37, 45, 27, 29, 13, 19, 33, 17, 40, 10, 14, 0, 42, 36, 42, 4, 7, 16, 23, 20, 25, 51
            |23, 2, 41, 39, 22, 47, 26, 21, 25, 13, 16, 34, 27, 28, 29, 17, 29, 29, 26, 17, 16, 34, 18, 41, 43, 15, 41, 4, 46, 42, 42, 0, 9, 22, 41, 47, 29, 35, 40, 35, 20
            |19, 10, 32, 35, 14, 44, 19, 13, 17, 11, 10, 25, 27, 24, 21, 12, 21, 20, 26, 9, 12, 34, 17, 37, 40, 17, 38, 10, 38, 34, 36, 9, 0, 15, 34, 42, 22, 34, 31, 27, 17
            |31, 24, 25, 46, 15, 54, 25, 8, 20, 25, 6, 21, 41, 35, 26, 24, 25, 18, 40, 7, 8, 48, 32, 48, 51, 32, 50, 25, 41, 35, 42, 22, 15, 0, 39, 49, 27, 47, 30, 23, 10
            |19, 40, 27, 16, 24, 20, 15, 30, 19, 28, 39, 22, 28, 16, 13, 23, 14, 21, 29, 34, 42, 29, 29, 16, 22, 33, 21, 38, 8, 10, 4, 41, 34, 39, 0, 11, 13, 25, 16, 21, 47
            |24, 46, 38, 12, 34, 11, 24, 40, 29, 34, 48, 33, 28, 19, 23, 30, 24, 32, 29, 43, 51, 26, 32, 10, 16, 36, 15, 44, 15, 20, 7, 47, 42, 49, 11, 0, 22, 22, 26, 32, 57
            |12, 29, 22, 20, 12, 28, 3, 18, 7, 18, 27, 14, 25, 13, 1, 12, 3, 11, 24, 21, 30, 28, 21, 22, 27, 24, 25, 27, 17, 14, 16, 29, 22, 27, 13, 22, 0, 25, 14, 15, 35
            |16, 34, 48, 10, 34, 15, 25, 40, 31, 23, 43, 40, 9, 13, 26, 23, 28, 36, 10, 40, 46, 4, 18, 12, 8, 21, 8, 31, 33, 34, 23, 35, 34, 47, 25, 22, 25, 0, 38, 40, 51
            |26, 41, 11, 31, 18, 36, 16, 22, 15, 31, 32, 9, 39, 26, 13, 26, 12, 12, 38, 27, 36, 42, 35, 31, 38, 38, 36, 39, 13, 7, 20, 40, 31, 30, 16, 26, 14, 38, 0, 7, 40
            |26, 36, 8, 34, 13, 40, 16, 16, 11, 28, 26, 2, 39, 27, 14, 23, 12, 7, 38, 21, 29, 43, 33, 35, 41, 36, 39, 35, 20, 13, 25, 35, 27, 23, 21, 32, 15, 40, 7, 0, 33
            |36, 22, 35, 52, 23, 60, 33, 17, 28, 28, 8, 31, 45, 41, 34, 29, 33, 28, 43, 14, 6, 52, 35, 54, 57, 34, 55, 24, 50, 44, 51, 20, 17, 10, 47, 57, 35, 51, 40, 33, 0|];
early = [0, 0, 243, 110, 0, 157, 0, 0, 0, 39, 0, 396, 55, 121, 178, 0, 0, 0, 34, 0, 281, 35, 56, 139, 441, 65, 163, 37, 152, 215, 212, 97, 0, 0, 165, 170, 0, 344, 244, 250, 375];
late = [658, 193, 409, 273, 102, 332, 86, 113, 96, 169, 162, 558, 244, 299, 334, 59, 113, 112, 222, 143, 455, 197, 203, 274, 637, 197, 300, 202, 362, 373, 327, 250, 137, 173, 344, 316, 96, 493, 401, 374, 556];