% n40w180.003	   69.78 498
n = 41;
duration = [|0, 52, 50, 50, 45, 38, 41, 40, 37, 33, 21, 4, 45, 39, 19, 20, 25, 25, 14, 9, 39, 24, 31, 50, 21, 33, 39, 43, 58, 45, 31, 4, 24, 47, 9, 39, 57, 39, 22, 6, 42
            |52, 0, 2, 13, 8, 29, 31, 15, 32, 40, 32, 54, 11, 13, 34, 36, 35, 38, 43, 55, 13, 31, 28, 27, 35, 19, 13, 31, 10, 18, 41, 50, 27, 8, 42, 30, 18, 19, 35, 56, 12
            |50, 2, 0, 12, 6, 29, 31, 13, 32, 38, 30, 53, 9, 11, 32, 34, 33, 36, 41, 53, 11, 29, 28, 26, 33, 18, 11, 31, 10, 18, 39, 48, 26, 8, 41, 30, 17, 17, 34, 54, 10
            |50, 13, 12, 0, 9, 38, 41, 10, 41, 31, 34, 52, 7, 14, 31, 39, 28, 31, 45, 52, 18, 27, 35, 14, 30, 23, 18, 41, 10, 29, 32, 50, 27, 20, 41, 40, 7, 12, 39, 53, 10
            |45, 8, 6, 9, 0, 29, 32, 7, 32, 32, 27, 48, 4, 6, 27, 31, 27, 30, 38, 48, 9, 23, 26, 21, 27, 15, 9, 32, 13, 20, 33, 44, 21, 11, 36, 30, 16, 11, 31, 49, 4
            |38, 29, 29, 38, 29, 0, 4, 31, 3, 48, 19, 42, 32, 25, 31, 18, 38, 42, 24, 45, 21, 31, 8, 48, 34, 17, 21, 5, 39, 12, 48, 34, 24, 21, 31, 1, 45, 34, 16, 44, 29
            |41, 31, 31, 41, 32, 4, 0, 34, 4, 52, 22, 45, 34, 28, 34, 21, 41, 45, 27, 48, 23, 35, 11, 51, 38, 21, 23, 2, 41, 13, 51, 37, 27, 23, 35, 2, 48, 37, 19, 47, 32
            |40, 15, 13, 10, 7, 31, 34, 0, 34, 25, 24, 42, 4, 6, 21, 29, 20, 24, 35, 42, 11, 17, 26, 17, 21, 14, 11, 35, 18, 24, 26, 39, 17, 17, 31, 32, 17, 4, 29, 43, 3
            |37, 32, 32, 41, 32, 3, 4, 34, 0, 49, 19, 41, 35, 28, 32, 17, 39, 43, 23, 45, 23, 33, 8, 51, 35, 20, 23, 6, 42, 15, 49, 33, 25, 25, 31, 3, 48, 36, 15, 43, 32
            |33, 40, 38, 31, 32, 48, 52, 25, 49, 0, 32, 33, 29, 29, 19, 36, 11, 8, 37, 29, 33, 17, 41, 22, 16, 32, 33, 53, 41, 46, 2, 35, 25, 41, 27, 50, 35, 21, 38, 32, 28
            |21, 32, 30, 34, 27, 19, 22, 24, 19, 32, 0, 25, 27, 21, 13, 5, 21, 24, 11, 27, 19, 15, 11, 39, 16, 13, 19, 24, 40, 24, 31, 18, 8, 27, 13, 20, 41, 24, 6, 26, 24
            |4, 54, 53, 52, 48, 42, 45, 42, 41, 33, 25, 0, 47, 42, 21, 24, 26, 25, 18, 5, 42, 25, 35, 51, 22, 36, 42, 47, 60, 48, 30, 9, 27, 51, 12, 43, 59, 40, 26, 2, 44
            |45, 11, 9, 7, 4, 32, 34, 4, 35, 29, 27, 47, 0, 7, 26, 32, 24, 28, 38, 47, 11, 22, 28, 18, 26, 16, 11, 35, 14, 23, 30, 43, 21, 15, 35, 33, 14, 8, 32, 48, 3
            |39, 13, 11, 14, 6, 25, 28, 6, 28, 29, 21, 42, 7, 0, 21, 25, 22, 26, 31, 42, 5, 18, 21, 23, 22, 9, 5, 29, 19, 18, 30, 37, 15, 12, 30, 27, 21, 9, 25, 43, 4
            |19, 34, 32, 31, 27, 31, 34, 21, 32, 19, 13, 21, 26, 21, 0, 17, 9, 11, 18, 21, 23, 4, 23, 31, 4, 18, 23, 36, 39, 32, 18, 19, 8, 32, 11, 32, 38, 19, 19, 22, 23
            |20, 36, 34, 39, 31, 18, 21, 29, 17, 36, 5, 24, 32, 25, 17, 0, 25, 28, 7, 27, 23, 19, 11, 44, 20, 17, 23, 23, 44, 25, 35, 16, 13, 30, 14, 19, 46, 29, 2, 26, 29
            |25, 35, 33, 28, 27, 38, 41, 20, 39, 11, 21, 26, 24, 22, 9, 25, 0, 4, 27, 24, 25, 6, 30, 25, 5, 22, 25, 43, 38, 37, 10, 26, 14, 34, 18, 39, 34, 17, 27, 26, 23
            |25, 38, 36, 31, 30, 42, 45, 24, 43, 8, 24, 25, 28, 26, 11, 28, 4, 0, 29, 23, 29, 10, 34, 26, 8, 27, 29, 47, 41, 41, 7, 27, 18, 38, 19, 43, 37, 20, 30, 25, 26
            |14, 43, 41, 45, 38, 24, 27, 35, 23, 37, 11, 18, 38, 31, 18, 7, 27, 29, 0, 22, 30, 22, 18, 48, 22, 23, 30, 29, 50, 32, 35, 10, 18, 37, 11, 25, 52, 34, 9, 20, 35
            |9, 55, 53, 52, 48, 45, 48, 42, 45, 29, 27, 5, 47, 42, 21, 27, 24, 23, 22, 0, 43, 25, 38, 49, 21, 38, 43, 50, 60, 50, 27, 13, 28, 52, 14, 46, 58, 40, 29, 3, 44
            |39, 13, 11, 18, 9, 21, 23, 11, 23, 33, 19, 42, 11, 5, 23, 23, 25, 29, 30, 43, 0, 20, 17, 28, 24, 6, 0, 24, 21, 13, 34, 37, 15, 9, 30, 22, 25, 14, 23, 43, 9
            |24, 31, 29, 27, 23, 31, 35, 17, 33, 17, 15, 25, 22, 18, 4, 19, 6, 10, 22, 25, 20, 0, 24, 27, 4, 16, 20, 37, 35, 31, 16, 24, 8, 29, 15, 33, 33, 15, 21, 26, 19
            |31, 28, 28, 35, 26, 8, 11, 26, 8, 41, 11, 35, 28, 21, 23, 11, 30, 34, 18, 38, 17, 24, 0, 43, 27, 12, 17, 13, 38, 14, 40, 28, 16, 21, 24, 9, 42, 28, 9, 37, 25
            |50, 27, 26, 14, 21, 48, 51, 17, 51, 22, 39, 51, 18, 23, 31, 44, 25, 26, 48, 49, 28, 27, 43, 0, 29, 31, 28, 52, 23, 41, 24, 51, 31, 33, 42, 50, 14, 15, 45, 51, 20
            |21, 35, 33, 30, 27, 34, 38, 21, 35, 16, 16, 22, 26, 22, 4, 20, 5, 8, 22, 21, 24, 4, 27, 29, 0, 20, 24, 39, 39, 35, 14, 22, 11, 33, 13, 36, 37, 18, 22, 23, 23
            |33, 19, 18, 23, 15, 17, 21, 14, 20, 32, 13, 36, 16, 9, 18, 17, 22, 27, 23, 38, 6, 16, 12, 31, 20, 0, 6, 22, 27, 15, 32, 31, 10, 14, 24, 19, 30, 16, 17, 38, 13
            |39, 13, 11, 18, 9, 21, 23, 11, 23, 33, 19, 42, 11, 5, 23, 23, 25, 29, 30, 43, 0, 20, 17, 28, 24, 6, 0, 24, 21, 13, 34, 37, 15, 9, 30, 22, 25, 14, 23, 43, 9
            |43, 31, 31, 41, 32, 5, 2, 35, 6, 53, 24, 47, 35, 29, 36, 23, 43, 47, 29, 50, 24, 37, 13, 52, 39, 22, 24, 0, 41, 13, 53, 39, 29, 23, 37, 4, 48, 38, 21, 49, 33
            |58, 10, 10, 10, 13, 39, 41, 18, 42, 41, 40, 60, 14, 19, 39, 44, 38, 41, 50, 60, 21, 35, 38, 23, 39, 27, 21, 41, 0, 28, 42, 57, 34, 18, 49, 40, 10, 21, 44, 61, 16
            |45, 18, 18, 29, 20, 12, 13, 24, 15, 46, 24, 48, 23, 18, 32, 25, 37, 41, 32, 50, 13, 31, 14, 41, 35, 15, 13, 13, 28, 0, 46, 41, 24, 10, 36, 13, 35, 28, 24, 50, 21
            |31, 41, 39, 32, 33, 48, 51, 26, 49, 2, 31, 30, 30, 30, 18, 35, 10, 7, 35, 27, 34, 16, 40, 24, 14, 32, 34, 53, 42, 46, 0, 33, 24, 42, 26, 49, 36, 22, 37, 30, 29
            |4, 50, 48, 50, 44, 34, 37, 39, 33, 35, 18, 9, 43, 37, 19, 16, 26, 27, 10, 13, 37, 24, 28, 51, 22, 31, 37, 39, 57, 41, 33, 0, 23, 45, 9, 35, 57, 38, 18, 11, 40
            |24, 27, 26, 27, 21, 24, 27, 17, 25, 25, 8, 27, 21, 15, 8, 13, 14, 18, 18, 28, 15, 8, 16, 31, 11, 10, 15, 29, 34, 24, 24, 23, 0, 24, 15, 25, 34, 16, 14, 28, 18
            |47, 8, 8, 20, 11, 21, 23, 17, 25, 41, 27, 51, 15, 12, 32, 30, 34, 38, 37, 52, 9, 29, 21, 33, 33, 14, 9, 23, 18, 10, 42, 45, 24, 0, 38, 22, 25, 21, 29, 52, 14
            |9, 42, 41, 41, 36, 31, 35, 31, 31, 27, 13, 12, 35, 30, 11, 14, 18, 19, 11, 14, 30, 15, 24, 42, 13, 24, 30, 37, 49, 36, 26, 9, 15, 38, 0, 33, 48, 30, 16, 14, 33
            |39, 30, 30, 40, 30, 1, 2, 32, 3, 50, 20, 43, 33, 27, 32, 19, 39, 43, 25, 46, 22, 33, 9, 50, 36, 19, 22, 4, 40, 13, 49, 35, 25, 22, 33, 0, 46, 35, 17, 45, 30
            |57, 18, 17, 7, 16, 45, 48, 17, 48, 35, 41, 59, 14, 21, 38, 46, 34, 37, 52, 58, 25, 33, 42, 14, 37, 30, 25, 48, 10, 35, 36, 57, 34, 25, 48, 46, 0, 19, 47, 59, 17
            |39, 19, 17, 12, 11, 34, 37, 4, 36, 21, 24, 40, 8, 9, 19, 29, 17, 20, 34, 40, 14, 15, 28, 15, 18, 16, 14, 38, 21, 28, 22, 38, 16, 21, 30, 35, 19, 0, 30, 41, 7
            |22, 35, 34, 39, 31, 16, 19, 29, 15, 38, 6, 26, 32, 25, 19, 2, 27, 30, 9, 29, 23, 21, 9, 45, 22, 17, 23, 21, 44, 24, 37, 18, 14, 29, 16, 17, 47, 30, 0, 28, 29
            |6, 56, 54, 53, 49, 44, 47, 43, 43, 32, 26, 2, 48, 43, 22, 26, 26, 25, 20, 3, 43, 26, 37, 51, 23, 38, 43, 49, 61, 50, 30, 11, 28, 52, 14, 45, 59, 41, 28, 0, 45
            |42, 12, 10, 10, 4, 29, 32, 3, 32, 28, 24, 44, 3, 4, 23, 29, 23, 26, 35, 44, 9, 19, 25, 20, 23, 13, 9, 33, 16, 21, 29, 40, 18, 14, 33, 30, 17, 7, 29, 45, 0|];