% n40w120.004    19.90 443
n = 41;
duration = [|0, 21, 21, 32, 42, 1, 41, 2, 30, 11, 31, 10, 13, 20, 34, 35, 15, 17, 46, 21, 9, 18, 19, 26, 19, 13, 40, 25, 15, 3, 30, 38, 8, 13, 40, 16, 9, 5, 24, 15, 24
            |21, 0, 1, 17, 40, 21, 40, 23, 22, 14, 33, 31, 13, 35, 13, 15, 9, 32, 41, 37, 18, 10, 26, 26, 38, 21, 41, 7, 33, 19, 11, 17, 28, 16, 40, 13, 28, 26, 4, 17, 31
            |21, 1, 0, 17, 40, 20, 39, 22, 21, 13, 32, 31, 12, 34, 14, 15, 9, 31, 40, 36, 18, 11, 26, 25, 37, 20, 40, 6, 33, 19, 11, 17, 28, 15, 39, 13, 28, 26, 4, 18, 30
            |32, 17, 17, 0, 28, 32, 28, 34, 9, 21, 25, 42, 19, 37, 13, 12, 17, 35, 26, 39, 33, 27, 43, 19, 42, 24, 29, 11, 38, 29, 8, 15, 40, 21, 28, 30, 36, 37, 13, 34, 28
            |42, 40, 40, 28, 0, 43, 1, 43, 19, 33, 11, 48, 32, 32, 41, 40, 34, 32, 8, 33, 48, 49, 60, 16, 39, 29, 3, 36, 37, 39, 35, 43, 49, 30, 3, 49, 40, 45, 38, 52, 19
            |1, 21, 20, 32, 43, 0, 42, 2, 30, 11, 32, 11, 13, 21, 34, 35, 15, 18, 46, 22, 8, 17, 18, 26, 20, 13, 41, 25, 16, 4, 30, 37, 8, 13, 40, 15, 9, 6, 24, 14, 25
            |41, 40, 39, 28, 1, 42, 0, 43, 19, 33, 10, 48, 32, 31, 41, 40, 33, 31, 9, 32, 48, 48, 59, 16, 38, 28, 2, 36, 36, 38, 35, 43, 48, 30, 2, 49, 39, 44, 38, 52, 18
            |2, 23, 22, 34, 43, 2, 43, 0, 32, 13, 33, 9, 15, 20, 36, 37, 17, 17, 48, 21, 9, 19, 19, 27, 18, 14, 42, 27, 15, 5, 32, 39, 6, 15, 41, 17, 8, 4, 26, 15, 26
            |30, 22, 21, 9, 19, 30, 19, 32, 0, 19, 16, 39, 17, 30, 22, 21, 17, 28, 19, 32, 34, 31, 44, 11, 36, 19, 20, 17, 33, 27, 16, 25, 38, 17, 19, 33, 32, 35, 19, 36, 19
            |11, 14, 13, 21, 33, 11, 33, 13, 19, 0, 24, 21, 2, 21, 25, 26, 5, 18, 36, 23, 15, 17, 26, 17, 24, 7, 32, 16, 20, 8, 20, 29, 19, 3, 32, 17, 16, 16, 16, 19, 19
            |31, 33, 32, 25, 11, 32, 10, 33, 16, 24, 0, 37, 23, 21, 37, 37, 25, 21, 17, 22, 38, 40, 49, 7, 28, 18, 9, 30, 26, 28, 31, 40, 38, 21, 9, 40, 29, 34, 32, 43, 8
            |10, 31, 31, 42, 48, 11, 48, 9, 39, 21, 37, 0, 23, 20, 44, 46, 25, 18, 53, 21, 16, 27, 21, 33, 16, 21, 46, 36, 14, 13, 41, 48, 4, 22, 46, 24, 9, 5, 35, 21, 29
            |13, 13, 12, 19, 32, 13, 32, 15, 17, 2, 23, 23, 0, 22, 23, 24, 4, 19, 35, 24, 16, 17, 28, 16, 25, 8, 31, 14, 21, 10, 18, 27, 21, 3, 31, 17, 17, 18, 14, 20, 19
            |20, 35, 34, 37, 32, 21, 31, 20, 30, 21, 21, 20, 22, 0, 45, 46, 26, 3, 38, 1, 29, 37, 39, 21, 7, 15, 29, 36, 6, 19, 40, 49, 23, 19, 29, 35, 13, 19, 37, 35, 13
            |34, 13, 14, 13, 41, 34, 41, 36, 22, 25, 37, 44, 23, 45, 0, 2, 20, 42, 39, 47, 31, 22, 38, 31, 49, 30, 42, 9, 45, 32, 6, 4, 41, 26, 41, 25, 40, 39, 10, 30, 38
            |35, 15, 15, 12, 40, 35, 40, 37, 21, 26, 37, 46, 24, 46, 2, 0, 21, 43, 37, 47, 33, 24, 40, 30, 50, 31, 41, 10, 46, 33, 6, 3, 43, 27, 40, 27, 42, 41, 11, 32, 38
            |15, 9, 9, 17, 34, 15, 33, 17, 17, 5, 25, 25, 4, 26, 20, 21, 0, 23, 35, 27, 17, 15, 27, 18, 29, 11, 33, 11, 25, 12, 15, 24, 23, 7, 32, 16, 21, 20, 11, 19, 22
            |17, 32, 31, 35, 32, 18, 31, 17, 28, 18, 21, 18, 19, 3, 42, 43, 23, 0, 38, 4, 26, 34, 36, 19, 8, 12, 29, 33, 5, 16, 37, 46, 21, 16, 29, 32, 10, 17, 34, 32, 12
            |46, 41, 40, 26, 8, 46, 9, 48, 19, 36, 17, 53, 35, 38, 39, 37, 35, 38, 0, 39, 51, 50, 62, 20, 45, 33, 11, 35, 43, 43, 34, 40, 53, 34, 10, 51, 45, 49, 38, 54, 25
            |21, 37, 36, 39, 33, 22, 32, 21, 32, 23, 22, 21, 24, 1, 47, 47, 27, 4, 39, 0, 30, 38, 40, 22, 7, 16, 30, 38, 7, 20, 41, 50, 23, 21, 30, 36, 13, 20, 38, 36, 14
            |9, 18, 18, 33, 48, 8, 48, 9, 34, 15, 38, 16, 16, 29, 31, 33, 17, 26, 51, 30, 0, 11, 11, 32, 28, 20, 47, 24, 24, 10, 29, 35, 11, 18, 46, 8, 17, 12, 22, 6, 32
            |18, 10, 11, 27, 49, 17, 48, 19, 31, 17, 40, 27, 17, 37, 22, 24, 15, 34, 50, 38, 11, 0, 16, 33, 37, 24, 48, 17, 33, 18, 22, 25, 23, 20, 47, 3, 27, 23, 14, 8, 36
            |19, 26, 26, 43, 60, 18, 59, 19, 44, 26, 49, 21, 28, 39, 38, 40, 27, 36, 62, 40, 11, 16, 0, 43, 36, 31, 58, 33, 33, 21, 37, 41, 17, 29, 58, 13, 26, 20, 30, 9, 43
            |26, 26, 25, 19, 16, 26, 16, 27, 11, 17, 7, 33, 16, 21, 31, 30, 18, 19, 20, 22, 32, 33, 43, 0, 27, 13, 15, 23, 24, 23, 24, 34, 33, 14, 14, 34, 25, 29, 25, 36, 9
            |19, 38, 37, 42, 39, 20, 38, 18, 36, 24, 28, 16, 25, 7, 49, 50, 29, 8, 45, 7, 28, 37, 36, 27, 0, 19, 36, 40, 4, 19, 44, 52, 19, 23, 36, 35, 10, 16, 40, 34, 20
            |13, 21, 20, 24, 29, 13, 28, 14, 19, 7, 18, 21, 8, 15, 30, 31, 11, 12, 33, 16, 20, 24, 31, 13, 19, 0, 28, 21, 15, 10, 25, 34, 20, 4, 27, 23, 13, 16, 22, 25, 13
            |40, 41, 40, 29, 3, 41, 2, 42, 20, 32, 9, 46, 31, 29, 42, 41, 33, 29, 11, 30, 47, 48, 58, 15, 36, 28, 0, 36, 35, 37, 36, 44, 47, 29, 1, 49, 38, 43, 39, 51, 17
            |25, 7, 6, 11, 36, 25, 36, 27, 17, 16, 30, 36, 14, 36, 9, 10, 11, 33, 35, 38, 24, 17, 33, 23, 40, 21, 36, 0, 35, 23, 5, 13, 33, 17, 35, 19, 31, 31, 3, 24, 30
            |15, 33, 33, 38, 37, 16, 36, 15, 33, 20, 26, 14, 21, 6, 45, 46, 25, 5, 43, 7, 24, 33, 33, 24, 4, 15, 35, 35, 0, 15, 39, 48, 17, 19, 34, 31, 7, 13, 35, 30, 18
            |3, 19, 19, 29, 39, 4, 38, 5, 27, 8, 28, 13, 10, 19, 32, 33, 12, 16, 43, 20, 10, 18, 21, 23, 19, 10, 37, 23, 15, 0, 28, 35, 11, 9, 37, 16, 9, 8, 22, 16, 22
            |30, 11, 11, 8, 35, 30, 35, 32, 16, 20, 31, 41, 18, 40, 6, 6, 15, 37, 34, 41, 29, 22, 37, 24, 44, 25, 36, 5, 39, 28, 0, 9, 38, 21, 35, 24, 36, 35, 7, 29, 32
            |38, 17, 17, 15, 43, 37, 43, 39, 25, 29, 40, 48, 27, 49, 4, 3, 24, 46, 40, 50, 35, 25, 41, 34, 52, 34, 44, 13, 48, 35, 9, 0, 45, 30, 43, 28, 44, 43, 13, 33, 41
            |8, 28, 28, 40, 49, 8, 48, 6, 38, 19, 38, 4, 21, 23, 41, 43, 23, 21, 53, 23, 11, 23, 17, 33, 19, 20, 47, 33, 17, 11, 38, 45, 0, 21, 46, 20, 10, 4, 31, 17, 30
            |13, 16, 15, 21, 30, 13, 30, 15, 17, 3, 21, 22, 3, 19, 26, 27, 7, 16, 34, 21, 18, 20, 29, 14, 23, 4, 29, 17, 19, 9, 21, 30, 21, 0, 29, 20, 16, 17, 17, 22, 16
            |40, 40, 39, 28, 3, 40, 2, 41, 19, 32, 9, 46, 31, 29, 41, 40, 32, 29, 10, 30, 46, 47, 58, 14, 36, 27, 1, 35, 34, 37, 35, 43, 46, 29, 0, 48, 37, 42, 38, 50, 17
            |16, 13, 13, 30, 49, 15, 49, 17, 33, 17, 40, 24, 17, 35, 25, 27, 16, 32, 51, 36, 8, 3, 13, 34, 35, 23, 49, 19, 31, 16, 24, 28, 20, 20, 48, 0, 25, 20, 17, 5, 36
            |9, 28, 28, 36, 40, 9, 39, 8, 32, 16, 29, 9, 17, 13, 40, 42, 21, 10, 45, 13, 17, 27, 26, 25, 10, 13, 38, 31, 7, 9, 36, 44, 10, 16, 37, 25, 0, 6, 31, 23, 21
            |5, 26, 26, 37, 45, 6, 44, 4, 35, 16, 34, 5, 18, 19, 39, 41, 20, 17, 49, 20, 12, 23, 20, 29, 16, 16, 43, 31, 13, 8, 35, 43, 4, 17, 42, 20, 6, 0, 30, 18, 26
            |24, 4, 4, 13, 38, 24, 38, 26, 19, 16, 32, 35, 14, 37, 10, 11, 11, 34, 38, 38, 22, 14, 30, 25, 40, 22, 39, 3, 35, 22, 7, 13, 31, 17, 38, 17, 31, 30, 0, 22, 31
            |15, 17, 18, 34, 52, 14, 52, 15, 36, 19, 43, 21, 20, 35, 30, 32, 19, 32, 54, 36, 6, 8, 9, 36, 34, 25, 51, 24, 30, 16, 29, 33, 17, 22, 50, 5, 23, 18, 22, 0, 37
            |24, 31, 30, 28, 19, 25, 18, 26, 19, 19, 8, 29, 19, 13, 38, 38, 22, 12, 25, 14, 32, 36, 43, 9, 20, 13, 17, 30, 18, 22, 32, 41, 30, 16, 17, 36, 21, 26, 31, 37, 0|];
early = [0, 89, 107, 143, 348, 0, 248, 0, 293, 301, 245, 0, 67, 220, 126, 162, 79, 36, 257, 41, 0, 187, 0, 358, 39, 75, 254, 134, 37, 208, 121, 122, 7, 75, 245, 0, 0, 0, 104, 0, 332];
late = [505, 205, 214, 267, 463, 93, 374, 54, 395, 428, 371, 63, 191, 331, 246, 286, 211, 167, 393, 154, 97, 305, 118, 478, 159, 191, 369, 263, 155, 328, 235, 250, 128, 198, 365, 106, 89, 60, 211, 118, 443];