% n40w160.005    53.83 470
n = 41;
duration = [|0, 14, 7, 23, 2, 32, 29, 29, 25, 38, 44, 31, 42, 30, 34, 24, 25, 13, 6, 40, 3, 36, 31, 26, 24, 5, 5, 22, 21, 36, 33, 38, 44, 38, 24, 24, 17, 11, 37, 27, 23
            |14, 0, 22, 17, 16, 29, 26, 29, 30, 35, 34, 18, 37, 33, 33, 10, 16, 3, 14, 28, 17, 42, 38, 14, 12, 9, 11, 11, 7, 34, 34, 40, 37, 42, 28, 11, 3, 8, 25, 28, 25
            |7, 22, 0, 29, 5, 36, 33, 32, 26, 42, 50, 38, 46, 31, 38, 31, 32, 20, 10, 46, 4, 35, 30, 33, 30, 12, 12, 29, 29, 40, 35, 39, 50, 38, 25, 31, 25, 17, 44, 30, 26
            |23, 17, 29, 0, 25, 12, 10, 13, 19, 17, 21, 16, 20, 20, 16, 22, 5, 20, 27, 19, 25, 31, 29, 12, 27, 20, 18, 8, 18, 17, 19, 26, 21, 29, 18, 24, 18, 24, 17, 14, 13
            |2, 16, 5, 25, 0, 33, 30, 30, 25, 39, 46, 33, 43, 30, 36, 26, 28, 15, 6, 42, 1, 36, 31, 28, 25, 7, 7, 24, 24, 38, 34, 38, 46, 38, 24, 26, 19, 12, 39, 28, 24
            |32, 29, 36, 12, 33, 0, 3, 5, 16, 6, 22, 26, 10, 13, 4, 34, 16, 32, 36, 24, 33, 24, 23, 23, 39, 30, 27, 20, 30, 5, 9, 16, 16, 20, 15, 36, 30, 35, 23, 8, 11
            |29, 26, 33, 10, 30, 3, 0, 4, 14, 9, 24, 25, 13, 12, 6, 32, 14, 29, 33, 24, 29, 23, 22, 21, 37, 27, 24, 18, 28, 8, 9, 17, 19, 20, 13, 34, 27, 32, 24, 6, 9
            |29, 29, 32, 13, 30, 5, 4, 0, 10, 10, 27, 29, 15, 8, 5, 35, 18, 31, 34, 28, 29, 19, 18, 25, 40, 28, 25, 21, 31, 8, 6, 13, 21, 16, 10, 37, 30, 34, 28, 3, 7
            |25, 30, 26, 19, 25, 16, 14, 10, 0, 20, 37, 35, 25, 5, 15, 38, 25, 31, 31, 37, 24, 13, 9, 31, 42, 26, 22, 26, 34, 17, 10, 13, 32, 13, 1, 40, 32, 33, 36, 8, 6
            |38, 35, 42, 17, 39, 6, 9, 10, 20, 0, 21, 29, 5, 16, 5, 38, 20, 37, 42, 25, 39, 25, 26, 27, 45, 36, 33, 25, 35, 3, 11, 16, 13, 20, 20, 41, 35, 41, 25, 13, 17
            |44, 34, 50, 21, 46, 22, 24, 27, 37, 21, 0, 18, 18, 35, 25, 31, 18, 37, 46, 7, 46, 46, 45, 20, 38, 40, 39, 22, 30, 24, 31, 37, 10, 41, 36, 34, 32, 42, 10, 30, 32
            |31, 18, 38, 16, 33, 26, 25, 29, 35, 29, 18, 0, 29, 36, 30, 13, 11, 21, 31, 11, 34, 47, 45, 5, 20, 26, 26, 10, 13, 30, 34, 41, 25, 44, 34, 16, 16, 25, 8, 30, 29
            |42, 37, 46, 20, 43, 10, 13, 15, 25, 5, 18, 29, 0, 21, 10, 40, 22, 40, 46, 23, 43, 30, 31, 28, 46, 40, 37, 26, 37, 8, 16, 20, 9, 24, 25, 43, 37, 44, 24, 18, 21
            |30, 33, 31, 20, 30, 13, 12, 8, 5, 16, 35, 36, 21, 0, 11, 40, 25, 35, 35, 36, 29, 11, 10, 32, 45, 30, 27, 27, 37, 13, 6, 8, 29, 9, 6, 42, 35, 37, 36, 6, 8
            |34, 33, 38, 16, 36, 4, 6, 5, 15, 5, 25, 30, 10, 11, 0, 38, 20, 35, 39, 27, 35, 21, 21, 27, 43, 33, 30, 24, 34, 2, 6, 12, 18, 16, 15, 40, 34, 38, 27, 8, 12
            |24, 10, 31, 22, 26, 34, 32, 35, 38, 38, 31, 13, 40, 40, 38, 0, 18, 11, 22, 25, 27, 51, 47, 12, 7, 19, 21, 14, 4, 39, 40, 47, 37, 50, 37, 3, 7, 15, 22, 35, 33
            |25, 16, 32, 5, 28, 16, 14, 18, 25, 20, 18, 11, 22, 25, 20, 18, 0, 19, 28, 15, 28, 36, 34, 7, 25, 22, 21, 5, 16, 21, 24, 31, 20, 34, 23, 21, 16, 24, 13, 19, 18
            |13, 3, 20, 20, 15, 32, 29, 31, 31, 37, 37, 21, 40, 35, 35, 11, 19, 0, 11, 31, 16, 44, 40, 17, 11, 8, 11, 15, 9, 37, 36, 43, 40, 44, 30, 11, 5, 5, 28, 30, 27
            |6, 14, 10, 27, 6, 36, 33, 34, 31, 42, 46, 31, 46, 35, 39, 22, 28, 11, 0, 41, 8, 42, 37, 27, 20, 6, 9, 24, 20, 41, 38, 43, 48, 44, 29, 21, 16, 7, 38, 32, 28
            |40, 28, 46, 19, 42, 24, 24, 28, 37, 25, 7, 11, 23, 36, 27, 25, 15, 31, 41, 0, 42, 47, 46, 14, 32, 35, 35, 18, 24, 27, 33, 40, 16, 43, 36, 28, 26, 36, 3, 30, 31
            |3, 17, 4, 25, 1, 33, 29, 29, 24, 39, 46, 34, 43, 29, 35, 27, 28, 16, 8, 42, 0, 35, 30, 29, 26, 8, 7, 24, 24, 37, 33, 37, 46, 37, 23, 27, 20, 14, 39, 27, 23
            |36, 42, 35, 31, 36, 24, 23, 19, 13, 25, 46, 47, 30, 11, 21, 51, 36, 44, 42, 47, 35, 0, 5, 43, 54, 38, 34, 38, 47, 22, 15, 10, 39, 6, 14, 53, 45, 45, 47, 18, 18
            |31, 38, 30, 29, 31, 23, 22, 18, 9, 26, 45, 45, 31, 10, 21, 47, 34, 40, 37, 46, 30, 5, 0, 40, 50, 33, 30, 35, 44, 23, 15, 13, 39, 10, 11, 49, 41, 40, 45, 16, 16
            |26, 14, 33, 12, 28, 23, 21, 25, 31, 27, 20, 5, 28, 32, 27, 12, 7, 17, 27, 14, 29, 43, 40, 0, 19, 21, 21, 5, 10, 28, 31, 38, 25, 40, 29, 15, 12, 22, 11, 26, 25
            |24, 12, 30, 27, 25, 39, 37, 40, 42, 45, 38, 20, 46, 45, 43, 7, 25, 11, 20, 32, 26, 54, 50, 19, 0, 19, 22, 20, 9, 45, 45, 52, 44, 54, 40, 4, 10, 13, 29, 39, 37
            |5, 9, 12, 20, 7, 30, 27, 28, 26, 36, 40, 26, 40, 30, 33, 19, 22, 8, 6, 35, 8, 38, 33, 21, 19, 0, 4, 18, 16, 35, 33, 38, 41, 39, 25, 19, 12, 7, 33, 26, 23
            |5, 11, 12, 18, 7, 27, 24, 25, 22, 33, 39, 26, 37, 27, 30, 21, 21, 11, 9, 35, 7, 34, 30, 21, 22, 4, 0, 17, 18, 32, 29, 35, 39, 35, 21, 22, 14, 11, 32, 23, 19
            |22, 11, 29, 8, 24, 20, 18, 21, 26, 25, 22, 10, 26, 27, 24, 14, 5, 15, 24, 18, 24, 38, 35, 5, 20, 18, 17, 0, 11, 25, 27, 34, 25, 36, 25, 17, 11, 19, 15, 21, 20
            |21, 7, 29, 18, 24, 30, 28, 31, 34, 35, 30, 13, 37, 37, 34, 4, 16, 9, 20, 24, 24, 47, 44, 10, 9, 16, 18, 11, 0, 36, 37, 44, 35, 46, 33, 6, 4, 14, 21, 31, 29
            |36, 34, 40, 17, 38, 5, 8, 8, 17, 3, 24, 30, 8, 13, 2, 39, 21, 37, 41, 27, 37, 22, 23, 28, 45, 35, 32, 25, 36, 0, 8, 13, 16, 17, 17, 42, 35, 40, 27, 10, 14
            |33, 34, 35, 19, 34, 9, 9, 6, 10, 11, 31, 34, 16, 6, 6, 40, 24, 36, 38, 33, 33, 15, 15, 31, 45, 33, 29, 27, 37, 8, 0, 7, 24, 10, 11, 43, 36, 39, 33, 6, 10
            |38, 40, 39, 26, 38, 16, 17, 13, 13, 16, 37, 41, 20, 8, 12, 47, 31, 43, 43, 40, 37, 10, 13, 38, 52, 38, 35, 34, 44, 13, 7, 0, 29, 4, 14, 50, 42, 45, 40, 13, 16
            |44, 37, 50, 21, 46, 16, 19, 21, 32, 13, 10, 25, 9, 29, 18, 37, 20, 40, 48, 16, 46, 39, 39, 25, 44, 41, 39, 25, 35, 16, 24, 29, 0, 33, 31, 40, 36, 44, 18, 24, 27
            |38, 42, 38, 29, 38, 20, 20, 16, 13, 20, 41, 44, 24, 9, 16, 50, 34, 44, 44, 43, 37, 6, 10, 40, 54, 39, 35, 36, 46, 17, 10, 4, 33, 0, 14, 52, 44, 46, 43, 15, 17
            |24, 28, 25, 18, 24, 15, 13, 10, 1, 20, 36, 34, 25, 6, 15, 37, 23, 30, 29, 36, 23, 14, 11, 29, 40, 25, 21, 25, 33, 17, 11, 14, 31, 14, 0, 38, 30, 31, 35, 7, 5
            |24, 11, 31, 24, 26, 36, 34, 37, 40, 41, 34, 16, 43, 42, 40, 3, 21, 11, 21, 28, 27, 53, 49, 15, 4, 19, 22, 17, 6, 42, 43, 50, 40, 52, 38, 0, 8, 14, 25, 37, 35
            |17, 3, 25, 18, 19, 30, 27, 30, 32, 35, 32, 16, 37, 35, 34, 7, 16, 5, 16, 26, 20, 45, 41, 12, 10, 12, 14, 11, 4, 35, 36, 42, 36, 44, 30, 8, 0, 10, 23, 29, 27
            |11, 8, 17, 24, 12, 35, 32, 34, 33, 41, 42, 25, 44, 37, 38, 15, 24, 5, 7, 36, 14, 45, 40, 22, 13, 7, 11, 19, 14, 40, 39, 45, 44, 46, 31, 14, 10, 0, 33, 33, 29
            |37, 25, 44, 17, 39, 23, 24, 28, 36, 25, 10, 8, 24, 36, 27, 22, 13, 28, 38, 3, 39, 47, 45, 11, 29, 33, 32, 15, 21, 27, 33, 40, 18, 43, 35, 25, 23, 33, 0, 29, 30
            |27, 28, 30, 14, 28, 8, 6, 3, 8, 13, 30, 30, 18, 6, 8, 35, 19, 30, 32, 30, 27, 18, 16, 26, 39, 26, 23, 21, 31, 10, 6, 13, 24, 15, 7, 37, 29, 33, 29, 0, 4
            |23, 25, 26, 13, 24, 11, 9, 7, 6, 17, 32, 29, 21, 8, 12, 33, 18, 27, 28, 31, 23, 18, 16, 25, 37, 23, 19, 20, 29, 14, 10, 16, 27, 17, 5, 35, 27, 29, 30, 4, 0|];
early = [0, 0, 0, 41, 0, 84, 59, 80, 125, 80, 226, 24, 325, 61, 64, 0, 179, 0, 0, 227, 0, 83, 152, 0, 3, 0, 164, 48, 0, 96, 116, 130, 294, 109, 337, 237, 0, 0, 238, 75, 299];
late = [558, 148, 64, 187, 109, 193, 226, 216, 276, 204, 374, 163, 516, 255, 256, 168, 340, 123, 90, 387, 63, 276, 298, 172, 144, 128, 306, 206, 123, 203, 269, 308, 467, 242, 510, 434, 118, 121, 395, 259, 462];