% n40w140.004	   38.55 524
n = 41;
duration = [|0, 18, 7, 4, 44, 17, 22, 19, 8, 14, 33, 34, 2, 31, 8, 25, 30, 14, 9, 36, 34, 28, 36, 6, 19, 8, 11, 9, 17, 42, 8, 31, 18, 20, 25, 37, 20, 14, 14, 30, 13
            |18, 0, 25, 18, 27, 29, 16, 1, 10, 17, 31, 25, 19, 15, 18, 11, 31, 18, 26, 25, 23, 15, 23, 19, 9, 12, 17, 17, 8, 26, 26, 18, 22, 13, 16, 28, 14, 27, 10, 15, 11
            |7, 25, 0, 8, 51, 16, 27, 26, 15, 19, 35, 39, 6, 38, 12, 32, 32, 18, 6, 41, 40, 35, 42, 8, 26, 14, 15, 12, 23, 49, 1, 38, 21, 26, 30, 42, 26, 12, 21, 37, 19
            |4, 18, 8, 0, 45, 21, 25, 20, 9, 11, 36, 37, 2, 31, 4, 24, 33, 11, 8, 38, 36, 27, 39, 9, 18, 10, 15, 12, 19, 43, 8, 30, 14, 18, 27, 40, 23, 17, 13, 32, 16
            |44, 27, 51, 45, 0, 50, 29, 25, 36, 42, 39, 25, 45, 21, 44, 27, 41, 43, 53, 21, 21, 28, 16, 44, 32, 37, 39, 41, 28, 6, 52, 29, 46, 35, 26, 25, 29, 50, 35, 16, 33
            |17, 29, 16, 21, 50, 0, 21, 30, 23, 32, 23, 31, 19, 44, 25, 39, 18, 31, 22, 35, 33, 43, 38, 12, 35, 18, 12, 12, 23, 46, 17, 46, 35, 36, 25, 34, 21, 4, 30, 34, 18
            |22, 16, 27, 25, 29, 21, 0, 16, 19, 30, 15, 12, 24, 29, 27, 27, 15, 31, 31, 14, 13, 31, 16, 19, 25, 15, 12, 15, 9, 25, 28, 34, 35, 29, 4, 15, 2, 22, 24, 14, 9
            |19, 1, 26, 20, 25, 30, 16, 0, 11, 18, 31, 25, 21, 14, 19, 11, 31, 19, 28, 24, 22, 15, 22, 21, 10, 13, 18, 18, 9, 24, 27, 18, 23, 14, 16, 27, 14, 29, 11, 14, 12
            |8, 10, 15, 9, 36, 23, 19, 11, 0, 12, 32, 30, 9, 23, 9, 17, 30, 12, 16, 31, 29, 21, 31, 11, 12, 5, 12, 11, 11, 35, 16, 24, 17, 14, 20, 33, 16, 20, 8, 23, 10
            |14, 17, 19, 11, 42, 32, 30, 18, 12, 0, 44, 41, 14, 24, 7, 16, 41, 1, 16, 41, 39, 19, 40, 20, 11, 16, 23, 21, 22, 42, 19, 21, 5, 9, 31, 44, 28, 29, 7, 32, 21
            |33, 31, 35, 36, 39, 23, 15, 31, 32, 44, 0, 14, 34, 43, 39, 42, 4, 44, 41, 18, 18, 46, 23, 28, 40, 27, 21, 24, 23, 33, 36, 49, 48, 44, 17, 15, 17, 25, 38, 25, 22
            |34, 25, 39, 37, 25, 31, 12, 25, 30, 41, 14, 0, 36, 33, 39, 34, 17, 42, 44, 4, 4, 38, 9, 31, 34, 27, 24, 27, 19, 19, 40, 40, 46, 38, 10, 3, 14, 33, 34, 14, 21
            |2, 19, 6, 2, 45, 19, 24, 21, 9, 14, 34, 36, 0, 32, 7, 25, 31, 13, 8, 38, 36, 29, 38, 7, 20, 9, 13, 10, 18, 44, 7, 32, 17, 20, 26, 39, 22, 15, 14, 32, 15
            |31, 15, 38, 31, 21, 44, 29, 14, 23, 24, 43, 33, 32, 0, 29, 8, 44, 25, 38, 31, 30, 7, 27, 34, 13, 26, 32, 32, 22, 24, 39, 8, 27, 16, 27, 35, 27, 42, 19, 20, 26
            |8, 18, 12, 4, 44, 25, 27, 19, 9, 7, 39, 39, 7, 29, 0, 21, 37, 6, 10, 40, 38, 24, 40, 13, 15, 12, 18, 16, 20, 43, 12, 27, 10, 15, 29, 42, 25, 22, 10, 32, 18
            |25, 11, 32, 24, 27, 39, 27, 11, 17, 16, 42, 34, 25, 8, 21, 0, 42, 18, 31, 33, 31, 4, 30, 28, 6, 21, 27, 27, 19, 29, 32, 7, 20, 8, 26, 37, 25, 37, 11, 22, 22
            |30, 31, 32, 33, 41, 18, 15, 31, 30, 41, 4, 17, 31, 44, 37, 42, 0, 42, 37, 22, 21, 46, 26, 24, 39, 25, 18, 21, 22, 36, 33, 49, 46, 43, 17, 19, 17, 21, 37, 27, 21
            |14, 18, 18, 11, 43, 31, 31, 19, 12, 1, 44, 42, 13, 25, 6, 18, 42, 0, 15, 42, 40, 20, 41, 19, 12, 17, 23, 21, 23, 43, 18, 22, 4, 10, 32, 45, 28, 28, 8, 33, 22
            |9, 26, 6, 8, 53, 22, 31, 28, 16, 16, 41, 44, 8, 38, 10, 31, 37, 15, 0, 45, 43, 34, 46, 13, 25, 17, 20, 17, 26, 51, 5, 36, 17, 24, 34, 47, 30, 18, 20, 39, 23
            |36, 25, 41, 38, 21, 35, 14, 24, 31, 41, 18, 4, 38, 31, 40, 33, 22, 42, 45, 0, 2, 36, 5, 33, 34, 28, 26, 29, 20, 15, 42, 39, 46, 38, 11, 4, 16, 36, 35, 11, 23
            |34, 23, 40, 36, 21, 33, 13, 22, 29, 39, 18, 4, 36, 30, 38, 31, 21, 40, 43, 2, 0, 34, 5, 31, 32, 26, 25, 27, 18, 15, 40, 37, 44, 36, 9, 6, 14, 34, 33, 10, 21
            |28, 15, 35, 27, 28, 43, 31, 15, 21, 19, 46, 38, 29, 7, 24, 4, 46, 20, 34, 36, 34, 0, 33, 32, 9, 25, 32, 31, 23, 30, 35, 3, 21, 10, 30, 40, 29, 41, 15, 25, 26
            |36, 23, 42, 39, 16, 38, 16, 22, 31, 40, 23, 9, 38, 27, 40, 30, 26, 41, 46, 5, 5, 33, 0, 34, 32, 29, 28, 31, 20, 10, 43, 35, 45, 36, 13, 9, 17, 38, 33, 8, 23
            |6, 19, 8, 9, 44, 12, 19, 21, 11, 20, 28, 31, 7, 34, 13, 28, 24, 19, 13, 33, 31, 32, 34, 0, 23, 8, 7, 4, 16, 41, 9, 35, 23, 25, 22, 34, 17, 9, 18, 29, 11
            |19, 9, 26, 18, 32, 35, 25, 10, 12, 11, 40, 34, 20, 13, 15, 6, 39, 12, 25, 34, 32, 9, 32, 23, 0, 16, 23, 23, 17, 32, 26, 12, 15, 4, 25, 37, 23, 32, 5, 23, 19
            |8, 12, 14, 10, 37, 18, 15, 13, 5, 16, 27, 27, 9, 26, 12, 21, 25, 17, 17, 28, 26, 25, 29, 8, 16, 0, 7, 6, 9, 34, 15, 28, 21, 19, 17, 30, 13, 16, 13, 22, 6
            |11, 17, 15, 15, 39, 12, 12, 18, 12, 23, 21, 24, 13, 32, 18, 27, 18, 23, 20, 26, 25, 32, 28, 7, 23, 7, 0, 3, 11, 35, 16, 35, 28, 26, 15, 27, 11, 11, 20, 23, 6
            |9, 17, 12, 12, 41, 12, 15, 18, 11, 21, 24, 27, 10, 32, 16, 27, 21, 21, 17, 29, 27, 31, 31, 4, 23, 6, 3, 0, 12, 37, 13, 34, 25, 25, 18, 30, 13, 10, 18, 25, 8
            |17, 8, 23, 19, 28, 23, 9, 9, 11, 22, 23, 19, 18, 22, 20, 19, 22, 23, 26, 20, 18, 23, 20, 16, 17, 9, 11, 12, 0, 26, 24, 26, 27, 21, 9, 22, 6, 22, 16, 14, 4
            |42, 26, 49, 43, 6, 46, 25, 24, 35, 42, 33, 19, 44, 24, 43, 29, 36, 43, 51, 15, 15, 30, 10, 41, 32, 34, 35, 37, 26, 0, 49, 32, 47, 36, 21, 19, 25, 46, 35, 12, 30
            |8, 26, 1, 8, 52, 17, 28, 27, 16, 19, 36, 40, 7, 39, 12, 32, 33, 18, 5, 42, 40, 35, 43, 9, 26, 15, 16, 13, 24, 49, 0, 38, 21, 26, 31, 43, 27, 13, 21, 37, 20
            |31, 18, 38, 30, 29, 46, 34, 18, 24, 21, 49, 40, 32, 8, 27, 7, 49, 22, 36, 39, 37, 3, 35, 35, 12, 28, 35, 34, 26, 32, 38, 0, 23, 12, 33, 43, 32, 44, 17, 27, 29
            |18, 22, 21, 14, 46, 35, 35, 23, 17, 5, 48, 46, 17, 27, 10, 20, 46, 4, 17, 46, 44, 21, 45, 23, 15, 21, 28, 25, 27, 47, 21, 23, 0, 12, 36, 49, 33, 32, 12, 37, 26
            |20, 13, 26, 18, 35, 36, 29, 14, 14, 9, 44, 38, 20, 16, 15, 8, 43, 10, 24, 38, 36, 10, 36, 25, 4, 19, 26, 25, 21, 36, 26, 12, 12, 0, 29, 41, 27, 34, 6, 27, 22
            |25, 16, 30, 27, 26, 25, 4, 16, 20, 31, 17, 10, 26, 27, 29, 26, 17, 32, 34, 11, 9, 30, 13, 22, 25, 17, 15, 18, 9, 21, 31, 33, 36, 29, 0, 13, 4, 25, 25, 10, 11
            |37, 28, 42, 40, 25, 34, 15, 27, 33, 44, 15, 3, 39, 35, 42, 37, 19, 45, 47, 4, 6, 40, 9, 34, 37, 30, 27, 30, 22, 19, 43, 43, 49, 41, 13, 0, 17, 35, 37, 16, 24
            |20, 14, 26, 23, 29, 21, 2, 14, 16, 28, 17, 14, 22, 27, 25, 25, 17, 28, 30, 16, 14, 29, 17, 17, 23, 13, 11, 13, 6, 25, 27, 32, 33, 27, 4, 17, 0, 21, 22, 13, 7
            |14, 27, 12, 17, 50, 4, 22, 29, 20, 29, 25, 33, 15, 42, 22, 37, 21, 28, 18, 36, 34, 41, 38, 9, 32, 16, 11, 10, 22, 46, 13, 44, 32, 34, 25, 35, 21, 0, 27, 34, 17
            |14, 10, 21, 13, 35, 30, 24, 11, 8, 7, 38, 34, 14, 19, 10, 11, 37, 8, 20, 35, 33, 15, 33, 18, 5, 13, 20, 18, 16, 35, 21, 17, 12, 6, 25, 37, 22, 27, 0, 25, 16
            |30, 15, 37, 32, 16, 34, 14, 14, 23, 32, 25, 14, 32, 20, 32, 22, 27, 33, 39, 11, 10, 25, 8, 29, 23, 22, 23, 25, 14, 12, 37, 27, 37, 27, 10, 16, 13, 34, 25, 0, 18
            |13, 11, 19, 16, 33, 18, 9, 12, 10, 21, 22, 21, 15, 26, 18, 22, 21, 22, 23, 23, 21, 26, 23, 11, 19, 6, 6, 8, 4, 30, 20, 29, 26, 22, 11, 24, 7, 17, 16, 18, 0|];