% n40w120.001    20.75 530
n = 41;
duration = [|0, 51, 27, 42, 41, 48, 2, 6, 49, 36, 9, 33, 13, 11, 46, 6, 7, 47, 54, 36, 58, 24, 18, 42, 46, 36, 31, 20, 27, 33, 28, 13, 34, 59, 34, 29, 29, 8, 44, 26, 46
            |51, 0, 43, 9, 31, 47, 49, 55, 4, 22, 43, 29, 41, 53, 31, 52, 46, 53, 19, 25, 23, 31, 34, 24, 6, 41, 29, 36, 24, 29, 23, 40, 24, 23, 24, 47, 48, 43, 6, 37, 6
            |27, 43, 0, 34, 18, 21, 26, 26, 39, 42, 19, 43, 16, 20, 23, 23, 20, 21, 37, 43, 39, 35, 29, 23, 41, 9, 40, 34, 25, 43, 29, 30, 19, 40, 40, 4, 5, 22, 38, 6, 40
            |42, 9, 34, 0, 24, 40, 40, 46, 6, 19, 34, 25, 32, 44, 25, 43, 37, 46, 18, 22, 23, 25, 26, 17, 8, 33, 24, 30, 16, 25, 16, 33, 15, 23, 20, 38, 39, 34, 4, 28, 7
            |41, 31, 18, 24, 0, 16, 40, 42, 27, 40, 33, 43, 28, 37, 5, 39, 34, 22, 19, 42, 21, 38, 35, 8, 32, 11, 42, 40, 25, 43, 29, 39, 12, 22, 39, 21, 21, 34, 29, 16, 31
            |48, 47, 21, 40, 16, 0, 47, 47, 42, 55, 40, 58, 36, 41, 17, 44, 41, 7, 32, 57, 32, 51, 47, 23, 48, 12, 56, 53, 39, 58, 43, 49, 27, 33, 54, 20, 20, 42, 45, 24, 47
            |2, 49, 26, 40, 40, 47, 0, 8, 46, 34, 7, 31, 11, 11, 45, 7, 6, 47, 52, 34, 56, 22, 16, 40, 44, 35, 29, 18, 24, 31, 25, 11, 32, 57, 32, 29, 29, 6, 42, 24, 43
            |6, 55, 26, 46, 42, 47, 8, 0, 52, 42, 12, 39, 15, 6, 47, 3, 9, 45, 57, 42, 60, 30, 24, 43, 51, 35, 37, 26, 31, 39, 33, 19, 36, 61, 40, 27, 27, 13, 49, 26, 50
            |49, 4, 39, 6, 27, 42, 46, 52, 0, 23, 41, 30, 38, 51, 26, 50, 43, 48, 15, 26, 20, 31, 33, 19, 8, 37, 29, 36, 22, 30, 22, 39, 20, 20, 25, 43, 44, 40, 6, 33, 7
            |36, 22, 42, 19, 40, 55, 34, 42, 23, 0, 32, 7, 32, 43, 42, 40, 34, 59, 37, 3, 42, 13, 18, 34, 16, 45, 7, 17, 17, 7, 13, 24, 28, 42, 2, 46, 47, 30, 17, 36, 16
            |9, 43, 19, 34, 33, 40, 7, 12, 41, 32, 0, 30, 4, 11, 37, 9, 2, 40, 45, 32, 49, 21, 15, 33, 39, 28, 28, 18, 19, 30, 21, 12, 25, 50, 30, 22, 23, 3, 37, 17, 39
            |33, 29, 43, 25, 43, 58, 31, 39, 30, 7, 30, 0, 30, 41, 46, 37, 32, 61, 43, 4, 48, 9, 16, 38, 22, 47, 2, 13, 19, 0, 14, 20, 31, 48, 5, 47, 48, 28, 24, 37, 23
            |13, 41, 16, 32, 28, 36, 11, 15, 38, 32, 4, 30, 0, 13, 33, 12, 6, 37, 42, 32, 46, 21, 15, 29, 37, 24, 28, 20, 17, 30, 20, 14, 21, 46, 30, 19, 20, 6, 35, 13, 36
            |11, 53, 20, 44, 37, 41, 11, 6, 51, 43, 11, 41, 13, 0, 42, 5, 9, 39, 53, 43, 57, 32, 25, 40, 50, 30, 39, 28, 30, 41, 32, 22, 33, 57, 41, 21, 21, 13, 47, 21, 49
            |46, 31, 23, 25, 5, 17, 45, 47, 26, 42, 37, 46, 33, 42, 0, 44, 39, 23, 16, 44, 17, 42, 39, 8, 33, 16, 44, 44, 28, 46, 32, 43, 15, 18, 42, 25, 26, 39, 29, 21, 31
            |6, 52, 23, 43, 39, 44, 7, 3, 50, 40, 9, 37, 12, 5, 44, 0, 7, 43, 54, 40, 57, 28, 22, 41, 48, 33, 35, 25, 28, 37, 30, 17, 33, 58, 38, 25, 25, 10, 46, 23, 48
            |7, 46, 20, 37, 34, 41, 6, 9, 43, 34, 2, 32, 6, 9, 39, 7, 0, 41, 48, 34, 51, 23, 16, 35, 41, 29, 30, 20, 22, 32, 24, 13, 27, 52, 32, 23, 23, 4, 39, 18, 41
            |47, 53, 21, 46, 22, 7, 47, 45, 48, 59, 40, 61, 37, 39, 23, 43, 41, 0, 39, 61, 39, 54, 49, 29, 54, 14, 59, 55, 43, 61, 47, 51, 31, 40, 58, 18, 18, 43, 50, 25, 52
            |54, 19, 37, 18, 19, 32, 52, 57, 15, 37, 45, 43, 42, 53, 16, 54, 48, 39, 0, 40, 5, 42, 42, 14, 23, 31, 42, 46, 30, 43, 32, 47, 21, 5, 38, 40, 40, 46, 21, 32, 22
            |36, 25, 43, 22, 42, 57, 34, 42, 26, 3, 32, 4, 32, 43, 44, 40, 34, 61, 40, 0, 45, 12, 18, 36, 19, 47, 5, 16, 18, 4, 14, 23, 30, 45, 3, 48, 49, 30, 20, 37, 19
            |58, 23, 39, 23, 21, 32, 56, 60, 20, 42, 49, 48, 46, 57, 17, 57, 51, 39, 5, 45, 0, 47, 46, 17, 28, 32, 47, 51, 35, 48, 37, 52, 24, 1, 43, 42, 42, 50, 25, 35, 27
            |24, 31, 35, 25, 38, 51, 22, 30, 31, 13, 21, 9, 21, 32, 42, 28, 23, 54, 42, 12, 47, 0, 6, 34, 25, 40, 7, 5, 13, 9, 10, 11, 26, 47, 10, 39, 40, 18, 25, 29, 26
            |18, 34, 29, 26, 35, 47, 16, 24, 33, 18, 15, 16, 15, 25, 39, 22, 16, 49, 42, 18, 46, 6, 0, 32, 29, 35, 13, 5, 12, 16, 11, 6, 24, 47, 16, 33, 34, 12, 28, 24, 28
            |42, 24, 23, 17, 8, 23, 40, 43, 19, 34, 33, 38, 29, 40, 8, 41, 35, 29, 14, 36, 17, 34, 32, 0, 25, 18, 36, 37, 21, 38, 24, 37, 8, 18, 34, 26, 27, 34, 21, 19, 24
            |46, 6, 41, 8, 32, 48, 44, 51, 8, 16, 39, 22, 37, 50, 33, 48, 41, 54, 23, 19, 28, 25, 29, 25, 0, 41, 22, 30, 20, 22, 18, 35, 23, 28, 17, 46, 47, 38, 4, 35, 1
            |36, 41, 9, 33, 11, 12, 35, 35, 37, 45, 28, 47, 24, 30, 16, 33, 29, 14, 31, 47, 32, 40, 35, 18, 41, 0, 45, 41, 28, 47, 33, 37, 18, 33, 44, 10, 11, 30, 37, 11, 40
            |31, 29, 40, 24, 42, 56, 29, 37, 29, 7, 28, 2, 28, 39, 44, 35, 30, 59, 42, 5, 47, 7, 13, 36, 22, 45, 0, 11, 17, 2, 13, 18, 30, 47, 5, 45, 46, 25, 23, 35, 23
            |20, 36, 34, 30, 40, 53, 18, 26, 36, 17, 18, 13, 20, 28, 44, 25, 20, 55, 46, 16, 51, 5, 5, 37, 30, 41, 11, 0, 16, 13, 14, 7, 29, 51, 15, 38, 39, 16, 30, 30, 30
            |27, 24, 25, 16, 25, 39, 24, 31, 22, 17, 19, 19, 17, 30, 28, 28, 22, 43, 30, 18, 35, 13, 12, 21, 20, 28, 17, 16, 0, 19, 4, 17, 13, 35, 16, 30, 30, 18, 18, 19, 19
            |33, 29, 43, 25, 43, 58, 31, 39, 30, 7, 30, 0, 30, 41, 46, 37, 32, 61, 43, 4, 48, 9, 16, 38, 22, 47, 2, 13, 19, 0, 14, 20, 31, 48, 5, 47, 48, 28, 24, 37, 23
            |28, 23, 29, 16, 29, 43, 25, 33, 22, 13, 21, 14, 20, 32, 32, 30, 24, 47, 32, 14, 37, 10, 11, 24, 18, 33, 13, 14, 4, 14, 0, 17, 17, 37, 11, 34, 34, 20, 17, 23, 18
            |13, 40, 30, 33, 39, 49, 11, 19, 39, 24, 12, 20, 14, 22, 43, 17, 13, 51, 47, 23, 52, 11, 6, 37, 35, 37, 18, 7, 17, 20, 17, 0, 29, 52, 22, 34, 34, 9, 34, 26, 35
            |34, 24, 19, 15, 12, 27, 32, 36, 20, 28, 25, 31, 21, 33, 15, 33, 27, 31, 21, 30, 24, 26, 24, 8, 23, 18, 30, 29, 13, 31, 17, 29, 0, 25, 27, 23, 24, 26, 20, 13, 22
            |59, 23, 40, 23, 22, 33, 57, 61, 20, 42, 50, 48, 46, 57, 18, 58, 52, 40, 5, 45, 1, 47, 47, 18, 28, 33, 47, 51, 35, 48, 37, 52, 25, 0, 43, 42, 43, 50, 25, 36, 27
            |34, 24, 40, 20, 39, 54, 32, 40, 25, 2, 30, 5, 30, 41, 42, 38, 32, 58, 38, 3, 43, 10, 16, 34, 17, 44, 5, 15, 16, 5, 11, 22, 27, 43, 0, 45, 46, 28, 18, 34, 18
            |29, 47, 4, 38, 21, 20, 29, 27, 43, 46, 22, 47, 19, 21, 25, 25, 23, 18, 40, 48, 42, 39, 33, 26, 46, 10, 45, 38, 30, 47, 34, 34, 23, 42, 45, 0, 1, 25, 42, 11, 45
            |29, 48, 5, 39, 21, 20, 29, 27, 44, 47, 23, 48, 20, 21, 26, 25, 23, 18, 40, 49, 42, 40, 34, 27, 47, 11, 46, 39, 30, 48, 34, 34, 24, 43, 46, 1, 0, 25, 43, 12, 46
            |8, 43, 22, 34, 34, 42, 6, 13, 40, 30, 3, 28, 6, 13, 39, 10, 4, 43, 46, 30, 50, 18, 12, 34, 38, 30, 25, 16, 18, 28, 20, 9, 26, 50, 28, 25, 25, 0, 36, 19, 38
            |44, 6, 38, 4, 29, 45, 42, 49, 6, 17, 37, 24, 35, 47, 29, 46, 39, 50, 21, 20, 25, 25, 28, 21, 4, 37, 23, 30, 18, 24, 17, 34, 20, 25, 18, 42, 43, 36, 0, 32, 2
            |26, 37, 6, 28, 16, 24, 24, 26, 33, 36, 17, 37, 13, 21, 21, 23, 18, 25, 32, 37, 35, 29, 24, 19, 35, 11, 35, 30, 19, 37, 23, 26, 13, 36, 34, 11, 12, 19, 32, 0, 34
            |46, 6, 40, 7, 31, 47, 43, 50, 7, 16, 39, 23, 36, 49, 31, 48, 41, 52, 22, 19, 27, 26, 28, 24, 1, 40, 23, 30, 19, 23, 18, 35, 22, 27, 18, 45, 46, 38, 2, 34, 0|];