% n40w200.005    90.83 488
n = 41;
duration = [|0, 8, 10, 24, 27, 37, 22, 12, 33, 39, 25, 15, 17, 16, 12, 15, 13, 35, 29, 29, 20, 18, 9, 25, 24, 26, 9, 14, 13, 11, 25, 20, 19, 15, 4, 31, 25, 28, 28, 9, 26
            |8, 0, 18, 27, 24, 40, 18, 19, 40, 43, 29, 22, 17, 24, 11, 21, 21, 42, 32, 37, 17, 25, 14, 27, 21, 20, 1, 22, 9, 8, 28, 28, 22, 23, 9, 37, 31, 24, 23, 16, 28
            |10, 18, 0, 29, 36, 41, 32, 13, 29, 41, 29, 16, 25, 6, 15, 7, 3, 31, 33, 23, 30, 9, 7, 32, 34, 37, 19, 4, 19, 21, 30, 12, 25, 5, 10, 31, 26, 38, 38, 12, 31
            |24, 27, 29, 0, 18, 13, 19, 16, 24, 16, 4, 14, 12, 34, 35, 36, 28, 24, 5, 28, 17, 37, 32, 5, 19, 27, 26, 32, 35, 20, 2, 26, 5, 33, 27, 14, 11, 22, 23, 17, 2
            |27, 24, 36, 18, 0, 25, 6, 27, 42, 31, 22, 27, 11, 42, 35, 42, 37, 43, 22, 45, 7, 45, 36, 14, 4, 11, 22, 40, 33, 17, 17, 40, 16, 41, 30, 33, 29, 4, 5, 26, 18
            |37, 40, 41, 13, 25, 0, 28, 28, 28, 7, 12, 26, 24, 46, 48, 48, 40, 27, 8, 36, 27, 50, 45, 13, 27, 36, 38, 44, 48, 32, 12, 37, 18, 45, 40, 16, 18, 28, 30, 30, 11
            |22, 18, 32, 19, 6, 28, 0, 25, 42, 34, 23, 25, 9, 38, 30, 37, 33, 42, 23, 43, 2, 40, 31, 16, 2, 8, 17, 36, 27, 11, 18, 37, 16, 37, 25, 33, 29, 6, 6, 23, 19
            |12, 19, 13, 16, 27, 28, 25, 0, 21, 29, 16, 3, 16, 17, 23, 20, 12, 23, 20, 19, 22, 21, 17, 20, 26, 31, 19, 16, 25, 17, 18, 12, 13, 17, 15, 20, 14, 30, 31, 3, 18
            |33, 40, 29, 24, 42, 28, 42, 21, 0, 23, 21, 19, 33, 30, 43, 35, 26, 2, 23, 10, 40, 34, 36, 30, 43, 50, 40, 30, 46, 37, 26, 18, 26, 30, 36, 12, 13, 46, 47, 24, 25
            |39, 43, 41, 16, 31, 7, 34, 29, 23, 0, 14, 26, 28, 45, 51, 48, 40, 22, 11, 32, 32, 50, 46, 18, 33, 41, 42, 44, 51, 36, 16, 35, 21, 45, 43, 12, 16, 35, 36, 31, 15
            |25, 29, 29, 4, 22, 12, 23, 16, 21, 14, 0, 14, 16, 34, 37, 36, 28, 21, 4, 26, 21, 38, 33, 9, 23, 31, 28, 32, 38, 23, 5, 25, 8, 33, 29, 11, 8, 25, 27, 18, 4
            |15, 22, 16, 14, 27, 26, 25, 3, 19, 26, 14, 0, 17, 20, 26, 23, 14, 20, 17, 18, 23, 24, 21, 18, 26, 32, 21, 18, 28, 19, 16, 13, 12, 19, 18, 16, 10, 30, 31, 6, 16
            |17, 17, 25, 12, 11, 24, 9, 16, 33, 28, 16, 17, 0, 31, 27, 32, 26, 34, 17, 34, 6, 34, 26, 10, 10, 16, 15, 29, 26, 9, 12, 29, 8, 30, 20, 25, 21, 14, 14, 15, 13
            |16, 24, 6, 34, 42, 46, 38, 17, 30, 45, 34, 20, 31, 0, 18, 5, 6, 32, 37, 22, 36, 4, 11, 37, 40, 43, 24, 2, 23, 27, 35, 12, 30, 1, 15, 34, 29, 44, 44, 17, 36
            |12, 11, 15, 35, 35, 48, 30, 23, 43, 51, 37, 26, 27, 18, 0, 14, 18, 45, 40, 38, 28, 17, 8, 36, 32, 31, 13, 17, 4, 19, 36, 28, 31, 18, 8, 43, 37, 35, 35, 20, 37
            |15, 21, 7, 36, 42, 48, 37, 20, 35, 48, 36, 23, 32, 5, 14, 0, 9, 37, 40, 27, 36, 3, 7, 39, 39, 41, 22, 5, 19, 26, 37, 17, 32, 5, 13, 38, 32, 43, 43, 19, 38
            |13, 21, 3, 28, 37, 40, 33, 12, 26, 40, 28, 14, 26, 6, 18, 9, 0, 28, 31, 19, 31, 10, 10, 31, 35, 38, 21, 4, 22, 23, 30, 9, 25, 5, 13, 29, 24, 39, 39, 11, 30
            |35, 42, 31, 24, 43, 27, 42, 23, 2, 22, 21, 20, 34, 32, 45, 37, 28, 0, 23, 12, 40, 37, 38, 30, 43, 50, 41, 32, 48, 38, 26, 20, 27, 32, 37, 11, 13, 46, 47, 26, 26
            |29, 32, 33, 5, 22, 8, 23, 20, 23, 11, 4, 17, 17, 37, 40, 40, 31, 23, 0, 29, 22, 41, 36, 8, 23, 31, 31, 36, 40, 25, 5, 29, 10, 36, 32, 12, 11, 25, 27, 21, 4
            |29, 37, 23, 28, 45, 36, 43, 19, 10, 32, 26, 18, 34, 22, 38, 27, 19, 12, 29, 0, 41, 26, 30, 34, 44, 50, 37, 22, 41, 36, 30, 10, 29, 22, 31, 20, 18, 48, 49, 22, 30
            |20, 17, 30, 17, 7, 27, 2, 22, 40, 32, 21, 23, 6, 36, 28, 36, 31, 40, 22, 41, 0, 38, 29, 14, 4, 10, 16, 34, 26, 10, 17, 35, 14, 35, 23, 31, 27, 8, 8, 21, 18
            |18, 25, 9, 37, 45, 50, 40, 21, 34, 50, 38, 24, 34, 4, 17, 3, 10, 37, 41, 26, 38, 0, 10, 41, 42, 44, 25, 6, 22, 29, 39, 17, 34, 5, 16, 39, 33, 46, 46, 21, 40
            |9, 14, 7, 32, 36, 45, 31, 17, 36, 46, 33, 21, 26, 11, 8, 7, 10, 38, 36, 30, 29, 10, 0, 34, 33, 34, 15, 9, 12, 19, 33, 20, 28, 10, 6, 37, 31, 37, 36, 15, 34
            |25, 27, 32, 5, 14, 13, 16, 20, 30, 18, 9, 18, 10, 37, 36, 39, 31, 30, 8, 34, 14, 41, 34, 0, 15, 23, 25, 35, 36, 19, 4, 31, 7, 36, 29, 19, 17, 17, 19, 20, 4
            |24, 21, 34, 19, 4, 27, 2, 26, 43, 33, 23, 26, 10, 40, 32, 39, 35, 43, 23, 44, 4, 42, 33, 15, 0, 8, 19, 38, 29, 14, 18, 39, 16, 39, 27, 34, 30, 4, 4, 25, 19
            |26, 20, 37, 27, 11, 36, 8, 31, 50, 41, 31, 32, 16, 43, 31, 41, 38, 50, 31, 50, 10, 44, 34, 23, 8, 0, 19, 41, 28, 16, 26, 43, 24, 42, 28, 41, 37, 8, 6, 29, 27
            |9, 1, 19, 26, 22, 38, 17, 19, 40, 42, 28, 21, 15, 24, 13, 22, 21, 41, 31, 37, 16, 25, 15, 25, 19, 19, 0, 22, 11, 6, 26, 28, 21, 23, 9, 36, 30, 23, 22, 16, 27
            |14, 22, 4, 32, 40, 44, 36, 16, 30, 44, 32, 18, 29, 2, 17, 5, 4, 32, 36, 22, 34, 6, 9, 35, 38, 41, 22, 0, 21, 25, 34, 12, 29, 1, 13, 33, 28, 42, 42, 15, 34
            |13, 9, 19, 35, 33, 48, 27, 25, 46, 51, 38, 28, 26, 23, 4, 19, 22, 48, 40, 41, 26, 22, 12, 36, 29, 28, 11, 21, 0, 17, 36, 31, 30, 22, 10, 44, 38, 33, 32, 22, 37
            |11, 8, 21, 20, 17, 32, 11, 17, 37, 36, 23, 19, 9, 27, 19, 26, 23, 38, 25, 36, 10, 29, 19, 19, 14, 16, 6, 25, 17, 0, 20, 28, 15, 26, 13, 32, 26, 17, 17, 14, 21
            |25, 28, 30, 2, 17, 12, 18, 18, 26, 16, 5, 16, 12, 35, 36, 37, 30, 26, 5, 30, 17, 39, 33, 4, 18, 26, 26, 34, 36, 20, 0, 28, 6, 34, 29, 16, 13, 21, 22, 19, 1
            |20, 28, 12, 26, 40, 37, 37, 12, 18, 35, 25, 13, 29, 12, 28, 17, 9, 20, 29, 10, 35, 17, 20, 31, 39, 43, 28, 12, 31, 28, 28, 0, 25, 12, 21, 23, 19, 42, 43, 14, 29
            |19, 22, 25, 5, 16, 18, 16, 13, 26, 21, 8, 12, 8, 30, 31, 32, 25, 27, 10, 29, 14, 34, 28, 7, 16, 24, 21, 29, 30, 15, 6, 25, 0, 30, 23, 18, 13, 19, 21, 13, 7
            |15, 23, 5, 33, 41, 45, 37, 17, 30, 45, 33, 19, 30, 1, 18, 5, 5, 32, 36, 22, 35, 5, 10, 36, 39, 42, 23, 1, 22, 26, 34, 12, 30, 0, 14, 34, 28, 43, 43, 16, 35
            |4, 9, 10, 27, 30, 40, 25, 15, 36, 43, 29, 18, 20, 15, 8, 13, 13, 37, 32, 31, 23, 16, 6, 29, 27, 28, 9, 13, 10, 13, 29, 21, 23, 14, 0, 35, 28, 31, 30, 12, 29
            |31, 37, 31, 14, 33, 16, 33, 20, 12, 12, 11, 16, 25, 34, 43, 38, 29, 11, 12, 20, 31, 39, 37, 19, 34, 41, 36, 33, 44, 32, 16, 23, 18, 34, 35, 0, 6, 36, 38, 22, 15
            |25, 31, 26, 11, 29, 18, 29, 14, 13, 16, 8, 10, 21, 29, 37, 32, 24, 13, 11, 18, 27, 33, 31, 17, 30, 37, 30, 28, 38, 26, 13, 19, 13, 28, 28, 6, 0, 33, 34, 16, 13
            |28, 24, 38, 22, 4, 28, 6, 30, 46, 35, 25, 30, 14, 44, 35, 43, 39, 46, 25, 48, 8, 46, 37, 17, 4, 8, 23, 42, 33, 17, 21, 42, 19, 43, 31, 36, 33, 0, 2, 28, 21
            |28, 23, 38, 23, 5, 30, 6, 31, 47, 36, 27, 31, 14, 44, 35, 43, 39, 47, 27, 49, 8, 46, 36, 19, 4, 6, 22, 42, 32, 17, 22, 43, 21, 43, 30, 38, 34, 2, 0, 29, 23
            |9, 16, 12, 17, 26, 30, 23, 3, 24, 31, 18, 6, 15, 17, 20, 19, 11, 26, 21, 22, 21, 21, 15, 20, 25, 29, 16, 15, 22, 14, 19, 14, 13, 16, 12, 22, 16, 28, 29, 0, 19
            |26, 28, 31, 2, 18, 11, 19, 18, 25, 15, 4, 16, 13, 36, 37, 38, 30, 26, 4, 30, 18, 40, 34, 4, 19, 27, 27, 34, 37, 21, 1, 29, 7, 35, 29, 15, 13, 21, 23, 19, 0|];