% n40w120.005    20.70 528
n = 41;
duration = [|0, 35, 45, 51, 26, 6, 28, 26, 17, 18, 45, 46, 22, 46, 40, 41, 25, 23, 30, 28, 14, 12, 9, 19, 18, 8, 30, 43, 6, 34, 36, 35, 38, 24, 34, 50, 27, 15, 6, 41, 28
            |35, 0, 33, 49, 51, 35, 51, 15, 42, 25, 34, 45, 23, 37, 44, 23, 52, 36, 47, 56, 44, 28, 34, 29, 19, 35, 16, 33, 29, 39, 13, 40, 23, 51, 17, 47, 45, 44, 29, 15, 47
            |45, 33, 0, 18, 43, 49, 42, 23, 38, 49, 1, 16, 23, 5, 20, 9, 46, 27, 34, 49, 44, 33, 50, 53, 30, 39, 19, 4, 41, 20, 20, 19, 10, 44, 16, 16, 33, 43, 42, 19, 34
            |51, 49, 18, 0, 39, 57, 37, 36, 39, 60, 17, 5, 33, 13, 12, 27, 42, 29, 29, 45, 45, 40, 58, 64, 41, 44, 34, 16, 49, 18, 37, 17, 26, 41, 32, 2, 29, 44, 50, 37, 30
            |26, 51, 43, 39, 0, 32, 2, 37, 10, 44, 43, 35, 29, 41, 27, 45, 3, 17, 10, 6, 13, 24, 35, 45, 33, 20, 39, 40, 29, 24, 46, 25, 42, 3, 42, 39, 10, 11, 30, 50, 9
            |6, 35, 49, 57, 32, 0, 33, 29, 23, 15, 50, 52, 26, 51, 45, 44, 30, 28, 35, 33, 19, 17, 3, 14, 21, 14, 33, 47, 8, 39, 38, 40, 42, 29, 37, 55, 33, 20, 7, 43, 34
            |28, 51, 42, 37, 2, 33, 0, 37, 11, 45, 41, 33, 29, 40, 25, 44, 5, 16, 8, 8, 14, 25, 36, 46, 33, 21, 38, 38, 30, 22, 45, 23, 41, 5, 41, 37, 9, 13, 31, 50, 7
            |26, 15, 23, 36, 37, 29, 37, 0, 28, 26, 23, 32, 8, 26, 29, 16, 38, 21, 32, 43, 32, 16, 29, 30, 8, 23, 4, 22, 21, 24, 10, 25, 13, 37, 8, 34, 30, 31, 22, 15, 32
            |17, 42, 38, 39, 10, 23, 11, 28, 0, 34, 38, 34, 21, 38, 27, 38, 10, 11, 13, 14, 6, 14, 26, 36, 23, 10, 31, 35, 19, 21, 38, 23, 35, 9, 34, 38, 11, 5, 20, 42, 11
            |18, 25, 49, 60, 44, 15, 45, 26, 34, 0, 49, 55, 28, 52, 51, 42, 43, 35, 45, 46, 32, 22, 12, 4, 20, 24, 30, 48, 15, 44, 33, 46, 39, 42, 34, 59, 42, 33, 14, 37, 44
            |45, 34, 1, 17, 43, 50, 41, 23, 38, 49, 0, 15, 23, 4, 19, 10, 45, 27, 34, 49, 44, 33, 51, 53, 30, 39, 20, 3, 41, 19, 21, 19, 11, 44, 17, 15, 32, 43, 43, 20, 34
            |46, 45, 16, 5, 35, 52, 33, 32, 34, 55, 15, 0, 28, 11, 8, 24, 38, 24, 25, 41, 41, 35, 53, 59, 36, 39, 29, 13, 44, 13, 33, 12, 23, 37, 28, 4, 25, 39, 45, 34, 26
            |22, 23, 23, 33, 29, 26, 29, 8, 21, 28, 23, 28, 0, 25, 24, 19, 30, 13, 24, 35, 25, 10, 27, 31, 8, 17, 10, 21, 18, 18, 17, 19, 16, 29, 13, 31, 22, 24, 19, 22, 24
            |46, 37, 5, 13, 41, 51, 40, 26, 38, 52, 4, 11, 25, 0, 16, 14, 44, 27, 32, 48, 44, 34, 52, 56, 32, 40, 23, 4, 43, 18, 25, 17, 14, 43, 21, 11, 31, 43, 44, 24, 33
            |40, 44, 20, 12, 27, 45, 25, 29, 27, 51, 19, 8, 24, 16, 0, 26, 30, 17, 17, 33, 33, 29, 47, 54, 32, 32, 28, 16, 38, 6, 33, 5, 24, 29, 28, 12, 17, 32, 40, 35, 18
            |41, 23, 9, 27, 45, 44, 44, 16, 38, 42, 10, 24, 19, 14, 26, 0, 47, 28, 37, 51, 43, 29, 45, 46, 24, 36, 12, 11, 36, 24, 11, 24, 3, 45, 8, 25, 35, 42, 37, 10, 37
            |25, 52, 46, 42, 3, 30, 5, 38, 10, 43, 45, 38, 30, 44, 30, 47, 0, 19, 13, 4, 11, 25, 33, 44, 34, 19, 40, 42, 28, 26, 47, 27, 44, 1, 43, 42, 13, 10, 29, 52, 12
            |23, 36, 27, 29, 17, 28, 16, 21, 11, 35, 27, 24, 13, 27, 17, 28, 19, 0, 11, 23, 17, 13, 30, 38, 19, 15, 22, 24, 22, 11, 29, 13, 25, 17, 25, 28, 9, 16, 23, 33, 11
            |30, 47, 34, 29, 10, 35, 8, 32, 13, 45, 34, 25, 24, 32, 17, 37, 13, 11, 0, 16, 18, 23, 38, 47, 30, 22, 33, 30, 30, 14, 40, 15, 34, 12, 35, 29, 3, 17, 32, 44, 1
            |28, 56, 49, 45, 6, 33, 8, 43, 14, 46, 49, 41, 35, 48, 33, 51, 4, 23, 16, 0, 14, 29, 36, 47, 38, 23, 45, 46, 32, 30, 52, 31, 48, 6, 48, 45, 17, 13, 33, 56, 15
            |14, 44, 44, 45, 13, 19, 14, 32, 6, 32, 44, 41, 25, 44, 33, 43, 11, 17, 18, 14, 0, 16, 22, 33, 25, 9, 34, 41, 18, 28, 41, 29, 40, 10, 38, 45, 17, 1, 18, 46, 17
            |12, 28, 33, 40, 24, 17, 25, 16, 14, 22, 33, 35, 10, 34, 29, 29, 25, 13, 23, 29, 16, 0, 19, 25, 9, 8, 19, 30, 9, 23, 25, 24, 26, 23, 23, 39, 20, 16, 11, 30, 22
            |9, 34, 50, 58, 35, 3, 36, 29, 26, 12, 51, 53, 27, 52, 47, 45, 33, 30, 38, 36, 22, 19, 0, 11, 21, 16, 33, 48, 9, 41, 38, 42, 42, 32, 37, 57, 35, 23, 8, 43, 37
            |19, 29, 53, 64, 45, 14, 46, 30, 36, 4, 53, 59, 31, 56, 54, 46, 44, 38, 47, 47, 33, 25, 11, 0, 23, 25, 34, 51, 17, 47, 37, 49, 43, 43, 38, 62, 44, 34, 16, 41, 46
            |18, 19, 30, 41, 33, 21, 33, 8, 23, 20, 30, 36, 8, 32, 32, 24, 34, 19, 30, 38, 25, 9, 21, 23, 0, 16, 12, 28, 13, 26, 17, 27, 21, 32, 16, 39, 27, 25, 14, 23, 29
            |8, 35, 39, 44, 20, 14, 21, 23, 10, 24, 39, 39, 17, 40, 32, 36, 19, 15, 22, 23, 9, 8, 16, 25, 16, 0, 27, 36, 9, 26, 33, 27, 33, 18, 30, 43, 19, 10, 10, 38, 21
            |30, 16, 19, 34, 39, 33, 38, 4, 31, 30, 20, 29, 10, 23, 28, 12, 40, 22, 33, 45, 34, 19, 33, 34, 12, 27, 0, 19, 25, 23, 7, 24, 9, 39, 4, 32, 31, 34, 26, 12, 33
            |43, 33, 4, 16, 40, 47, 38, 22, 35, 48, 3, 13, 21, 4, 16, 11, 42, 24, 30, 46, 41, 30, 48, 51, 28, 36, 19, 0, 39, 16, 21, 16, 10, 41, 17, 14, 29, 40, 40, 21, 31
            |6, 29, 41, 49, 29, 8, 30, 21, 19, 15, 41, 44, 18, 43, 38, 36, 28, 22, 30, 32, 18, 9, 9, 17, 13, 9, 25, 39, 0, 32, 30, 33, 33, 27, 29, 48, 28, 18, 1, 36, 29
            |34, 39, 20, 18, 24, 39, 22, 24, 21, 44, 19, 13, 18, 18, 6, 24, 26, 11, 14, 30, 28, 23, 41, 47, 26, 26, 23, 16, 32, 0, 29, 1, 21, 25, 24, 17, 13, 26, 33, 32, 15
            |36, 13, 20, 37, 46, 38, 45, 10, 38, 33, 21, 33, 17, 25, 33, 11, 47, 29, 40, 52, 41, 25, 38, 37, 17, 33, 7, 21, 30, 29, 0, 30, 10, 46, 5, 35, 37, 41, 31, 5, 40
            |35, 40, 19, 17, 25, 40, 23, 25, 23, 46, 19, 12, 19, 17, 5, 24, 27, 13, 15, 31, 29, 24, 42, 49, 27, 27, 24, 16, 33, 1, 30, 0, 21, 26, 25, 16, 14, 28, 35, 32, 16
            |38, 23, 10, 26, 42, 42, 41, 13, 35, 39, 11, 23, 16, 14, 24, 3, 44, 25, 34, 48, 40, 26, 42, 43, 21, 33, 9, 10, 33, 21, 10, 21, 0, 42, 6, 25, 32, 39, 35, 11, 34
            |24, 51, 44, 41, 3, 29, 5, 37, 9, 42, 44, 37, 29, 43, 29, 45, 1, 17, 12, 6, 10, 23, 32, 43, 32, 18, 39, 41, 27, 25, 46, 26, 42, 0, 42, 41, 12, 9, 28, 50, 11
            |34, 17, 16, 32, 42, 37, 41, 8, 34, 34, 17, 28, 13, 21, 28, 8, 43, 25, 35, 48, 38, 23, 37, 38, 16, 30, 4, 17, 29, 24, 5, 25, 6, 42, 0, 30, 33, 38, 30, 8, 35
            |50, 47, 16, 2, 39, 55, 37, 34, 38, 59, 15, 4, 31, 11, 12, 25, 42, 28, 29, 45, 45, 39, 57, 62, 39, 43, 32, 14, 48, 17, 35, 16, 25, 41, 30, 0, 29, 43, 49, 35, 30
            |27, 45, 33, 29, 10, 33, 9, 30, 11, 42, 32, 25, 22, 31, 17, 35, 13, 9, 3, 17, 17, 20, 35, 44, 27, 19, 31, 29, 28, 13, 37, 14, 32, 12, 33, 29, 0, 15, 29, 41, 2
            |15, 44, 43, 44, 11, 20, 13, 31, 5, 33, 43, 39, 24, 43, 32, 42, 10, 16, 17, 13, 1, 16, 23, 34, 25, 10, 34, 40, 18, 26, 41, 28, 39, 9, 38, 43, 15, 0, 19, 46, 16
            |6, 29, 42, 50, 30, 7, 31, 22, 20, 14, 43, 45, 19, 44, 40, 37, 29, 23, 32, 33, 18, 11, 8, 16, 14, 10, 26, 40, 1, 33, 31, 35, 35, 28, 30, 49, 29, 19, 0, 36, 30
            |41, 15, 19, 37, 50, 43, 50, 15, 42, 37, 20, 34, 22, 24, 35, 10, 52, 33, 44, 56, 46, 30, 43, 41, 23, 38, 12, 21, 36, 32, 5, 32, 11, 50, 8, 35, 41, 46, 36, 0, 43
            |28, 47, 34, 30, 9, 34, 7, 32, 11, 44, 34, 26, 24, 33, 18, 37, 12, 11, 1, 15, 17, 22, 37, 46, 29, 21, 33, 31, 29, 15, 40, 16, 34, 11, 35, 30, 2, 16, 30, 43, 0|];