% n40w180.001    73.55 506
n = 41;
duration = [|0, 27, 46, 52, 19, 32, 29, 33, 26, 46, 22, 12, 30, 44, 48, 58, 44, 9, 39, 18, 45, 25, 40, 50, 40, 37, 20, 20, 32, 45, 32, 23, 40, 15, 34, 37, 43, 41, 34, 20, 16
            |27, 0, 51, 36, 8, 15, 2, 6, 21, 37, 8, 32, 7, 53, 47, 46, 34, 21, 34, 37, 29, 26, 19, 37, 46, 20, 7, 11, 33, 29, 5, 41, 25, 23, 40, 51, 37, 37, 28, 25, 14
            |46, 51, 0, 34, 46, 38, 51, 53, 29, 23, 43, 35, 45, 8, 9, 32, 25, 40, 20, 31, 35, 25, 43, 29, 6, 37, 46, 40, 17, 34, 54, 28, 34, 33, 12, 19, 19, 17, 24, 28, 40
            |52, 36, 34, 0, 38, 22, 35, 34, 26, 11, 34, 47, 29, 42, 26, 10, 10, 42, 17, 47, 7, 30, 18, 5, 35, 16, 37, 34, 27, 8, 36, 48, 12, 38, 32, 48, 16, 19, 19, 34, 37
            |19, 8, 46, 38, 0, 17, 10, 14, 18, 37, 4, 24, 12, 48, 44, 47, 34, 13, 32, 29, 31, 22, 23, 38, 42, 22, 1, 6, 29, 31, 13, 34, 27, 16, 35, 45, 36, 35, 26, 19, 7
            |32, 15, 38, 22, 17, 0, 14, 15, 12, 22, 12, 31, 8, 43, 34, 31, 19, 23, 20, 34, 15, 18, 8, 22, 35, 6, 15, 13, 22, 14, 16, 37, 10, 21, 29, 43, 23, 23, 14, 20, 17
            |29, 2, 51, 35, 10, 14, 0, 4, 22, 36, 9, 34, 6, 53, 47, 45, 33, 22, 33, 38, 28, 27, 17, 36, 47, 19, 9, 13, 33, 27, 4, 42, 24, 25, 40, 52, 37, 37, 28, 26, 16
            |33, 6, 53, 34, 14, 15, 4, 0, 24, 37, 13, 37, 7, 56, 48, 44, 34, 26, 35, 42, 27, 30, 16, 36, 49, 19, 13, 16, 36, 27, 2, 46, 24, 28, 43, 55, 38, 38, 29, 30, 20
            |26, 21, 29, 26, 18, 12, 22, 24, 0, 20, 15, 22, 17, 32, 26, 32, 18, 17, 14, 23, 20, 6, 19, 23, 25, 14, 17, 12, 12, 19, 25, 26, 15, 12, 18, 32, 18, 17, 9, 9, 13
            |46, 37, 23, 11, 37, 22, 36, 37, 20, 0, 32, 39, 30, 31, 15, 13, 3, 37, 7, 38, 13, 22, 22, 6, 24, 18, 36, 31, 17, 12, 38, 39, 13, 31, 21, 37, 5, 8, 12, 27, 33
            |22, 8, 43, 34, 4, 12, 9, 13, 15, 32, 0, 25, 8, 45, 41, 43, 30, 14, 28, 29, 27, 19, 19, 34, 39, 18, 3, 4, 26, 26, 13, 34, 22, 16, 32, 43, 32, 31, 22, 18, 7
            |12, 32, 35, 47, 24, 31, 34, 37, 22, 39, 25, 0, 32, 32, 38, 52, 38, 12, 32, 6, 42, 17, 39, 44, 28, 35, 25, 21, 23, 41, 37, 11, 37, 10, 23, 24, 35, 33, 28, 13, 18
            |30, 7, 45, 29, 12, 8, 6, 7, 17, 30, 8, 32, 0, 49, 41, 39, 27, 22, 28, 36, 22, 23, 12, 30, 42, 13, 10, 11, 28, 22, 9, 40, 18, 23, 35, 48, 31, 31, 22, 23, 15
            |44, 53, 8, 42, 48, 43, 53, 56, 32, 31, 45, 32, 49, 0, 17, 40, 32, 40, 26, 27, 42, 27, 48, 36, 7, 42, 48, 42, 21, 41, 57, 24, 39, 33, 13, 11, 26, 23, 29, 29, 41
            |48, 47, 9, 26, 44, 34, 47, 48, 26, 15, 41, 38, 41, 17, 0, 23, 18, 40, 14, 35, 28, 24, 36, 21, 13, 31, 44, 38, 16, 27, 50, 33, 27, 34, 14, 26, 11, 10, 19, 28, 39
            |58, 46, 32, 10, 47, 31, 45, 44, 32, 13, 43, 52, 39, 40, 23, 0, 14, 49, 20, 51, 17, 35, 28, 9, 35, 25, 46, 42, 30, 17, 46, 51, 21, 44, 33, 48, 17, 20, 24, 40, 45
            |44, 34, 25, 10, 34, 19, 33, 34, 18, 3, 30, 38, 27, 32, 18, 14, 0, 35, 7, 38, 10, 21, 19, 6, 25, 15, 33, 28, 17, 9, 35, 39, 10, 30, 22, 38, 7, 9, 10, 25, 31
            |9, 21, 40, 42, 13, 23, 22, 26, 17, 37, 14, 12, 22, 40, 40, 49, 35, 0, 31, 17, 36, 16, 31, 41, 34, 28, 13, 11, 24, 35, 26, 22, 31, 7, 28, 34, 35, 33, 26, 12, 7
            |39, 34, 20, 17, 32, 20, 33, 35, 14, 7, 28, 32, 28, 26, 14, 20, 7, 31, 0, 31, 16, 15, 23, 13, 19, 17, 31, 26, 10, 15, 36, 32, 14, 25, 15, 31, 4, 4, 6, 20, 28
            |18, 37, 31, 47, 29, 34, 38, 42, 23, 38, 29, 6, 36, 27, 35, 51, 38, 17, 31, 0, 43, 18, 42, 43, 24, 37, 30, 26, 21, 42, 42, 5, 38, 14, 20, 19, 34, 31, 28, 14, 22
            |45, 29, 35, 7, 31, 15, 28, 27, 20, 13, 27, 42, 22, 42, 28, 17, 10, 36, 16, 43, 0, 25, 11, 9, 35, 9, 30, 27, 24, 1, 29, 45, 5, 32, 30, 46, 17, 19, 15, 29, 30
            |25, 26, 25, 30, 22, 18, 27, 30, 6, 22, 19, 17, 23, 27, 24, 35, 21, 16, 15, 18, 25, 0, 25, 26, 20, 20, 21, 16, 8, 24, 30, 20, 20, 10, 13, 26, 19, 17, 11, 5, 15
            |40, 19, 43, 18, 23, 8, 17, 16, 19, 22, 19, 39, 12, 48, 36, 28, 19, 31, 23, 42, 11, 25, 0, 20, 40, 6, 22, 21, 28, 11, 18, 45, 9, 29, 35, 50, 25, 26, 19, 28, 25
            |50, 37, 29, 5, 38, 22, 36, 36, 23, 6, 34, 44, 30, 36, 21, 9, 6, 41, 13, 43, 9, 26, 20, 0, 30, 17, 37, 33, 22, 9, 38, 44, 12, 35, 27, 43, 11, 14, 16, 31, 36
            |40, 46, 6, 35, 42, 35, 47, 49, 25, 24, 39, 28, 42, 7, 13, 35, 25, 34, 19, 24, 35, 20, 40, 30, 0, 35, 41, 36, 13, 34, 50, 22, 32, 27, 7, 14, 19, 16, 22, 23, 35
            |37, 20, 37, 16, 22, 6, 19, 19, 14, 18, 18, 35, 13, 42, 31, 25, 15, 28, 17, 37, 9, 20, 6, 17, 35, 0, 21, 18, 22, 9, 21, 40, 5, 25, 29, 44, 20, 21, 13, 23, 22
            |20, 7, 46, 37, 1, 15, 9, 13, 17, 36, 3, 25, 10, 48, 44, 46, 33, 13, 31, 30, 30, 21, 22, 37, 41, 21, 0, 5, 28, 30, 12, 34, 25, 16, 34, 45, 35, 34, 25, 19, 7
            |20, 11, 40, 34, 6, 13, 13, 16, 12, 31, 4, 21, 11, 42, 38, 42, 28, 11, 26, 26, 27, 16, 21, 33, 36, 18, 5, 0, 23, 26, 16, 30, 22, 12, 29, 40, 30, 29, 20, 14, 4
            |32, 33, 17, 27, 29, 22, 33, 36, 12, 17, 26, 23, 28, 21, 16, 30, 17, 24, 10, 21, 24, 8, 28, 22, 13, 22, 28, 23, 0, 23, 37, 22, 20, 17, 7, 23, 13, 10, 9, 12, 23
            |45, 29, 34, 8, 31, 14, 27, 27, 19, 12, 26, 41, 22, 41, 27, 17, 9, 35, 15, 42, 1, 24, 11, 9, 34, 9, 30, 26, 23, 0, 29, 44, 4, 31, 29, 45, 16, 18, 14, 28, 30
            |32, 5, 54, 36, 13, 16, 4, 2, 25, 38, 13, 37, 9, 57, 50, 46, 35, 26, 36, 42, 29, 30, 18, 38, 50, 21, 12, 16, 37, 29, 0, 46, 26, 28, 43, 55, 40, 40, 30, 30, 19
            |23, 41, 28, 48, 34, 37, 42, 46, 26, 39, 34, 11, 40, 24, 33, 51, 39, 22, 32, 5, 45, 20, 45, 44, 22, 40, 34, 30, 22, 44, 46, 0, 40, 18, 19, 14, 34, 31, 30, 17, 27
            |40, 25, 34, 12, 27, 10, 24, 24, 15, 13, 22, 37, 18, 39, 27, 21, 10, 31, 14, 38, 5, 20, 9, 12, 32, 5, 25, 22, 20, 4, 26, 40, 0, 27, 27, 43, 16, 17, 11, 24, 25
            |15, 23, 33, 38, 16, 21, 25, 28, 12, 31, 16, 10, 23, 33, 34, 44, 30, 7, 25, 14, 32, 10, 29, 35, 27, 25, 16, 12, 17, 31, 28, 18, 27, 0, 21, 28, 29, 26, 20, 5, 9
            |34, 40, 12, 32, 35, 29, 40, 43, 18, 21, 32, 23, 35, 13, 14, 33, 22, 28, 15, 20, 30, 13, 35, 27, 7, 29, 34, 29, 7, 29, 43, 19, 27, 21, 0, 16, 16, 13, 16, 16, 28
            |37, 51, 19, 48, 45, 43, 52, 55, 32, 37, 43, 24, 48, 11, 26, 48, 38, 34, 31, 19, 46, 26, 50, 43, 14, 44, 45, 40, 23, 45, 55, 14, 43, 28, 16, 0, 32, 29, 32, 25, 38
            |43, 37, 19, 16, 36, 23, 37, 38, 18, 5, 32, 35, 31, 26, 11, 17, 7, 35, 4, 34, 17, 19, 25, 11, 19, 20, 35, 30, 13, 16, 40, 34, 16, 29, 16, 32, 0, 3, 10, 24, 32
            |41, 37, 17, 19, 35, 23, 37, 38, 17, 8, 31, 33, 31, 23, 10, 20, 9, 33, 4, 31, 19, 17, 26, 14, 16, 21, 34, 29, 10, 18, 40, 31, 17, 26, 13, 29, 3, 0, 9, 21, 30
            |34, 28, 24, 19, 26, 14, 28, 29, 9, 12, 22, 28, 22, 29, 19, 24, 10, 26, 6, 28, 15, 11, 19, 16, 22, 13, 25, 20, 9, 14, 30, 30, 11, 20, 16, 32, 10, 9, 0, 16, 22
            |20, 25, 28, 34, 19, 20, 26, 30, 9, 27, 18, 13, 23, 29, 28, 40, 25, 12, 20, 14, 29, 5, 28, 31, 23, 23, 19, 14, 12, 28, 30, 17, 24, 5, 16, 25, 24, 21, 16, 0, 13
            |16, 14, 40, 37, 7, 17, 16, 20, 13, 33, 7, 18, 15, 41, 39, 45, 31, 7, 28, 22, 30, 15, 25, 36, 35, 22, 7, 4, 23, 30, 19, 27, 25, 9, 28, 38, 32, 30, 22, 13, 0|];
early = [0, 207, 152, 298, 252, 165, 229, 168, 0, 24, 211, 0, 161, 87, 12, 271, 166, 0, 9, 359, 185, 13, 268, 124, 9, 186, 258, 341, 0, 385, 198, 64, 145, 0, 52, 97, 3, 0, 0, 0, 390];
late = [612, 439, 309, 435, 400, 340, 367, 357, 123, 213, 387, 118, 354, 198, 201, 438, 319, 99, 173, 594, 311, 132, 461, 304, 208, 380, 400, 534, 185, 511, 411, 306, 318, 73, 217, 268, 237, 207, 151, 107, 522];