% n40w140.001    37.42 517
n = 41;
duration = [|0, 32, 7, 23, 30, 29, 24, 35, 20, 18, 1, 30, 24, 20, 25, 24, 25, 22, 34, 11, 5, 14, 29, 9, 20, 34, 17, 14, 19, 19, 15, 20, 4, 10, 11, 12, 15, 25, 29, 21, 26
            |32, 0, 26, 43, 60, 58, 9, 50, 50, 28, 31, 60, 50, 45, 47, 35, 14, 25, 40, 24, 28, 44, 57, 34, 51, 48, 38, 32, 44, 35, 18, 36, 34, 30, 39, 41, 47, 24, 55, 11, 16
            |7, 26, 0, 22, 34, 33, 18, 33, 27, 19, 6, 35, 26, 26, 30, 20, 17, 16, 30, 9, 6, 21, 32, 14, 25, 31, 16, 17, 25, 23, 9, 23, 8, 13, 17, 15, 21, 19, 31, 16, 19
            |23, 43, 22, 0, 24, 19, 36, 12, 36, 41, 24, 23, 9, 41, 46, 11, 30, 19, 17, 32, 27, 32, 17, 32, 20, 11, 6, 37, 40, 42, 27, 43, 19, 34, 33, 14, 20, 22, 13, 35, 29
            |30, 60, 34, 24, 0, 5, 52, 31, 27, 46, 31, 1, 14, 36, 41, 34, 49, 40, 40, 41, 35, 27, 7, 35, 10, 32, 24, 41, 36, 44, 43, 44, 27, 38, 32, 19, 15, 44, 13, 50, 49
            |29, 58, 33, 19, 5, 0, 50, 26, 30, 46, 30, 4, 10, 38, 43, 30, 46, 36, 36, 40, 34, 29, 2, 35, 11, 27, 21, 41, 38, 45, 40, 45, 26, 38, 33, 17, 15, 40, 8, 48, 46
            |24, 9, 18, 36, 52, 50, 0, 44, 42, 21, 22, 52, 42, 37, 40, 29, 10, 20, 36, 16, 19, 36, 49, 26, 42, 42, 31, 24, 36, 28, 9, 29, 25, 22, 30, 33, 38, 20, 47, 2, 13
            |35, 50, 33, 12, 31, 26, 44, 0, 48, 52, 35, 30, 18, 53, 58, 15, 36, 24, 13, 42, 38, 44, 24, 44, 31, 2, 18, 49, 52, 54, 36, 55, 31, 45, 45, 26, 31, 26, 18, 43, 34
            |20, 50, 27, 36, 27, 30, 42, 48, 0, 26, 21, 28, 31, 10, 14, 41, 44, 41, 51, 26, 23, 6, 30, 16, 19, 47, 31, 21, 10, 21, 35, 21, 21, 20, 12, 22, 17, 45, 34, 40, 46
            |18, 28, 19, 41, 46, 46, 21, 52, 26, 0, 17, 47, 42, 18, 20, 39, 29, 33, 49, 10, 14, 22, 46, 12, 36, 51, 34, 6, 17, 7, 20, 8, 22, 8, 15, 30, 32, 35, 47, 20, 32
            |1, 31, 6, 24, 31, 30, 22, 35, 21, 17, 0, 32, 25, 21, 25, 24, 23, 21, 34, 9, 4, 15, 30, 9, 21, 34, 17, 13, 20, 19, 14, 19, 5, 10, 12, 13, 17, 25, 30, 20, 25
            |30, 60, 35, 23, 1, 4, 52, 30, 28, 47, 32, 0, 14, 37, 42, 34, 49, 40, 40, 41, 36, 28, 6, 36, 11, 31, 24, 42, 37, 45, 43, 45, 27, 39, 33, 19, 16, 44, 12, 50, 49
            |24, 50, 26, 9, 14, 10, 42, 18, 31, 42, 25, 14, 0, 38, 43, 20, 37, 27, 26, 34, 29, 28, 8, 32, 13, 18, 11, 37, 38, 42, 33, 42, 20, 34, 31, 12, 14, 31, 5, 40, 37
            |20, 45, 26, 41, 36, 38, 37, 53, 10, 18, 21, 37, 38, 0, 5, 44, 42, 42, 54, 22, 20, 10, 39, 12, 27, 52, 35, 14, 1, 12, 32, 11, 23, 15, 9, 27, 24, 45, 42, 35, 44
            |25, 47, 30, 46, 41, 43, 40, 58, 14, 20, 25, 42, 43, 5, 0, 49, 46, 46, 59, 25, 24, 15, 44, 16, 32, 57, 40, 16, 6, 13, 36, 12, 28, 18, 14, 32, 29, 49, 47, 38, 48
            |24, 35, 20, 11, 34, 30, 29, 15, 41, 39, 24, 34, 20, 44, 49, 0, 21, 9, 10, 29, 26, 36, 28, 33, 29, 13, 11, 37, 43, 43, 22, 43, 21, 33, 35, 20, 27, 12, 24, 28, 19
            |25, 14, 17, 30, 49, 46, 10, 36, 44, 29, 23, 49, 37, 42, 46, 21, 0, 11, 26, 21, 22, 38, 45, 30, 40, 33, 26, 30, 41, 35, 10, 36, 25, 27, 34, 30, 37, 10, 42, 11, 3
            |22, 25, 16, 19, 40, 36, 20, 24, 41, 33, 21, 40, 27, 42, 46, 9, 11, 0, 16, 23, 22, 36, 35, 30, 33, 22, 16, 32, 41, 38, 14, 39, 20, 29, 33, 23, 30, 4, 31, 19, 10
            |34, 40, 30, 17, 40, 36, 36, 13, 51, 49, 34, 40, 26, 54, 59, 10, 26, 16, 0, 39, 36, 46, 34, 43, 37, 11, 20, 47, 53, 52, 30, 53, 31, 43, 45, 29, 36, 16, 28, 35, 24
            |11, 24, 9, 32, 41, 40, 16, 42, 26, 10, 9, 41, 34, 22, 25, 29, 21, 23, 39, 0, 5, 21, 39, 10, 30, 41, 25, 9, 21, 15, 11, 16, 14, 7, 15, 23, 26, 26, 39, 13, 23
            |5, 28, 6, 27, 35, 34, 19, 38, 23, 14, 4, 36, 29, 20, 24, 26, 22, 22, 36, 5, 0, 17, 34, 8, 25, 37, 21, 11, 19, 16, 12, 17, 9, 7, 12, 17, 21, 25, 34, 17, 24
            |14, 44, 21, 32, 27, 29, 36, 44, 6, 22, 15, 28, 28, 10, 15, 36, 38, 36, 46, 21, 17, 0, 29, 11, 17, 43, 27, 16, 9, 18, 29, 17, 16, 15, 6, 18, 14, 39, 32, 34, 40
            |29, 57, 32, 17, 7, 2, 49, 24, 30, 46, 30, 6, 8, 39, 44, 28, 45, 35, 34, 39, 34, 29, 0, 35, 12, 25, 19, 41, 39, 45, 39, 45, 25, 38, 33, 17, 15, 39, 6, 47, 45
            |9, 34, 14, 32, 35, 35, 26, 44, 16, 12, 9, 36, 32, 12, 16, 33, 30, 30, 43, 10, 8, 11, 35, 0, 24, 43, 26, 6, 11, 10, 20, 11, 13, 4, 4, 20, 20, 33, 36, 24, 32
            |20, 51, 25, 20, 10, 11, 42, 31, 19, 36, 21, 11, 13, 27, 32, 29, 40, 33, 37, 30, 25, 17, 12, 24, 0, 31, 18, 30, 27, 34, 33, 34, 17, 28, 22, 10, 4, 37, 16, 40, 41
            |34, 48, 31, 11, 32, 27, 42, 2, 47, 51, 34, 31, 18, 52, 57, 13, 33, 22, 11, 41, 37, 43, 25, 43, 31, 0, 17, 48, 52, 53, 34, 54, 30, 44, 44, 26, 31, 24, 19, 41, 32
            |17, 38, 16, 6, 24, 21, 31, 18, 31, 34, 17, 24, 11, 35, 40, 11, 26, 16, 20, 25, 21, 27, 19, 26, 18, 17, 0, 31, 35, 36, 22, 37, 13, 27, 27, 9, 16, 20, 16, 29, 25
            |14, 32, 17, 37, 41, 41, 24, 49, 21, 6, 13, 42, 37, 14, 16, 37, 30, 32, 47, 9, 11, 16, 41, 6, 30, 48, 31, 0, 13, 6, 20, 6, 18, 4, 9, 25, 26, 35, 42, 22, 33
            |19, 44, 25, 40, 36, 38, 36, 52, 10, 17, 20, 37, 38, 1, 6, 43, 41, 41, 53, 21, 19, 9, 39, 11, 27, 52, 35, 13, 0, 11, 31, 11, 22, 14, 8, 26, 24, 44, 42, 34, 43
            |19, 35, 23, 42, 44, 45, 28, 54, 21, 7, 19, 45, 42, 12, 13, 43, 35, 38, 52, 15, 16, 18, 45, 10, 34, 53, 36, 6, 11, 0, 25, 1, 23, 9, 12, 30, 30, 40, 47, 26, 38
            |15, 18, 9, 27, 43, 40, 9, 36, 35, 20, 14, 43, 33, 32, 36, 22, 10, 14, 30, 11, 12, 29, 39, 20, 33, 34, 22, 20, 31, 25, 0, 26, 16, 17, 24, 23, 29, 16, 38, 8, 12
            |20, 36, 23, 43, 44, 45, 29, 55, 21, 8, 19, 45, 42, 11, 12, 43, 36, 39, 53, 16, 17, 17, 45, 11, 34, 54, 37, 6, 11, 1, 26, 0, 24, 10, 12, 30, 30, 41, 47, 27, 39
            |4, 34, 8, 19, 27, 26, 25, 31, 21, 22, 5, 27, 20, 23, 28, 21, 25, 20, 31, 14, 9, 16, 25, 13, 17, 30, 13, 18, 22, 23, 16, 24, 0, 15, 14, 8, 13, 24, 25, 23, 26
            |10, 30, 13, 34, 38, 38, 22, 45, 20, 8, 10, 39, 34, 15, 18, 33, 27, 29, 43, 7, 7, 15, 38, 4, 28, 44, 27, 4, 14, 9, 17, 10, 15, 0, 9, 22, 24, 32, 39, 20, 30
            |11, 39, 17, 33, 32, 33, 30, 45, 12, 15, 12, 33, 31, 9, 14, 35, 34, 33, 45, 15, 12, 6, 33, 4, 22, 44, 27, 9, 8, 12, 24, 12, 14, 9, 0, 19, 18, 36, 35, 28, 36
            |12, 41, 15, 14, 19, 17, 33, 26, 22, 30, 13, 19, 12, 27, 32, 20, 30, 23, 29, 23, 17, 18, 17, 20, 10, 26, 9, 25, 26, 30, 23, 30, 8, 22, 19, 0, 7, 27, 17, 31, 31
            |15, 47, 21, 20, 15, 15, 38, 31, 17, 32, 17, 16, 14, 24, 29, 27, 37, 30, 36, 26, 21, 14, 15, 20, 4, 31, 16, 26, 24, 30, 29, 30, 13, 24, 18, 7, 0, 34, 18, 36, 38
            |25, 24, 19, 22, 44, 40, 20, 26, 45, 35, 25, 44, 31, 45, 49, 12, 10, 4, 16, 26, 25, 39, 39, 33, 37, 24, 20, 35, 44, 40, 16, 41, 24, 32, 36, 27, 34, 0, 35, 20, 8
            |29, 55, 31, 13, 13, 8, 47, 18, 34, 47, 30, 12, 5, 42, 47, 24, 42, 31, 28, 39, 34, 32, 6, 36, 16, 19, 16, 42, 42, 47, 38, 47, 25, 39, 35, 17, 18, 35, 0, 45, 41
            |21, 11, 16, 35, 50, 48, 2, 43, 40, 20, 20, 50, 40, 35, 38, 28, 11, 19, 35, 13, 17, 34, 47, 24, 40, 41, 29, 22, 34, 26, 8, 27, 23, 20, 28, 31, 36, 20, 45, 0, 13
            |26, 16, 19, 29, 49, 46, 13, 34, 46, 32, 25, 49, 37, 44, 48, 19, 3, 10, 24, 23, 24, 40, 45, 32, 41, 32, 25, 33, 43, 38, 12, 39, 26, 30, 36, 31, 38, 8, 41, 13, 0|];
early = [0, 113, 0, 266, 173, 178, 111, 352, 220, 50, 0, 200, 412, 0, 5, 118, 117, 125, 293, 0, 0, 0, 196, 0, 181, 283, 167, 0, 66, 80, 71, 40, 0, 0, 11, 157, 217, 327, 199, 383, 364];
late = [590, 232, 67, 428, 308, 330, 229, 493, 370, 190, 115, 310, 566, 147, 136, 269, 253, 260, 448, 105, 90, 133, 363, 123, 300, 432, 279, 101, 192, 198, 223, 146, 87, 93, 140, 284, 372, 469, 343, 538, 513];