% n40w160.004	   60.40 496
n = 41;
duration = [|0, 50, 39, 12, 12, 32, 28, 13, 20, 20, 30, 36, 49, 2, 14, 15, 35, 50, 16, 5, 24, 42, 28, 28, 34, 43, 5, 48, 17, 19, 19, 23, 30, 11, 41, 26, 31, 13, 22, 45, 38
            |50, 0, 36, 38, 38, 18, 25, 39, 30, 31, 21, 15, 11, 50, 38, 37, 20, 7, 34, 47, 33, 8, 37, 22, 25, 12, 45, 35, 34, 31, 31, 29, 31, 39, 12, 31, 38, 38, 41, 11, 34
            |39, 36, 0, 29, 32, 32, 37, 27, 30, 24, 22, 33, 27, 38, 37, 25, 18, 31, 29, 34, 16, 33, 50, 28, 44, 24, 35, 9, 25, 30, 28, 35, 46, 31, 25, 16, 52, 29, 48, 40, 2
            |12, 38, 29, 0, 4, 21, 20, 2, 10, 8, 18, 25, 37, 12, 10, 3, 23, 38, 4, 9, 13, 31, 26, 17, 27, 30, 7, 37, 5, 9, 8, 14, 25, 2, 29, 14, 29, 1, 22, 34, 27
            |12, 38, 32, 4, 0, 20, 17, 7, 8, 9, 18, 23, 37, 13, 6, 7, 24, 38, 4, 10, 16, 30, 22, 16, 24, 31, 7, 40, 8, 6, 7, 11, 21, 3, 29, 17, 25, 4, 17, 33, 30
            |32, 18, 32, 21, 20, 0, 8, 22, 12, 15, 9, 4, 21, 33, 20, 21, 14, 20, 17, 30, 21, 11, 22, 5, 13, 16, 27, 36, 18, 13, 14, 10, 16, 22, 14, 19, 24, 21, 24, 13, 30
            |28, 25, 37, 20, 17, 8, 0, 21, 10, 16, 16, 11, 29, 29, 14, 20, 21, 28, 15, 27, 24, 18, 13, 10, 8, 24, 23, 42, 18, 11, 13, 5, 8, 19, 22, 23, 16, 19, 16, 17, 35
            |13, 39, 27, 2, 7, 22, 21, 0, 11, 8, 18, 26, 37, 12, 13, 2, 22, 38, 6, 9, 11, 32, 28, 18, 29, 30, 8, 35, 5, 10, 9, 16, 27, 4, 29, 13, 31, 3, 24, 36, 25
            |20, 30, 30, 10, 8, 12, 10, 11, 0, 7, 12, 16, 30, 21, 9, 10, 18, 30, 5, 18, 15, 22, 19, 9, 18, 24, 15, 37, 8, 1, 3, 5, 17, 10, 22, 15, 22, 9, 18, 25, 28
            |20, 31, 24, 8, 9, 15, 16, 8, 7, 0, 10, 18, 29, 20, 13, 6, 15, 30, 5, 16, 9, 24, 26, 10, 24, 23, 15, 31, 3, 6, 4, 12, 23, 9, 21, 9, 29, 7, 24, 28, 22
            |30, 21, 22, 18, 18, 9, 16, 18, 12, 10, 0, 11, 19, 30, 21, 16, 6, 20, 15, 26, 13, 15, 29, 6, 22, 13, 25, 27, 13, 13, 11, 14, 24, 19, 11, 10, 31, 17, 29, 20, 20
            |36, 15, 33, 25, 23, 4, 11, 26, 16, 18, 11, 0, 19, 36, 23, 24, 14, 17, 21, 33, 23, 7, 24, 8, 14, 14, 30, 36, 21, 17, 17, 14, 18, 25, 12, 21, 26, 24, 27, 10, 30
            |49, 11, 27, 37, 37, 21, 29, 37, 30, 29, 19, 19, 0, 49, 39, 34, 14, 4, 34, 45, 28, 13, 42, 22, 32, 6, 44, 25, 32, 32, 30, 31, 37, 38, 8, 26, 44, 36, 45, 20, 26
            |2, 50, 38, 12, 13, 33, 29, 12, 21, 20, 30, 36, 49, 0, 15, 15, 35, 50, 16, 4, 23, 43, 30, 29, 36, 43, 6, 46, 17, 19, 19, 24, 32, 11, 41, 25, 33, 13, 24, 45, 36
            |14, 38, 37, 10, 6, 20, 14, 13, 9, 13, 21, 23, 39, 15, 0, 13, 27, 39, 9, 14, 21, 30, 16, 17, 21, 33, 10, 45, 13, 8, 10, 9, 16, 9, 31, 22, 19, 9, 12, 31, 36
            |15, 37, 25, 3, 7, 21, 20, 2, 10, 6, 16, 24, 34, 15, 13, 0, 20, 36, 5, 11, 9, 30, 28, 16, 28, 28, 10, 34, 3, 9, 7, 15, 26, 5, 27, 11, 31, 4, 24, 34, 24
            |35, 20, 18, 23, 24, 14, 21, 22, 18, 15, 6, 14, 14, 35, 27, 20, 0, 16, 20, 31, 14, 15, 35, 12, 27, 8, 30, 21, 18, 19, 17, 21, 30, 25, 8, 11, 37, 23, 35, 22, 16
            |50, 7, 31, 38, 38, 20, 28, 38, 30, 30, 20, 17, 4, 50, 39, 36, 16, 0, 34, 46, 30, 10, 41, 22, 29, 8, 44, 29, 33, 32, 30, 30, 35, 39, 9, 28, 42, 37, 44, 16, 29
            |16, 34, 29, 4, 4, 17, 15, 6, 5, 5, 15, 21, 34, 16, 9, 5, 20, 34, 0, 13, 13, 27, 23, 13, 23, 27, 10, 36, 4, 4, 4, 10, 21, 5, 26, 13, 26, 4, 20, 30, 27
            |5, 47, 34, 9, 10, 30, 27, 9, 18, 16, 26, 33, 45, 4, 14, 11, 31, 46, 13, 0, 19, 40, 30, 25, 34, 39, 4, 42, 13, 16, 16, 21, 31, 8, 38, 21, 33, 9, 24, 43, 32
            |24, 33, 16, 13, 16, 21, 24, 11, 15, 9, 13, 23, 28, 23, 21, 9, 14, 30, 13, 19, 0, 27, 35, 16, 32, 23, 19, 24, 9, 15, 12, 20, 32, 15, 22, 3, 38, 13, 33, 33, 14
            |42, 8, 33, 31, 30, 11, 18, 32, 22, 24, 15, 7, 13, 43, 30, 30, 15, 10, 27, 40, 27, 0, 30, 14, 19, 10, 37, 34, 27, 24, 23, 21, 24, 32, 9, 25, 32, 30, 34, 8, 31
            |28, 37, 50, 26, 22, 22, 13, 28, 19, 26, 29, 24, 42, 30, 16, 28, 35, 41, 23, 30, 35, 30, 0, 23, 12, 37, 26, 55, 27, 20, 22, 15, 6, 25, 35, 34, 3, 25, 7, 27, 47
            |28, 22, 28, 17, 16, 5, 10, 18, 9, 10, 6, 8, 22, 29, 17, 16, 12, 22, 13, 25, 16, 14, 23, 0, 17, 16, 23, 33, 13, 10, 9, 9, 18, 18, 14, 14, 26, 16, 24, 18, 26
            |34, 25, 44, 27, 24, 13, 8, 29, 18, 24, 22, 14, 32, 36, 21, 28, 27, 29, 23, 34, 32, 19, 12, 17, 0, 27, 30, 48, 26, 19, 21, 13, 6, 27, 25, 30, 13, 26, 18, 15, 42
            |43, 12, 24, 30, 31, 16, 24, 30, 24, 23, 13, 14, 6, 43, 33, 28, 8, 8, 27, 39, 23, 10, 37, 16, 27, 0, 37, 24, 25, 25, 24, 25, 32, 32, 2, 20, 39, 30, 40, 18, 22
            |5, 45, 35, 7, 7, 27, 23, 8, 15, 15, 25, 30, 44, 6, 10, 10, 30, 44, 10, 4, 19, 37, 26, 23, 30, 37, 0, 43, 12, 13, 14, 18, 27, 5, 36, 21, 29, 7, 20, 40, 33
            |48, 35, 9, 37, 40, 36, 42, 35, 37, 31, 27, 36, 25, 46, 45, 34, 21, 29, 36, 42, 24, 34, 55, 33, 48, 24, 43, 0, 32, 37, 34, 41, 51, 39, 26, 23, 58, 37, 55, 42, 10
            |17, 34, 25, 5, 8, 18, 18, 5, 8, 3, 13, 21, 32, 17, 13, 3, 18, 33, 4, 13, 9, 27, 27, 13, 26, 25, 12, 32, 0, 7, 5, 13, 25, 7, 24, 9, 30, 5, 24, 31, 23
            |19, 31, 30, 9, 6, 13, 11, 10, 1, 6, 13, 17, 32, 19, 8, 9, 19, 32, 4, 16, 15, 24, 20, 10, 19, 25, 13, 37, 7, 0, 3, 6, 17, 9, 24, 15, 23, 8, 18, 26, 28
            |19, 31, 28, 8, 7, 14, 13, 9, 3, 4, 11, 17, 30, 19, 10, 7, 17, 30, 4, 16, 12, 23, 22, 9, 21, 24, 14, 34, 5, 3, 0, 8, 20, 9, 22, 12, 26, 7, 21, 27, 26
            |23, 29, 35, 14, 11, 10, 5, 16, 5, 12, 14, 14, 31, 24, 9, 15, 21, 30, 10, 21, 20, 21, 15, 9, 13, 25, 18, 41, 13, 6, 8, 0, 12, 14, 23, 19, 18, 13, 15, 22, 33
            |30, 31, 46, 25, 21, 16, 8, 27, 17, 23, 24, 18, 37, 32, 16, 26, 30, 35, 21, 31, 32, 24, 6, 18, 6, 32, 27, 51, 25, 17, 20, 12, 0, 24, 30, 31, 8, 24, 12, 21, 44
            |11, 39, 31, 2, 3, 22, 19, 4, 10, 9, 19, 25, 38, 11, 9, 5, 25, 39, 5, 8, 15, 32, 25, 18, 27, 32, 5, 39, 7, 9, 9, 14, 24, 0, 30, 16, 28, 2, 20, 35, 29
            |41, 12, 25, 29, 29, 14, 22, 29, 22, 21, 11, 12, 8, 41, 31, 27, 8, 9, 26, 38, 22, 9, 35, 14, 25, 2, 36, 26, 24, 24, 22, 23, 30, 30, 0, 19, 37, 29, 37, 16, 23
            |26, 31, 16, 14, 17, 19, 23, 13, 15, 9, 10, 21, 26, 25, 22, 11, 11, 28, 13, 21, 3, 25, 34, 14, 30, 20, 21, 23, 9, 15, 12, 19, 31, 16, 19, 0, 37, 14, 33, 31, 14
            |31, 38, 52, 29, 25, 24, 16, 31, 22, 29, 31, 26, 44, 33, 19, 31, 37, 42, 26, 33, 38, 32, 3, 26, 13, 39, 29, 58, 30, 23, 26, 18, 8, 28, 37, 37, 0, 28, 9, 28, 50
            |13, 38, 29, 1, 4, 21, 19, 3, 9, 7, 17, 24, 36, 13, 9, 4, 23, 37, 4, 9, 13, 30, 25, 16, 26, 30, 7, 37, 5, 8, 7, 13, 24, 2, 29, 14, 28, 0, 21, 34, 27
            |22, 41, 48, 22, 17, 24, 16, 24, 18, 24, 29, 27, 45, 24, 12, 24, 35, 44, 20, 24, 33, 34, 7, 24, 18, 40, 20, 55, 24, 18, 21, 15, 12, 20, 37, 33, 9, 21, 0, 32, 46
            |45, 11, 40, 34, 33, 13, 17, 36, 25, 28, 20, 10, 20, 45, 31, 34, 22, 16, 30, 43, 33, 8, 27, 18, 15, 18, 40, 42, 31, 26, 27, 22, 21, 35, 16, 31, 28, 34, 32, 0, 38
            |38, 34, 2, 27, 30, 30, 35, 25, 28, 22, 20, 30, 26, 36, 36, 24, 16, 29, 27, 32, 14, 31, 47, 26, 42, 22, 33, 10, 23, 28, 26, 33, 44, 29, 23, 14, 50, 27, 46, 38, 0|];