% n40w140.005	   42.30 492
n = 41;
duration = [|0, 16, 29, 28, 27, 19, 24, 24, 42, 36, 32, 6, 24, 39, 44, 27, 30, 41, 23, 4, 9, 19, 39, 36, 9, 32, 17, 25, 34, 14, 47, 41, 29, 32, 31, 15, 30, 19, 36, 35, 26
            |16, 0, 41, 40, 37, 18, 29, 32, 39, 34, 27, 22, 9, 47, 43, 40, 28, 35, 20, 16, 13, 28, 28, 45, 24, 16, 26, 12, 31, 28, 42, 33, 35, 42, 27, 16, 38, 23, 35, 25, 12
            |29, 41, 0, 3, 6, 28, 16, 12, 39, 32, 36, 24, 46, 15, 35, 4, 31, 42, 30, 26, 28, 13, 49, 9, 29, 55, 15, 44, 33, 15, 45, 47, 15, 5, 35, 27, 10, 21, 31, 46, 45
            |28, 40, 3, 0, 8, 29, 18, 14, 41, 34, 37, 22, 46, 18, 38, 1, 33, 44, 32, 25, 28, 13, 51, 12, 27, 55, 15, 44, 35, 14, 48, 48, 17, 8, 36, 27, 13, 22, 33, 47, 45
            |27, 37, 6, 8, 0, 23, 11, 7, 33, 26, 30, 23, 42, 12, 30, 9, 25, 36, 25, 24, 25, 9, 44, 8, 29, 50, 11, 39, 27, 15, 39, 41, 9, 5, 29, 23, 5, 16, 25, 40, 40
            |19, 18, 28, 29, 23, 0, 13, 16, 23, 17, 13, 21, 20, 30, 26, 29, 11, 22, 4, 15, 11, 15, 23, 30, 27, 28, 14, 16, 15, 21, 28, 23, 18, 28, 12, 4, 22, 6, 17, 19, 18
            |24, 29, 16, 18, 11, 13, 0, 4, 24, 17, 19, 22, 32, 17, 23, 19, 15, 26, 14, 19, 18, 7, 33, 17, 29, 41, 8, 29, 17, 17, 30, 30, 6, 15, 18, 14, 9, 7, 16, 29, 30
            |24, 32, 12, 14, 7, 16, 4, 0, 28, 20, 23, 21, 36, 15, 26, 15, 19, 30, 18, 20, 20, 5, 37, 14, 28, 44, 7, 33, 21, 15, 34, 34, 6, 11, 22, 17, 6, 10, 20, 33, 34
            |42, 39, 39, 41, 33, 23, 24, 28, 0, 8, 12, 43, 35, 31, 8, 43, 12, 6, 19, 38, 34, 31, 21, 35, 50, 40, 31, 30, 8, 41, 6, 13, 24, 36, 12, 28, 29, 24, 8, 19, 31
            |36, 34, 32, 34, 26, 17, 17, 20, 8, 0, 9, 36, 32, 25, 9, 35, 6, 10, 14, 31, 27, 24, 22, 29, 43, 38, 24, 27, 3, 33, 14, 16, 17, 29, 8, 21, 22, 17, 1, 19, 28
            |32, 27, 36, 37, 30, 13, 19, 23, 12, 9, 0, 34, 24, 32, 17, 38, 4, 9, 9, 28, 23, 25, 14, 34, 40, 30, 24, 19, 5, 33, 16, 11, 22, 34, 1, 17, 27, 16, 10, 11, 20
            |6, 22, 24, 22, 23, 21, 22, 21, 43, 36, 34, 0, 30, 35, 44, 22, 32, 43, 25, 7, 12, 16, 43, 31, 7, 38, 14, 30, 35, 8, 49, 44, 27, 27, 33, 17, 26, 19, 36, 39, 31
            |24, 9, 46, 46, 42, 20, 32, 36, 35, 32, 24, 30, 0, 50, 41, 46, 26, 31, 20, 23, 19, 33, 21, 49, 33, 9, 31, 5, 29, 35, 38, 27, 38, 47, 24, 19, 42, 26, 33, 18, 4
            |39, 47, 15, 18, 12, 30, 17, 15, 31, 25, 32, 35, 50, 0, 25, 19, 28, 35, 31, 35, 35, 20, 47, 6, 42, 58, 22, 46, 28, 28, 37, 42, 12, 10, 31, 31, 9, 24, 24, 43, 47
            |44, 43, 35, 38, 30, 26, 23, 26, 8, 9, 17, 44, 41, 25, 0, 39, 15, 14, 23, 40, 36, 30, 28, 30, 51, 47, 30, 36, 12, 40, 12, 21, 21, 32, 17, 30, 25, 25, 9, 27, 37
            |27, 40, 4, 1, 9, 29, 19, 15, 43, 35, 38, 22, 46, 19, 39, 0, 34, 45, 32, 25, 28, 14, 51, 13, 26, 55, 16, 44, 36, 13, 49, 49, 19, 9, 37, 28, 14, 23, 34, 48, 46
            |30, 28, 31, 33, 25, 11, 15, 19, 12, 6, 4, 32, 26, 28, 15, 34, 0, 12, 8, 26, 22, 21, 19, 30, 38, 33, 21, 21, 4, 30, 17, 15, 17, 29, 4, 16, 22, 13, 7, 16, 23
            |41, 35, 42, 44, 36, 22, 26, 30, 6, 10, 9, 43, 31, 35, 14, 45, 12, 0, 18, 37, 33, 33, 15, 39, 50, 35, 32, 26, 9, 41, 7, 7, 27, 39, 10, 26, 32, 25, 11, 14, 27
            |23, 20, 30, 32, 25, 4, 14, 18, 19, 14, 9, 25, 20, 31, 23, 32, 8, 18, 0, 19, 15, 18, 19, 31, 32, 27, 17, 16, 11, 25, 24, 19, 19, 30, 8, 9, 23, 9, 14, 15, 17
            |4, 16, 26, 25, 24, 15, 19, 20, 38, 31, 28, 7, 23, 35, 40, 25, 26, 37, 19, 0, 5, 15, 36, 32, 13, 32, 13, 23, 30, 12, 43, 38, 25, 28, 27, 11, 26, 15, 31, 32, 24
            |9, 13, 28, 28, 25, 11, 18, 20, 34, 27, 23, 12, 19, 35, 36, 28, 22, 33, 15, 5, 0, 16, 31, 33, 17, 28, 13, 18, 26, 16, 39, 33, 24, 30, 23, 6, 26, 12, 28, 27, 20
            |19, 28, 13, 13, 9, 15, 7, 5, 31, 24, 25, 16, 33, 20, 30, 14, 21, 33, 18, 15, 16, 0, 38, 17, 23, 42, 2, 31, 24, 10, 37, 36, 11, 14, 24, 14, 11, 9, 23, 34, 32
            |39, 28, 49, 51, 44, 23, 33, 37, 21, 22, 14, 43, 21, 47, 28, 51, 19, 15, 19, 36, 31, 38, 0, 49, 48, 22, 36, 16, 19, 44, 20, 8, 36, 48, 15, 26, 41, 28, 23, 4, 16
            |36, 45, 9, 12, 8, 30, 17, 14, 35, 29, 34, 31, 49, 6, 30, 13, 30, 39, 31, 32, 33, 17, 49, 0, 37, 57, 19, 46, 31, 23, 41, 45, 13, 4, 34, 30, 8, 23, 28, 45, 47
            |9, 24, 29, 27, 29, 27, 29, 28, 50, 43, 40, 7, 33, 42, 51, 26, 38, 50, 32, 13, 17, 23, 48, 37, 0, 41, 21, 34, 42, 14, 56, 50, 34, 33, 40, 23, 33, 26, 43, 44, 35
            |32, 16, 55, 55, 50, 28, 41, 44, 40, 38, 30, 38, 9, 58, 47, 55, 33, 35, 27, 32, 28, 42, 22, 57, 41, 0, 40, 12, 35, 43, 41, 29, 46, 55, 30, 28, 50, 34, 39, 21, 10
            |17, 26, 15, 15, 11, 14, 8, 7, 31, 24, 24, 14, 31, 22, 30, 16, 21, 32, 17, 13, 13, 2, 36, 19, 21, 40, 0, 29, 23, 9, 37, 35, 13, 16, 23, 12, 13, 8, 23, 32, 30
            |25, 12, 44, 44, 39, 16, 29, 33, 30, 27, 19, 30, 5, 46, 36, 44, 21, 26, 16, 23, 18, 31, 16, 46, 34, 12, 29, 0, 24, 34, 33, 22, 34, 44, 19, 17, 38, 23, 28, 14, 1
            |34, 31, 33, 35, 27, 15, 17, 21, 8, 3, 5, 35, 29, 28, 12, 36, 4, 9, 11, 30, 26, 24, 19, 31, 42, 35, 23, 24, 0, 33, 14, 14, 18, 31, 5, 19, 24, 16, 4, 16, 25
            |14, 28, 15, 14, 15, 21, 17, 15, 41, 33, 33, 8, 35, 28, 40, 13, 30, 41, 25, 12, 16, 10, 44, 23, 14, 43, 9, 34, 33, 0, 47, 44, 21, 19, 32, 18, 19, 17, 33, 40, 35
            |47, 42, 45, 48, 39, 28, 30, 34, 6, 14, 16, 49, 38, 37, 12, 49, 17, 7, 24, 43, 39, 37, 20, 41, 56, 41, 37, 33, 14, 47, 0, 12, 30, 42, 16, 33, 35, 30, 14, 20, 33
            |41, 33, 47, 48, 41, 23, 30, 34, 13, 16, 11, 44, 27, 42, 21, 49, 15, 7, 19, 38, 33, 36, 8, 45, 50, 29, 35, 22, 14, 44, 12, 0, 32, 44, 12, 27, 37, 27, 17, 9, 22
            |29, 35, 15, 17, 9, 18, 6, 6, 24, 17, 22, 27, 38, 12, 21, 19, 17, 27, 19, 25, 24, 11, 36, 13, 34, 46, 13, 34, 18, 21, 30, 32, 0, 12, 21, 20, 5, 13, 16, 33, 36
            |32, 42, 5, 8, 5, 28, 15, 11, 36, 29, 34, 27, 47, 10, 32, 9, 29, 39, 30, 28, 30, 14, 48, 4, 33, 55, 16, 44, 31, 19, 42, 44, 12, 0, 33, 28, 7, 21, 28, 44, 45
            |31, 27, 35, 36, 29, 12, 18, 22, 12, 8, 1, 33, 24, 31, 17, 37, 4, 10, 8, 27, 23, 24, 15, 34, 40, 30, 23, 19, 5, 32, 16, 12, 21, 33, 0, 16, 26, 15, 9, 12, 20
            |15, 16, 27, 27, 23, 4, 14, 17, 28, 21, 17, 17, 19, 31, 30, 28, 16, 26, 9, 11, 6, 14, 26, 30, 23, 28, 12, 17, 19, 18, 33, 27, 20, 28, 16, 0, 23, 7, 21, 22, 18
            |30, 38, 10, 13, 5, 22, 9, 6, 29, 22, 27, 26, 42, 9, 25, 14, 22, 32, 23, 26, 26, 11, 41, 8, 33, 50, 13, 38, 24, 19, 35, 37, 5, 7, 26, 23, 0, 16, 21, 38, 40
            |19, 23, 21, 22, 16, 6, 7, 10, 24, 17, 16, 19, 26, 24, 25, 23, 13, 25, 9, 15, 12, 9, 28, 23, 26, 34, 8, 23, 16, 17, 30, 27, 13, 21, 15, 7, 16, 0, 17, 25, 24
            |36, 35, 31, 33, 25, 17, 16, 20, 8, 1, 10, 36, 33, 24, 9, 34, 7, 11, 14, 31, 28, 23, 23, 28, 43, 39, 23, 28, 4, 33, 14, 17, 16, 28, 9, 21, 21, 17, 0, 21, 29
            |35, 25, 46, 47, 40, 19, 29, 33, 19, 19, 11, 39, 18, 43, 27, 48, 16, 14, 15, 32, 27, 34, 4, 45, 44, 21, 32, 14, 16, 40, 20, 9, 33, 44, 12, 22, 38, 25, 21, 0, 14
            |26, 12, 45, 45, 40, 18, 30, 34, 31, 28, 20, 31, 4, 47, 37, 46, 23, 27, 17, 24, 20, 32, 16, 47, 35, 10, 30, 1, 25, 35, 33, 22, 36, 45, 20, 18, 40, 24, 29, 14, 0|];