% n40w180.004	   68.72 470
n = 41;
duration = [|0, 47, 27, 49, 40, 14, 10, 46, 37, 32, 27, 26, 15, 35, 45, 15, 34, 29, 7, 28, 24, 32, 20, 28, 43, 14, 28, 42, 45, 11, 39, 43, 22, 38, 54, 20, 7, 36, 33, 39, 8
            |47, 0, 39, 14, 25, 32, 49, 20, 14, 25, 34, 25, 31, 12, 11, 46, 38, 43, 45, 23, 37, 29, 26, 39, 29, 38, 33, 28, 16, 40, 26, 21, 39, 9, 14, 28, 51, 26, 13, 21, 44
            |27, 39, 0, 33, 19, 22, 20, 27, 25, 40, 4, 35, 24, 28, 44, 14, 50, 49, 32, 34, 4, 44, 21, 46, 20, 13, 6, 19, 47, 32, 18, 48, 4, 31, 52, 17, 25, 45, 29, 21, 32
            |49, 14, 33, 0, 14, 35, 48, 7, 12, 36, 29, 34, 35, 16, 25, 43, 49, 53, 49, 32, 32, 40, 29, 49, 17, 37, 26, 17, 30, 45, 16, 35, 35, 15, 28, 28, 51, 38, 19, 12, 48
            |40, 25, 19, 14, 0, 29, 37, 8, 13, 38, 16, 34, 30, 18, 33, 32, 51, 52, 43, 33, 20, 43, 24, 49, 4, 27, 14, 3, 38, 40, 1, 41, 22, 21, 39, 22, 41, 42, 21, 4, 42
            |14, 32, 22, 35, 29, 0, 19, 34, 23, 21, 20, 15, 2, 21, 31, 18, 28, 26, 14, 15, 19, 23, 6, 24, 33, 11, 21, 31, 32, 11, 29, 31, 19, 24, 40, 8, 19, 25, 19, 27, 13
            |10, 49, 20, 48, 37, 19, 0, 44, 37, 39, 22, 33, 21, 37, 50, 6, 43, 39, 17, 34, 18, 41, 23, 38, 39, 11, 24, 38, 50, 21, 36, 50, 16, 41, 59, 21, 5, 44, 36, 37, 18
            |46, 20, 27, 7, 8, 34, 44, 0, 12, 38, 23, 35, 34, 18, 30, 39, 52, 54, 48, 34, 27, 43, 28, 50, 10, 33, 21, 9, 35, 44, 9, 39, 30, 19, 34, 26, 48, 42, 21, 7, 47
            |37, 14, 25, 12, 13, 23, 37, 12, 0, 26, 20, 23, 23, 6, 21, 33, 40, 42, 37, 21, 23, 31, 17, 38, 17, 26, 18, 16, 25, 33, 13, 29, 25, 8, 28, 16, 40, 30, 9, 9, 36
            |32, 25, 40, 36, 38, 21, 39, 38, 26, 0, 37, 6, 19, 21, 17, 39, 14, 18, 27, 6, 37, 5, 19, 14, 42, 31, 36, 41, 14, 21, 38, 11, 38, 20, 25, 23, 38, 5, 17, 34, 25
            |27, 34, 4, 29, 16, 20, 22, 23, 20, 37, 0, 31, 22, 23, 39, 16, 47, 46, 31, 31, 4, 41, 18, 43, 17, 13, 2, 16, 42, 30, 15, 44, 6, 27, 47, 14, 26, 42, 25, 17, 31
            |26, 25, 35, 34, 34, 15, 33, 35, 23, 6, 31, 0, 13, 18, 20, 33, 17, 19, 22, 2, 31, 9, 13, 15, 38, 25, 31, 37, 18, 17, 34, 17, 32, 19, 29, 17, 32, 11, 14, 30, 21
            |15, 31, 24, 35, 30, 2, 21, 34, 23, 19, 22, 13, 0, 20, 30, 20, 26, 25, 14, 13, 21, 21, 6, 22, 34, 13, 22, 32, 30, 10, 30, 29, 21, 23, 39, 9, 21, 24, 18, 28, 13
            |35, 12, 28, 16, 18, 21, 37, 18, 6, 21, 23, 18, 20, 0, 16, 34, 34, 37, 34, 16, 26, 25, 15, 33, 23, 26, 22, 22, 20, 30, 19, 23, 28, 4, 24, 16, 39, 24, 4, 14, 33
            |45, 11, 44, 25, 33, 31, 50, 30, 21, 17, 39, 20, 30, 16, 0, 48, 29, 35, 42, 18, 41, 21, 26, 31, 38, 40, 38, 36, 6, 36, 34, 11, 43, 13, 9, 29, 50, 17, 15, 29, 40
            |15, 46, 14, 43, 32, 18, 6, 39, 33, 39, 16, 33, 20, 34, 48, 0, 45, 42, 21, 34, 12, 41, 21, 40, 33, 8, 18, 32, 49, 24, 31, 49, 10, 37, 57, 19, 11, 44, 33, 32, 22
            |34, 38, 50, 49, 51, 28, 43, 52, 40, 14, 47, 17, 26, 34, 29, 45, 0, 7, 27, 18, 46, 9, 29, 5, 55, 39, 47, 54, 25, 22, 51, 20, 47, 34, 36, 33, 41, 12, 31, 47, 26
            |29, 43, 49, 53, 52, 26, 39, 54, 42, 18, 46, 19, 25, 37, 35, 42, 7, 0, 22, 21, 45, 14, 29, 4, 57, 36, 47, 55, 31, 18, 52, 26, 45, 38, 42, 33, 36, 18, 34, 49, 21
            |7, 45, 32, 49, 43, 14, 17, 48, 37, 27, 31, 22, 14, 34, 42, 21, 27, 22, 0, 24, 28, 27, 20, 22, 46, 18, 32, 45, 41, 6, 42, 38, 28, 37, 51, 21, 14, 31, 32, 41, 1
            |28, 23, 34, 32, 33, 15, 34, 34, 21, 6, 31, 2, 13, 16, 18, 34, 18, 21, 24, 0, 31, 10, 13, 17, 37, 26, 30, 36, 17, 18, 33, 16, 32, 17, 27, 17, 34, 11, 13, 29, 22
            |24, 37, 4, 32, 20, 19, 18, 27, 23, 37, 4, 31, 21, 26, 41, 12, 46, 45, 28, 31, 0, 41, 18, 43, 21, 10, 6, 20, 44, 28, 19, 45, 2, 30, 50, 14, 22, 42, 27, 21, 28
            |32, 29, 44, 40, 43, 23, 41, 43, 31, 5, 41, 9, 21, 25, 21, 41, 9, 14, 27, 10, 41, 0, 23, 10, 47, 34, 40, 46, 17, 21, 43, 13, 41, 25, 28, 27, 39, 4, 22, 39, 25
            |20, 26, 21, 29, 24, 6, 23, 28, 17, 19, 18, 13, 6, 15, 26, 21, 29, 29, 20, 13, 18, 23, 0, 26, 28, 13, 18, 27, 28, 16, 24, 28, 19, 18, 35, 4, 24, 24, 13, 22, 19
            |28, 39, 46, 49, 49, 24, 38, 50, 38, 14, 43, 15, 22, 33, 31, 40, 5, 4, 22, 17, 43, 10, 26, 0, 53, 34, 44, 52, 27, 17, 49, 23, 43, 34, 38, 30, 35, 14, 30, 45, 20
            |43, 29, 20, 17, 4, 33, 39, 10, 17, 42, 17, 38, 34, 23, 38, 33, 55, 57, 46, 37, 21, 47, 28, 53, 0, 29, 15, 1, 42, 44, 4, 46, 23, 25, 43, 25, 43, 47, 26, 9, 45
            |14, 38, 13, 37, 27, 11, 11, 33, 26, 31, 13, 25, 13, 26, 40, 8, 39, 36, 18, 26, 10, 34, 13, 34, 29, 0, 15, 28, 41, 19, 26, 41, 9, 30, 49, 11, 14, 36, 25, 26, 18
            |28, 33, 6, 26, 14, 21, 24, 21, 18, 36, 2, 31, 22, 22, 38, 18, 47, 47, 32, 30, 6, 40, 18, 44, 15, 15, 0, 14, 41, 31, 12, 43, 9, 25, 46, 14, 28, 41, 23, 14, 32
            |42, 28, 19, 17, 3, 31, 38, 9, 16, 41, 16, 37, 32, 22, 36, 32, 54, 55, 45, 36, 20, 46, 27, 52, 1, 28, 14, 0, 41, 42, 3, 45, 22, 24, 42, 24, 42, 45, 25, 7, 44
            |45, 16, 47, 30, 38, 32, 50, 35, 25, 14, 42, 18, 30, 20, 6, 49, 25, 31, 41, 17, 44, 17, 28, 27, 42, 41, 41, 41, 0, 35, 39, 5, 46, 17, 11, 31, 50, 13, 18, 34, 39
            |11, 40, 32, 45, 40, 11, 21, 44, 33, 21, 30, 17, 10, 30, 36, 24, 22, 18, 6, 18, 28, 21, 16, 17, 44, 19, 31, 42, 35, 0, 40, 33, 28, 32, 45, 19, 18, 25, 27, 38, 4
            |39, 26, 18, 16, 1, 29, 36, 9, 13, 38, 15, 34, 30, 19, 34, 31, 51, 52, 42, 33, 19, 43, 24, 49, 4, 26, 12, 3, 39, 40, 0, 42, 21, 21, 40, 21, 40, 43, 22, 5, 41
            |43, 21, 48, 35, 41, 31, 50, 39, 29, 11, 44, 17, 29, 23, 11, 49, 20, 26, 38, 16, 45, 13, 28, 23, 46, 41, 43, 45, 5, 33, 42, 0, 47, 21, 16, 32, 49, 9, 20, 37, 37
            |22, 39, 4, 35, 22, 19, 16, 30, 25, 38, 6, 32, 21, 28, 43, 10, 47, 45, 28, 32, 2, 41, 19, 43, 23, 9, 9, 22, 46, 28, 21, 47, 0, 31, 51, 15, 21, 43, 28, 23, 28
            |38, 9, 31, 15, 21, 24, 41, 19, 8, 20, 27, 19, 23, 4, 13, 37, 34, 38, 37, 17, 30, 25, 18, 34, 25, 30, 25, 24, 17, 32, 21, 21, 31, 0, 20, 19, 42, 23, 5, 16, 36
            |54, 14, 52, 28, 39, 40, 59, 34, 28, 25, 47, 29, 39, 24, 9, 57, 36, 42, 51, 27, 50, 28, 35, 38, 43, 49, 46, 42, 11, 45, 40, 16, 51, 20, 0, 38, 59, 24, 23, 35, 49
            |20, 28, 17, 28, 22, 8, 21, 26, 16, 23, 14, 17, 9, 16, 29, 19, 33, 33, 21, 17, 14, 27, 4, 30, 25, 11, 14, 24, 31, 19, 21, 32, 15, 19, 38, 0, 23, 28, 15, 19, 21
            |7, 51, 25, 51, 41, 19, 5, 48, 40, 38, 26, 32, 21, 39, 50, 11, 41, 36, 14, 34, 22, 39, 24, 35, 43, 14, 28, 42, 50, 18, 40, 49, 21, 42, 59, 23, 0, 42, 37, 40, 15
            |36, 26, 45, 38, 42, 25, 44, 42, 30, 5, 42, 11, 24, 24, 17, 44, 12, 18, 31, 11, 42, 4, 24, 14, 47, 36, 41, 45, 13, 25, 43, 9, 43, 23, 24, 28, 42, 0, 21, 38, 29
            |33, 13, 29, 19, 21, 19, 36, 21, 9, 17, 25, 14, 18, 4, 15, 33, 31, 34, 32, 13, 27, 22, 13, 30, 26, 25, 23, 25, 18, 27, 22, 20, 28, 5, 23, 15, 37, 21, 0, 17, 31
            |39, 21, 21, 12, 4, 27, 37, 7, 9, 34, 17, 30, 28, 14, 29, 32, 47, 49, 41, 29, 21, 39, 22, 45, 9, 26, 14, 7, 34, 38, 5, 37, 23, 16, 35, 19, 40, 38, 17, 0, 40
            |8, 44, 32, 48, 42, 13, 18, 47, 36, 25, 31, 21, 13, 33, 40, 22, 26, 21, 1, 22, 28, 25, 19, 20, 45, 18, 32, 44, 39, 4, 41, 37, 28, 36, 49, 21, 15, 29, 31, 40, 0|];
early = [0, 63, 0, 45, 0, 161, 316, 254, 0, 44, 0, 147, 164, 220, 88, 0, 212, 380, 359, 56, 0, 231, 157, 215, 0, 0, 0, 0, 120, 209, 0, 97, 294, 42, 120, 322, 0, 47, 55, 0, 360];
late = [599, 297, 143, 206, 148, 370, 465, 425, 205, 233, 111, 284, 293, 410, 270, 108, 362, 570, 514, 233, 162, 372, 310, 373, 142, 115, 150, 163, 255, 340, 163, 253, 475, 234, 249, 528, 98, 223, 235, 133, 497];