% n40w160.003	   54.35 497
n = 41;
duration = [|0, 26, 11, 16, 17, 18, 8, 11, 26, 34, 24, 34, 14, 12, 28, 11, 11, 16, 7, 18, 12, 36, 25, 19, 26, 22, 29, 24, 18, 16, 34, 14, 28, 27, 16, 31, 20, 36, 28, 25, 33
            |26, 0, 37, 42, 14, 44, 34, 34, 34, 38, 32, 24, 29, 37, 12, 35, 15, 10, 31, 8, 16, 48, 21, 18, 13, 18, 3, 33, 11, 42, 20, 26, 44, 13, 24, 37, 33, 29, 12, 1, 15
            |11, 37, 0, 6, 26, 8, 7, 6, 33, 42, 31, 44, 21, 11, 40, 4, 22, 27, 12, 29, 22, 41, 31, 26, 37, 29, 39, 31, 29, 6, 45, 23, 32, 35, 26, 38, 26, 47, 40, 35, 44
            |16, 42, 6, 0, 32, 2, 9, 11, 34, 43, 32, 47, 23, 10, 44, 9, 27, 32, 14, 34, 27, 39, 37, 32, 41, 35, 45, 32, 34, 0, 48, 25, 30, 41, 28, 39, 27, 49, 44, 41, 48
            |17, 14, 26, 32, 0, 34, 25, 22, 36, 42, 33, 33, 27, 29, 23, 23, 9, 10, 24, 10, 5, 49, 11, 5, 22, 7, 16, 34, 15, 32, 31, 25, 42, 10, 24, 40, 32, 38, 23, 13, 27
            |18, 44, 8, 2, 34, 0, 11, 13, 35, 44, 34, 49, 25, 12, 46, 11, 29, 34, 16, 36, 29, 40, 39, 34, 43, 37, 47, 34, 36, 2, 50, 27, 31, 43, 30, 40, 28, 51, 46, 43, 50
            |8, 34, 7, 9, 25, 11, 0, 11, 26, 35, 24, 38, 14, 5, 35, 9, 19, 24, 5, 26, 20, 34, 33, 27, 32, 30, 37, 24, 25, 9, 39, 16, 25, 35, 19, 31, 19, 40, 35, 33, 39
            |11, 34, 6, 11, 22, 13, 11, 0, 36, 45, 34, 45, 24, 16, 39, 2, 20, 25, 15, 27, 19, 45, 26, 21, 36, 24, 37, 34, 28, 11, 45, 25, 36, 31, 27, 41, 29, 48, 39, 33, 43
            |26, 34, 33, 34, 36, 35, 26, 36, 0, 9, 3, 21, 12, 24, 26, 35, 27, 27, 21, 29, 31, 13, 47, 41, 24, 43, 37, 2, 24, 34, 24, 12, 11, 44, 12, 5, 7, 20, 26, 34, 28
            |34, 38, 42, 43, 42, 44, 35, 45, 9, 0, 11, 18, 21, 33, 27, 44, 34, 32, 30, 33, 38, 14, 53, 47, 25, 49, 40, 11, 28, 43, 23, 20, 18, 49, 19, 4, 16, 15, 27, 38, 28
            |24, 32, 31, 32, 33, 34, 24, 34, 3, 11, 0, 20, 10, 22, 24, 33, 24, 24, 19, 26, 29, 16, 44, 38, 21, 40, 35, 1, 21, 32, 23, 9, 13, 41, 9, 7, 6, 19, 24, 31, 26
            |34, 24, 44, 47, 33, 49, 38, 45, 21, 18, 20, 0, 25, 38, 12, 45, 27, 23, 33, 23, 31, 32, 43, 38, 11, 40, 25, 21, 19, 47, 4, 23, 32, 37, 19, 20, 25, 5, 12, 24, 10
            |14, 29, 21, 23, 27, 25, 14, 24, 12, 21, 10, 25, 0, 13, 25, 23, 17, 20, 9, 22, 21, 23, 37, 30, 22, 33, 32, 10, 18, 23, 27, 3, 16, 36, 7, 17, 6, 27, 25, 28, 29
            |12, 37, 11, 10, 29, 12, 5, 16, 24, 33, 22, 38, 13, 0, 36, 14, 22, 27, 6, 29, 24, 30, 37, 31, 33, 34, 40, 22, 27, 10, 40, 16, 21, 39, 19, 28, 16, 40, 36, 36, 40
            |28, 12, 40, 44, 23, 46, 35, 39, 26, 27, 24, 12, 25, 36, 0, 39, 19, 14, 30, 13, 22, 39, 32, 28, 3, 29, 14, 25, 11, 44, 8, 22, 37, 25, 19, 28, 27, 17, 0, 13, 4
            |11, 35, 4, 9, 23, 11, 9, 2, 35, 44, 33, 45, 23, 14, 39, 0, 21, 26, 14, 28, 20, 43, 28, 23, 37, 26, 38, 33, 28, 9, 45, 24, 35, 33, 27, 40, 28, 47, 39, 34, 44
            |11, 15, 22, 27, 9, 29, 19, 20, 27, 34, 24, 27, 17, 22, 19, 21, 0, 6, 16, 7, 4, 40, 20, 14, 17, 16, 18, 25, 9, 27, 26, 16, 33, 18, 15, 31, 23, 31, 19, 14, 24
            |16, 10, 27, 32, 10, 34, 24, 25, 27, 32, 24, 23, 20, 27, 14, 26, 6, 0, 20, 2, 8, 40, 21, 16, 12, 17, 13, 25, 4, 32, 21, 17, 35, 17, 15, 30, 24, 27, 14, 9, 18
            |7, 31, 12, 14, 24, 16, 5, 15, 21, 30, 19, 33, 9, 6, 30, 14, 16, 20, 0, 22, 18, 30, 33, 26, 27, 30, 34, 19, 21, 14, 34, 11, 22, 34, 14, 26, 14, 35, 30, 29, 34
            |18, 8, 29, 34, 10, 36, 26, 27, 29, 33, 26, 23, 22, 29, 13, 28, 7, 2, 22, 0, 9, 42, 20, 15, 12, 17, 11, 27, 5, 34, 21, 19, 37, 16, 17, 32, 26, 28, 13, 7, 18
            |12, 16, 22, 27, 5, 29, 20, 19, 31, 38, 29, 31, 21, 24, 22, 20, 4, 8, 18, 9, 0, 44, 16, 9, 20, 12, 18, 29, 12, 27, 29, 20, 37, 15, 19, 36, 27, 35, 22, 14, 27
            |36, 48, 41, 39, 49, 40, 34, 45, 13, 14, 16, 32, 23, 30, 39, 43, 40, 40, 30, 42, 44, 0, 59, 53, 37, 56, 51, 15, 37, 39, 36, 24, 9, 57, 25, 12, 17, 29, 39, 47, 40
            |25, 21, 31, 37, 11, 39, 33, 26, 47, 53, 44, 43, 37, 37, 32, 28, 20, 21, 33, 20, 16, 59, 0, 6, 32, 4, 21, 45, 25, 37, 40, 35, 53, 9, 35, 51, 42, 48, 32, 20, 36
            |19, 18, 26, 32, 5, 34, 27, 21, 41, 47, 38, 38, 30, 31, 28, 23, 14, 16, 26, 15, 9, 53, 6, 0, 27, 3, 19, 38, 20, 32, 36, 29, 46, 10, 29, 45, 36, 43, 28, 17, 32
            |26, 13, 37, 41, 22, 43, 32, 36, 24, 25, 21, 11, 22, 33, 3, 37, 17, 12, 27, 12, 20, 37, 32, 27, 0, 28, 15, 22, 9, 41, 9, 19, 34, 25, 16, 25, 24, 16, 3, 13, 7
            |22, 18, 29, 35, 7, 37, 30, 24, 43, 49, 40, 40, 33, 34, 29, 26, 16, 17, 30, 17, 12, 56, 4, 3, 28, 0, 19, 41, 22, 35, 37, 32, 49, 8, 31, 47, 39, 44, 29, 17, 33
            |29, 3, 39, 45, 16, 47, 37, 37, 37, 40, 35, 25, 32, 40, 14, 38, 18, 13, 34, 11, 18, 51, 21, 19, 15, 19, 0, 35, 14, 45, 21, 29, 47, 13, 27, 39, 36, 30, 14, 4, 16
            |24, 33, 31, 32, 34, 34, 24, 34, 2, 11, 1, 21, 10, 22, 25, 33, 25, 25, 19, 27, 29, 15, 45, 38, 22, 41, 35, 0, 22, 32, 24, 10, 12, 42, 10, 7, 5, 20, 25, 32, 27
            |18, 11, 29, 34, 15, 36, 25, 28, 24, 28, 21, 19, 18, 27, 11, 28, 9, 4, 21, 5, 12, 37, 25, 20, 9, 22, 14, 22, 0, 34, 17, 15, 33, 21, 13, 27, 22, 23, 11, 10, 15
            |16, 42, 6, 0, 32, 2, 9, 11, 34, 43, 32, 47, 23, 10, 44, 9, 27, 32, 14, 34, 27, 39, 37, 32, 41, 35, 45, 32, 34, 0, 48, 25, 30, 41, 28, 39, 27, 49, 44, 41, 48
            |34, 20, 45, 48, 31, 50, 39, 45, 24, 23, 23, 4, 27, 40, 8, 45, 26, 21, 34, 21, 29, 36, 40, 36, 9, 37, 21, 24, 17, 48, 0, 24, 36, 34, 21, 24, 27, 9, 8, 21, 6
            |14, 26, 23, 25, 25, 27, 16, 25, 12, 20, 9, 23, 3, 16, 22, 24, 16, 17, 11, 19, 20, 24, 35, 29, 19, 32, 29, 10, 15, 25, 24, 0, 18, 34, 4, 17, 7, 24, 22, 25, 25
            |28, 44, 32, 30, 42, 31, 25, 36, 11, 18, 13, 32, 16, 21, 37, 35, 33, 35, 22, 37, 37, 9, 53, 46, 34, 49, 47, 12, 33, 30, 36, 18, 0, 51, 20, 14, 11, 31, 37, 43, 39
            |27, 13, 35, 41, 10, 43, 35, 31, 44, 49, 41, 37, 36, 39, 25, 33, 18, 17, 34, 16, 15, 57, 9, 10, 25, 8, 13, 42, 21, 41, 34, 34, 51, 0, 32, 47, 41, 42, 25, 13, 29
            |16, 24, 26, 28, 24, 30, 19, 27, 12, 19, 9, 19, 7, 19, 19, 27, 15, 15, 14, 17, 19, 25, 35, 29, 16, 31, 27, 10, 13, 28, 21, 4, 20, 32, 0, 16, 9, 21, 19, 23, 22
            |31, 37, 38, 39, 40, 40, 31, 41, 5, 4, 7, 20, 17, 28, 28, 40, 31, 30, 26, 32, 36, 12, 51, 45, 25, 47, 39, 7, 27, 39, 24, 17, 14, 47, 16, 0, 12, 18, 28, 37, 28
            |20, 33, 26, 27, 32, 28, 19, 29, 7, 16, 6, 25, 6, 16, 27, 28, 23, 24, 14, 26, 27, 17, 42, 36, 24, 39, 36, 5, 22, 27, 27, 7, 11, 41, 9, 12, 0, 25, 27, 32, 30
            |36, 29, 47, 49, 38, 51, 40, 48, 20, 15, 19, 5, 27, 40, 17, 47, 31, 27, 35, 28, 35, 29, 48, 43, 16, 44, 30, 20, 23, 49, 9, 24, 31, 42, 21, 18, 25, 0, 17, 29, 15
            |28, 12, 40, 44, 23, 46, 35, 39, 26, 27, 24, 12, 25, 36, 0, 39, 19, 14, 30, 13, 22, 39, 32, 28, 3, 29, 14, 25, 11, 44, 8, 22, 37, 25, 19, 28, 27, 17, 0, 13, 4
            |25, 1, 35, 41, 13, 43, 33, 33, 34, 38, 31, 24, 28, 36, 13, 34, 14, 9, 29, 7, 14, 47, 20, 17, 13, 17, 4, 32, 10, 41, 21, 25, 43, 13, 23, 37, 32, 29, 13, 0, 16
            |33, 15, 44, 48, 27, 50, 39, 43, 28, 28, 26, 10, 29, 40, 4, 44, 24, 18, 34, 18, 27, 40, 36, 32, 7, 33, 16, 27, 15, 48, 6, 25, 39, 29, 22, 28, 30, 15, 4, 16, 0|];