% n40w160.002	   57.75 527
n = 41;
duration = [|0, 17, 8, 21, 27, 13, 15, 26, 14, 25, 16, 25, 21, 14, 18, 24, 28, 5, 28, 35, 20, 33, 26, 7, 21, 17, 21, 20, 10, 20, 19, 23, 24, 21, 11, 13, 33, 27, 6, 16, 23
            |17, 0, 18, 33, 44, 14, 28, 10, 27, 20, 2, 40, 29, 9, 32, 9, 33, 14, 34, 37, 35, 38, 11, 19, 13, 28, 9, 3, 23, 33, 35, 12, 7, 11, 17, 5, 16, 25, 18, 31, 29
            |8, 18, 0, 29, 27, 8, 22, 25, 21, 18, 18, 21, 13, 11, 26, 27, 20, 5, 37, 26, 26, 25, 24, 2, 27, 10, 25, 22, 18, 15, 24, 28, 24, 17, 19, 13, 34, 19, 15, 23, 31
            |21, 33, 29, 0, 27, 34, 6, 44, 7, 46, 31, 35, 39, 34, 4, 36, 47, 26, 15, 54, 7, 51, 44, 27, 28, 34, 32, 35, 11, 34, 12, 32, 41, 41, 16, 32, 47, 48, 16, 8, 12
            |27, 44, 27, 27, 0, 35, 25, 52, 25, 44, 43, 14, 28, 39, 24, 51, 35, 30, 42, 42, 20, 36, 51, 26, 47, 24, 48, 47, 26, 19, 15, 50, 50, 45, 34, 40, 60, 42, 29, 20, 38
            |13, 14, 8, 34, 35, 0, 28, 19, 27, 11, 14, 28, 15, 5, 32, 23, 20, 8, 40, 24, 33, 25, 17, 9, 26, 15, 22, 17, 23, 20, 31, 25, 17, 10, 21, 9, 28, 14, 19, 29, 34
            |15, 28, 22, 6, 25, 28, 0, 38, 1, 39, 26, 31, 33, 28, 4, 31, 41, 20, 18, 48, 8, 45, 38, 21, 25, 28, 27, 30, 5, 29, 11, 28, 35, 35, 12, 26, 42, 41, 10, 5, 13
            |26, 10, 25, 44, 52, 19, 38, 0, 37, 19, 12, 47, 33, 14, 42, 12, 35, 23, 43, 37, 45, 40, 3, 27, 21, 34, 15, 9, 33, 39, 45, 17, 3, 10, 27, 13, 10, 25, 28, 41, 38
            |14, 27, 21, 7, 25, 27, 1, 37, 0, 38, 25, 30, 33, 27, 5, 31, 40, 19, 18, 47, 9, 45, 37, 20, 24, 28, 27, 29, 4, 28, 11, 28, 34, 34, 11, 25, 42, 40, 9, 6, 13
            |25, 20, 18, 46, 44, 11, 39, 19, 38, 0, 21, 34, 18, 13, 43, 28, 17, 20, 51, 18, 44, 22, 16, 20, 34, 21, 29, 22, 34, 26, 42, 32, 19, 9, 32, 17, 29, 6, 30, 40, 45
            |16, 2, 18, 31, 43, 14, 26, 12, 25, 21, 0, 39, 29, 9, 30, 9, 34, 13, 32, 38, 33, 39, 13, 18, 12, 27, 8, 4, 21, 32, 34, 11, 9, 13, 15, 5, 18, 26, 16, 30, 27
            |25, 40, 21, 35, 14, 28, 31, 47, 30, 34, 39, 0, 17, 32, 31, 48, 22, 26, 48, 29, 29, 23, 45, 21, 47, 13, 46, 43, 29, 8, 24, 49, 45, 38, 35, 35, 56, 31, 30, 27, 43
            |21, 29, 13, 39, 28, 15, 33, 33, 33, 18, 29, 17, 0, 20, 36, 38, 8, 18, 49, 15, 35, 12, 31, 14, 40, 5, 37, 32, 30, 9, 31, 40, 32, 23, 32, 24, 43, 14, 27, 32, 44
            |14, 9, 11, 34, 39, 5, 28, 14, 27, 13, 9, 32, 20, 0, 32, 18, 24, 9, 38, 28, 34, 29, 13, 13, 21, 20, 18, 12, 23, 25, 33, 21, 13, 7, 20, 4, 23, 17, 18, 30, 33
            |18, 32, 26, 4, 24, 32, 4, 42, 5, 43, 30, 31, 36, 32, 0, 35, 44, 23, 18, 51, 4, 48, 43, 24, 28, 31, 31, 34, 9, 30, 9, 32, 39, 39, 16, 30, 47, 45, 14, 4, 14
            |24, 9, 27, 36, 51, 23, 31, 12, 31, 28, 9, 48, 38, 18, 35, 0, 42, 22, 32, 46, 39, 47, 15, 28, 9, 37, 4, 6, 27, 41, 40, 5, 10, 19, 20, 14, 11, 34, 23, 36, 28
            |28, 33, 20, 47, 35, 20, 41, 35, 40, 17, 34, 22, 8, 24, 44, 42, 0, 25, 57, 7, 43, 5, 33, 21, 45, 13, 42, 36, 37, 16, 39, 45, 35, 25, 39, 29, 45, 12, 35, 40, 51
            |5, 14, 5, 26, 30, 8, 20, 23, 19, 20, 13, 26, 18, 9, 23, 22, 25, 0, 33, 30, 25, 30, 22, 5, 22, 15, 20, 17, 15, 19, 24, 23, 21, 16, 14, 10, 31, 22, 11, 21, 27
            |28, 34, 37, 15, 42, 40, 18, 43, 18, 51, 32, 48, 49, 38, 18, 32, 57, 33, 0, 63, 22, 61, 44, 35, 23, 45, 28, 34, 20, 46, 27, 27, 40, 44, 19, 34, 43, 54, 22, 22, 6
            |35, 37, 26, 54, 42, 24, 48, 37, 47, 18, 38, 29, 15, 28, 51, 46, 7, 30, 63, 0, 51, 7, 34, 28, 50, 21, 46, 40, 44, 23, 47, 49, 37, 27, 45, 33, 47, 12, 41, 47, 57
            |20, 35, 26, 7, 20, 33, 8, 45, 9, 44, 33, 29, 35, 34, 4, 39, 43, 25, 22, 51, 0, 47, 45, 25, 33, 30, 35, 37, 12, 29, 5, 36, 42, 41, 19, 33, 50, 45, 17, 4, 19
            |33, 38, 25, 51, 36, 25, 45, 40, 45, 22, 39, 23, 12, 29, 48, 47, 5, 30, 61, 7, 47, 0, 37, 26, 50, 17, 47, 41, 42, 18, 43, 50, 40, 30, 44, 34, 50, 16, 39, 44, 56
            |26, 11, 24, 44, 51, 17, 38, 3, 37, 16, 13, 45, 31, 13, 43, 15, 33, 22, 44, 34, 45, 37, 0, 26, 23, 32, 17, 11, 34, 37, 45, 20, 5, 8, 28, 13, 13, 22, 28, 41, 40
            |7, 19, 2, 27, 26, 9, 21, 27, 20, 20, 18, 21, 14, 13, 24, 28, 21, 5, 35, 28, 25, 26, 26, 0, 27, 10, 25, 22, 16, 14, 22, 28, 25, 19, 18, 14, 35, 21, 14, 21, 30
            |21, 13, 27, 28, 47, 26, 25, 21, 24, 34, 12, 47, 40, 21, 28, 9, 45, 22, 23, 50, 33, 50, 23, 27, 0, 37, 5, 12, 21, 41, 35, 4, 18, 25, 14, 17, 20, 39, 18, 30, 19
            |17, 28, 10, 34, 24, 15, 28, 34, 28, 21, 27, 13, 5, 20, 31, 37, 13, 15, 45, 21, 30, 17, 32, 10, 37, 0, 35, 31, 25, 6, 26, 38, 32, 24, 28, 23, 43, 18, 23, 27, 39
            |21, 9, 25, 32, 48, 22, 27, 15, 27, 29, 8, 46, 37, 18, 31, 4, 42, 20, 28, 46, 35, 47, 17, 25, 5, 35, 0, 7, 23, 40, 37, 3, 13, 20, 16, 13, 16, 34, 19, 32, 24
            |20, 3, 22, 35, 47, 17, 30, 9, 29, 22, 4, 43, 32, 12, 34, 6, 36, 17, 34, 40, 37, 41, 11, 22, 12, 31, 7, 0, 25, 36, 38, 10, 6, 13, 18, 8, 13, 28, 20, 34, 29
            |10, 23, 18, 11, 26, 23, 5, 33, 4, 34, 21, 29, 30, 23, 9, 27, 37, 15, 20, 44, 12, 42, 34, 16, 21, 25, 23, 25, 0, 26, 13, 25, 30, 30, 8, 21, 38, 37, 5, 9, 14
            |20, 33, 15, 34, 19, 20, 29, 39, 28, 26, 32, 8, 9, 25, 30, 41, 16, 19, 46, 23, 29, 18, 37, 14, 41, 6, 40, 36, 26, 0, 24, 42, 38, 30, 31, 28, 48, 23, 26, 26, 41
            |19, 35, 24, 12, 15, 31, 11, 45, 11, 42, 34, 24, 31, 33, 9, 40, 39, 24, 27, 47, 5, 43, 45, 22, 35, 26, 37, 38, 13, 24, 0, 38, 42, 40, 21, 32, 51, 42, 18, 5, 23
            |23, 12, 28, 32, 50, 25, 28, 17, 28, 32, 11, 49, 40, 21, 32, 5, 45, 23, 27, 49, 36, 50, 20, 28, 4, 38, 3, 10, 25, 42, 38, 0, 15, 23, 17, 16, 16, 38, 21, 33, 24
            |24, 7, 24, 41, 50, 17, 35, 3, 34, 19, 9, 45, 32, 13, 39, 10, 35, 21, 40, 37, 42, 40, 5, 25, 18, 32, 13, 6, 30, 38, 42, 15, 0, 10, 24, 11, 11, 25, 25, 39, 35
            |21, 11, 17, 41, 45, 10, 35, 10, 34, 9, 13, 38, 23, 7, 39, 19, 25, 16, 44, 27, 41, 30, 8, 19, 25, 24, 20, 13, 30, 30, 40, 23, 10, 0, 26, 9, 20, 15, 25, 37, 39
            |11, 17, 19, 16, 34, 21, 12, 27, 11, 32, 15, 35, 32, 20, 16, 20, 39, 14, 19, 45, 19, 44, 28, 18, 14, 28, 16, 18, 8, 31, 21, 17, 24, 26, 0, 16, 31, 36, 5, 16, 13
            |13, 5, 13, 32, 40, 9, 26, 13, 25, 17, 5, 35, 24, 4, 30, 14, 29, 10, 34, 33, 33, 34, 13, 14, 17, 23, 13, 8, 21, 28, 32, 16, 11, 9, 16, 0, 21, 22, 16, 29, 29
            |33, 16, 34, 47, 60, 28, 42, 10, 42, 29, 18, 56, 43, 23, 47, 11, 45, 31, 43, 47, 50, 50, 13, 35, 20, 43, 16, 13, 38, 48, 51, 16, 11, 20, 31, 21, 0, 35, 33, 47, 39
            |27, 25, 19, 48, 42, 14, 41, 25, 40, 6, 26, 31, 14, 17, 45, 34, 12, 22, 54, 12, 45, 16, 22, 21, 39, 18, 34, 28, 37, 23, 42, 38, 25, 15, 36, 22, 35, 0, 33, 41, 49
            |6, 18, 15, 16, 29, 19, 10, 28, 9, 30, 16, 30, 27, 18, 14, 23, 35, 11, 22, 41, 17, 39, 28, 14, 18, 23, 19, 20, 5, 26, 18, 21, 25, 25, 5, 16, 33, 33, 0, 13, 16
            |16, 31, 23, 8, 20, 29, 5, 41, 6, 40, 30, 27, 32, 30, 4, 36, 40, 21, 22, 47, 4, 44, 41, 21, 30, 27, 32, 34, 9, 26, 5, 33, 39, 37, 16, 29, 47, 41, 13, 0, 18
            |23, 29, 31, 12, 38, 34, 13, 38, 13, 45, 27, 43, 44, 33, 14, 28, 51, 27, 6, 57, 19, 56, 40, 30, 19, 39, 24, 29, 14, 41, 23, 24, 35, 39, 13, 29, 39, 49, 16, 18, 0|];