% n40w180.005	   91.40 536
n = 41;
duration = [|0, 35, 43, 45, 47, 51, 21, 40, 20, 26, 34, 58, 47, 39, 23, 26, 22, 26, 44, 36, 25, 50, 25, 38, 49, 34, 38, 45, 48, 12, 17, 59, 24, 36, 24, 41, 38, 20, 28, 45, 41
            |35, 0, 12, 9, 12, 16, 30, 12, 22, 19, 13, 23, 18, 30, 29, 27, 16, 29, 12, 28, 13, 15, 31, 5, 16, 34, 20, 12, 16, 23, 22, 23, 31, 31, 19, 14, 34, 16, 23, 16, 10
            |43, 12, 0, 9, 8, 14, 32, 4, 25, 31, 25, 19, 5, 42, 30, 39, 27, 41, 2, 40, 25, 13, 31, 7, 20, 30, 32, 3, 4, 32, 33, 19, 31, 43, 21, 25, 28, 26, 36, 24, 20
            |45, 9, 9, 0, 3, 7, 37, 11, 29, 27, 19, 13, 13, 35, 35, 35, 25, 37, 7, 35, 22, 6, 37, 7, 11, 38, 25, 6, 10, 33, 32, 14, 37, 37, 26, 17, 36, 25, 31, 16, 12
            |47, 12, 8, 3, 0, 6, 38, 11, 31, 30, 22, 12, 12, 38, 36, 38, 28, 40, 6, 37, 25, 5, 38, 8, 12, 38, 28, 5, 8, 35, 35, 12, 38, 40, 27, 20, 36, 28, 34, 18, 15
            |51, 16, 14, 7, 6, 0, 44, 17, 36, 32, 23, 7, 17, 37, 42, 39, 31, 41, 12, 37, 28, 1, 44, 13, 8, 44, 27, 11, 13, 39, 37, 8, 44, 40, 33, 19, 42, 31, 35, 16, 14
            |21, 30, 32, 37, 38, 44, 0, 28, 9, 33, 36, 50, 33, 49, 3, 38, 27, 39, 34, 46, 28, 43, 4, 31, 46, 13, 43, 34, 36, 20, 27, 51, 3, 48, 11, 42, 18, 22, 38, 45, 40
            |40, 12, 4, 11, 11, 17, 28, 0, 21, 30, 24, 22, 7, 41, 26, 38, 25, 40, 5, 40, 23, 16, 27, 7, 22, 27, 32, 6, 8, 29, 31, 22, 28, 43, 18, 25, 25, 23, 34, 25, 21
            |20, 22, 25, 29, 31, 36, 9, 21, 0, 25, 28, 42, 27, 41, 9, 31, 19, 33, 26, 38, 20, 35, 11, 22, 37, 18, 35, 27, 29, 14, 21, 43, 10, 40, 4, 33, 21, 14, 30, 36, 31
            |26, 19, 31, 27, 30, 32, 33, 30, 25, 0, 10, 39, 36, 16, 34, 8, 6, 10, 31, 13, 7, 32, 36, 24, 27, 43, 12, 31, 35, 15, 8, 40, 35, 15, 25, 16, 45, 11, 5, 21, 19
            |34, 13, 25, 19, 22, 23, 36, 24, 28, 10, 0, 29, 30, 17, 36, 17, 12, 19, 24, 16, 9, 22, 38, 17, 17, 43, 8, 24, 28, 22, 17, 30, 38, 19, 27, 7, 44, 15, 12, 11, 9
            |58, 23, 19, 13, 12, 7, 50, 22, 42, 39, 29, 0, 20, 43, 48, 46, 38, 48, 17, 43, 35, 8, 49, 20, 13, 49, 33, 16, 16, 46, 44, 1, 50, 46, 39, 25, 46, 38, 42, 21, 21
            |47, 18, 5, 13, 12, 17, 33, 7, 27, 36, 30, 20, 0, 47, 31, 44, 32, 46, 6, 46, 30, 16, 32, 13, 24, 29, 37, 7, 4, 36, 38, 20, 32, 49, 24, 30, 26, 30, 41, 29, 25
            |39, 30, 42, 35, 38, 37, 49, 41, 41, 16, 17, 43, 47, 0, 49, 13, 22, 13, 41, 3, 21, 37, 51, 34, 30, 58, 10, 40, 45, 30, 23, 44, 51, 4, 41, 18, 60, 26, 11, 22, 23
            |23, 29, 30, 35, 36, 42, 3, 26, 9, 34, 36, 48, 31, 49, 0, 39, 27, 40, 31, 47, 28, 41, 2, 29, 44, 11, 43, 32, 33, 21, 28, 48, 2, 48, 10, 41, 15, 23, 38, 44, 39
            |26, 27, 39, 35, 38, 39, 38, 38, 31, 8, 17, 46, 44, 13, 39, 0, 13, 2, 39, 10, 15, 39, 41, 32, 34, 49, 16, 39, 43, 18, 11, 47, 41, 10, 32, 22, 51, 17, 4, 27, 26
            |22, 16, 27, 25, 28, 31, 27, 25, 19, 6, 12, 38, 32, 22, 27, 13, 0, 15, 27, 19, 3, 30, 30, 20, 28, 36, 17, 27, 31, 10, 7, 39, 29, 21, 19, 18, 38, 4, 11, 23, 19
            |26, 29, 41, 37, 40, 41, 39, 40, 33, 10, 19, 48, 46, 13, 40, 2, 15, 0, 41, 10, 16, 41, 43, 34, 36, 50, 17, 41, 45, 19, 12, 49, 42, 10, 34, 24, 53, 19, 6, 29, 28
            |44, 12, 2, 7, 6, 12, 34, 5, 26, 31, 24, 17, 6, 41, 31, 39, 27, 41, 0, 40, 25, 11, 33, 7, 18, 32, 31, 1, 4, 33, 34, 17, 33, 43, 23, 24, 30, 26, 35, 23, 19
            |36, 28, 40, 35, 37, 37, 46, 40, 38, 13, 16, 43, 46, 3, 47, 10, 19, 10, 40, 0, 19, 37, 49, 33, 30, 56, 10, 40, 44, 27, 20, 44, 48, 3, 38, 18, 57, 24, 9, 22, 23
            |25, 13, 25, 22, 25, 28, 28, 23, 20, 7, 9, 35, 30, 21, 28, 15, 3, 16, 25, 19, 0, 27, 30, 18, 25, 37, 15, 25, 29, 13, 9, 36, 30, 21, 19, 16, 38, 6, 12, 20, 16
            |50, 15, 13, 6, 5, 1, 43, 16, 35, 32, 22, 8, 16, 37, 41, 39, 30, 41, 11, 37, 27, 0, 43, 13, 9, 43, 27, 10, 12, 38, 37, 9, 43, 40, 32, 19, 41, 31, 35, 16, 14
            |25, 31, 31, 37, 38, 44, 4, 27, 11, 36, 38, 49, 32, 51, 2, 41, 30, 43, 33, 49, 30, 43, 0, 31, 46, 9, 46, 34, 34, 23, 30, 50, 1, 50, 12, 44, 14, 25, 40, 46, 41
            |38, 5, 7, 7, 8, 13, 31, 7, 22, 24, 17, 20, 13, 34, 29, 32, 20, 34, 7, 33, 18, 13, 31, 0, 16, 32, 25, 7, 11, 27, 27, 21, 31, 36, 19, 18, 31, 20, 28, 18, 14
            |49, 16, 20, 11, 12, 8, 46, 22, 37, 27, 17, 13, 24, 30, 44, 34, 28, 36, 18, 30, 25, 9, 46, 16, 0, 48, 20, 17, 20, 37, 34, 14, 46, 33, 35, 12, 47, 29, 30, 8, 9
            |34, 34, 30, 38, 38, 44, 13, 27, 18, 43, 43, 49, 29, 58, 11, 49, 36, 50, 32, 56, 37, 43, 9, 32, 48, 0, 51, 33, 33, 32, 38, 49, 10, 57, 17, 48, 5, 32, 48, 49, 44
            |38, 20, 32, 25, 28, 27, 43, 32, 35, 12, 8, 33, 37, 10, 43, 16, 17, 17, 31, 10, 15, 27, 46, 25, 20, 51, 0, 30, 35, 27, 21, 34, 45, 13, 34, 8, 52, 21, 11, 12, 13
            |45, 12, 3, 6, 5, 11, 34, 6, 27, 31, 24, 16, 7, 40, 32, 39, 27, 41, 1, 40, 25, 10, 34, 7, 17, 33, 30, 0, 4, 34, 34, 16, 34, 42, 24, 23, 31, 27, 35, 22, 18
            |48, 16, 4, 10, 8, 13, 36, 8, 29, 35, 28, 16, 4, 45, 33, 43, 31, 45, 4, 44, 29, 12, 34, 11, 20, 33, 35, 4, 0, 37, 38, 16, 35, 47, 25, 27, 30, 30, 39, 26, 22
            |12, 23, 32, 33, 35, 39, 20, 29, 14, 15, 22, 46, 36, 30, 21, 18, 10, 19, 33, 27, 13, 38, 23, 27, 37, 32, 27, 34, 37, 0, 8, 47, 23, 28, 16, 29, 35, 8, 19, 33, 29
            |17, 22, 33, 32, 35, 37, 27, 31, 21, 8, 17, 44, 38, 23, 28, 11, 7, 12, 34, 20, 9, 37, 30, 27, 34, 38, 21, 34, 38, 8, 0, 45, 30, 21, 22, 24, 41, 8, 11, 29, 25
            |59, 23, 19, 14, 12, 8, 51, 22, 43, 40, 30, 1, 20, 44, 48, 47, 39, 49, 17, 44, 36, 9, 50, 21, 14, 49, 34, 16, 16, 47, 45, 0, 50, 47, 39, 26, 46, 39, 43, 22, 22
            |24, 31, 31, 37, 38, 44, 3, 28, 10, 35, 38, 50, 32, 51, 2, 41, 29, 42, 33, 48, 30, 43, 1, 31, 46, 10, 45, 34, 35, 23, 30, 50, 0, 50, 12, 43, 15, 25, 40, 46, 41
            |36, 31, 43, 37, 40, 40, 48, 43, 40, 15, 19, 46, 49, 4, 48, 10, 21, 10, 43, 3, 21, 40, 50, 36, 33, 57, 13, 42, 47, 28, 21, 47, 50, 0, 40, 21, 59, 26, 10, 25, 26
            |24, 19, 21, 26, 27, 33, 11, 18, 4, 25, 27, 39, 24, 41, 10, 32, 19, 34, 23, 38, 19, 32, 12, 19, 35, 17, 34, 24, 25, 16, 22, 39, 12, 40, 0, 32, 19, 15, 30, 34, 29
            |41, 14, 25, 17, 20, 19, 42, 25, 33, 16, 7, 25, 30, 18, 41, 22, 18, 24, 24, 18, 16, 19, 44, 18, 12, 48, 8, 23, 27, 29, 24, 26, 43, 21, 32, 0, 48, 22, 17, 5, 5
            |38, 34, 28, 36, 36, 42, 18, 25, 21, 45, 44, 46, 26, 60, 15, 51, 38, 53, 30, 57, 38, 41, 14, 31, 47, 5, 52, 31, 30, 35, 41, 46, 15, 59, 19, 48, 0, 34, 50, 49, 44
            |20, 16, 26, 25, 28, 31, 22, 23, 14, 11, 15, 38, 30, 26, 23, 17, 4, 19, 26, 24, 6, 31, 25, 20, 29, 32, 21, 27, 30, 8, 8, 39, 25, 26, 15, 22, 34, 0, 16, 26, 21
            |28, 23, 36, 31, 34, 35, 38, 34, 30, 5, 12, 42, 41, 11, 38, 4, 11, 6, 35, 9, 12, 35, 40, 28, 30, 48, 11, 35, 39, 19, 11, 43, 40, 10, 30, 17, 50, 16, 0, 22, 21
            |45, 16, 24, 16, 18, 16, 45, 25, 36, 21, 11, 21, 29, 22, 44, 27, 23, 29, 23, 22, 20, 16, 46, 18, 8, 49, 12, 22, 26, 33, 29, 22, 46, 25, 34, 5, 49, 26, 22, 0, 5
            |41, 10, 20, 12, 15, 14, 40, 21, 31, 19, 9, 21, 25, 23, 39, 26, 19, 28, 19, 23, 16, 14, 41, 14, 9, 44, 13, 18, 22, 29, 25, 22, 41, 26, 29, 5, 44, 21, 21, 5, 0|];