% n40w140.002    39.27 530
n = 41;
duration = [|0, 20, 21, 15, 27, 2, 33, 6, 28, 30, 15, 3, 22, 21, 18, 3, 16, 20, 12, 13, 32, 22, 4, 21, 26, 30, 28, 18, 28, 14, 15, 26, 18, 31, 7, 4, 4, 27, 18, 28, 21
            |20, 0, 41, 21, 41, 22, 46, 25, 45, 49, 25, 18, 10, 31, 8, 23, 36, 33, 8, 13, 46, 35, 19, 41, 45, 18, 20, 25, 39, 32, 35, 46, 10, 18, 18, 22, 17, 46, 30, 12, 37
            |21, 41, 0, 32, 30, 21, 35, 16, 25, 21, 30, 24, 43, 23, 37, 19, 5, 20, 33, 33, 33, 28, 22, 1, 6, 51, 48, 26, 33, 11, 7, 14, 39, 52, 26, 21, 25, 6, 20, 49, 14
            |15, 21, 32, 0, 21, 14, 25, 21, 26, 31, 4, 12, 15, 36, 24, 15, 27, 35, 18, 8, 25, 15, 18, 33, 38, 20, 16, 32, 18, 28, 25, 31, 12, 22, 8, 13, 14, 38, 34, 22, 36
            |27, 41, 30, 21, 0, 25, 6, 30, 8, 16, 17, 27, 36, 45, 43, 25, 27, 44, 37, 28, 4, 6, 31, 31, 36, 39, 34, 45, 5, 33, 25, 19, 33, 41, 24, 24, 29, 34, 43, 42, 41
            |2, 22, 21, 14, 25, 0, 31, 7, 26, 28, 14, 4, 23, 22, 20, 1, 16, 22, 14, 13, 30, 20, 6, 21, 26, 31, 28, 20, 25, 14, 14, 25, 18, 32, 6, 1, 5, 26, 20, 29, 22
            |33, 46, 35, 25, 6, 31, 0, 35, 11, 18, 22, 32, 40, 51, 48, 31, 32, 49, 42, 33, 2, 11, 37, 36, 40, 42, 37, 50, 7, 39, 30, 23, 37, 44, 30, 29, 34, 39, 48, 46, 46
            |6, 25, 16, 21, 30, 7, 35, 0, 29, 29, 20, 9, 28, 16, 21, 6, 12, 15, 17, 19, 34, 25, 6, 16, 21, 37, 35, 15, 31, 8, 11, 24, 24, 38, 13, 8, 9, 21, 13, 34, 15
            |28, 45, 25, 26, 8, 26, 11, 29, 0, 8, 22, 28, 41, 43, 46, 25, 23, 41, 39, 32, 9, 12, 32, 26, 30, 45, 41, 44, 13, 30, 21, 12, 38, 47, 27, 25, 31, 28, 40, 48, 37
            |30, 49, 21, 31, 16, 28, 18, 29, 8, 0, 27, 31, 46, 42, 48, 27, 20, 39, 42, 37, 16, 18, 33, 22, 25, 51, 47, 43, 21, 29, 19, 6, 42, 53, 31, 27, 33, 23, 39, 53, 34
            |15, 25, 30, 4, 17, 14, 22, 20, 22, 27, 0, 13, 19, 36, 27, 14, 25, 35, 21, 11, 21, 11, 18, 30, 36, 24, 20, 33, 15, 27, 23, 27, 16, 26, 9, 12, 15, 35, 34, 26, 35
            |3, 18, 24, 12, 27, 4, 32, 9, 28, 31, 13, 0, 19, 24, 17, 5, 19, 23, 11, 10, 31, 21, 5, 24, 29, 27, 25, 20, 26, 17, 18, 28, 15, 28, 4, 4, 2, 30, 21, 25, 25
            |22, 10, 43, 15, 36, 23, 40, 28, 41, 46, 19, 19, 0, 39, 18, 24, 38, 39, 15, 10, 40, 30, 22, 43, 48, 9, 10, 33, 33, 36, 37, 45, 4, 9, 17, 23, 19, 49, 37, 7, 43
            |21, 31, 23, 36, 45, 22, 51, 16, 43, 42, 36, 24, 39, 0, 24, 22, 21, 3, 24, 32, 50, 41, 18, 22, 23, 48, 47, 6, 47, 13, 22, 36, 35, 48, 28, 24, 22, 25, 3, 43, 10
            |18, 8, 37, 24, 43, 20, 48, 21, 46, 48, 27, 17, 18, 24, 0, 21, 33, 26, 6, 17, 48, 37, 15, 37, 41, 26, 28, 18, 42, 27, 32, 44, 16, 26, 19, 21, 15, 42, 24, 20, 31
            |3, 23, 19, 15, 25, 1, 31, 6, 25, 27, 14, 5, 24, 22, 21, 0, 14, 21, 15, 14, 29, 20, 6, 19, 24, 32, 30, 20, 25, 13, 13, 23, 20, 33, 8, 2, 6, 25, 19, 30, 21
            |16, 36, 5, 27, 27, 16, 32, 12, 23, 20, 25, 19, 38, 21, 33, 14, 0, 19, 28, 28, 30, 24, 18, 5, 11, 46, 43, 24, 30, 9, 2, 14, 34, 47, 21, 16, 20, 11, 19, 45, 14
            |20, 33, 20, 35, 44, 22, 49, 15, 41, 39, 35, 23, 39, 3, 26, 21, 19, 0, 25, 32, 48, 39, 18, 19, 20, 48, 47, 9, 45, 11, 20, 33, 36, 49, 27, 23, 22, 22, 2, 44, 7
            |12, 8, 33, 18, 37, 14, 42, 17, 39, 42, 21, 11, 15, 24, 6, 15, 28, 25, 0, 11, 41, 31, 10, 32, 37, 24, 24, 18, 36, 23, 27, 39, 12, 24, 13, 15, 9, 38, 22, 19, 29
            |13, 13, 33, 8, 28, 13, 33, 19, 32, 37, 11, 10, 10, 32, 17, 14, 28, 32, 11, 0, 32, 22, 14, 34, 39, 17, 16, 27, 26, 27, 27, 35, 6, 19, 7, 13, 10, 39, 30, 17, 34
            |32, 46, 33, 25, 4, 30, 2, 34, 9, 16, 21, 31, 40, 50, 48, 29, 30, 48, 41, 32, 0, 10, 36, 34, 38, 42, 37, 49, 7, 37, 29, 21, 37, 44, 29, 28, 34, 37, 47, 46, 44
            |22, 35, 28, 15, 6, 20, 11, 25, 12, 18, 11, 21, 30, 41, 37, 20, 24, 39, 31, 22, 10, 0, 26, 29, 34, 34, 29, 40, 6, 30, 22, 20, 27, 35, 18, 18, 23, 33, 38, 37, 37
            |4, 19, 22, 18, 31, 6, 37, 6, 32, 33, 18, 5, 22, 18, 15, 6, 18, 18, 10, 14, 36, 26, 0, 22, 27, 31, 30, 15, 31, 14, 17, 29, 18, 32, 9, 7, 4, 28, 16, 28, 20
            |21, 41, 1, 33, 31, 21, 36, 16, 26, 22, 30, 24, 43, 22, 37, 19, 5, 19, 32, 34, 34, 29, 22, 0, 5, 51, 48, 25, 34, 10, 7, 16, 39, 52, 27, 21, 25, 6, 19, 50, 13
            |26, 45, 6, 38, 36, 26, 40, 21, 30, 25, 36, 29, 48, 23, 41, 24, 11, 20, 37, 39, 38, 34, 27, 5, 0, 56, 54, 27, 39, 14, 13, 18, 44, 57, 32, 26, 30, 2, 21, 55, 13
            |30, 18, 51, 20, 39, 31, 42, 37, 45, 51, 24, 27, 9, 48, 26, 32, 46, 48, 24, 17, 42, 34, 31, 51, 56, 0, 5, 42, 35, 44, 44, 51, 13, 2, 24, 30, 27, 57, 46, 8, 51
            |28, 20, 48, 16, 34, 28, 37, 35, 41, 47, 20, 25, 10, 47, 28, 30, 43, 47, 24, 16, 37, 29, 30, 48, 54, 5, 0, 42, 30, 42, 41, 47, 12, 7, 22, 28, 26, 54, 45, 12, 50
            |18, 25, 26, 32, 45, 20, 50, 15, 44, 43, 33, 20, 33, 6, 18, 20, 24, 9, 18, 27, 49, 40, 15, 25, 27, 42, 42, 0, 45, 15, 24, 38, 30, 42, 24, 21, 18, 29, 7, 37, 15
            |28, 39, 33, 18, 5, 25, 7, 31, 13, 21, 15, 26, 33, 47, 42, 25, 30, 45, 36, 26, 7, 6, 31, 34, 39, 35, 30, 45, 0, 35, 28, 24, 30, 37, 23, 24, 29, 38, 44, 39, 43
            |14, 32, 11, 28, 33, 14, 39, 8, 30, 29, 27, 17, 36, 13, 27, 13, 9, 11, 23, 27, 37, 30, 14, 10, 14, 44, 42, 15, 35, 0, 9, 23, 32, 45, 21, 15, 17, 15, 10, 42, 8
            |15, 35, 7, 25, 25, 14, 30, 11, 21, 19, 23, 18, 37, 22, 32, 13, 2, 20, 27, 27, 29, 22, 17, 7, 13, 44, 41, 24, 28, 9, 0, 14, 33, 45, 20, 14, 19, 13, 20, 43, 16
            |26, 46, 14, 31, 19, 25, 23, 24, 12, 6, 27, 28, 45, 36, 44, 23, 14, 33, 39, 35, 21, 20, 29, 16, 18, 51, 47, 38, 24, 23, 14, 0, 41, 52, 28, 24, 30, 17, 33, 51, 28
            |18, 10, 39, 12, 33, 18, 37, 24, 38, 42, 16, 15, 4, 35, 16, 20, 34, 36, 12, 6, 37, 27, 18, 39, 44, 13, 12, 30, 30, 32, 33, 41, 0, 13, 13, 18, 15, 45, 34, 11, 39
            |31, 18, 52, 22, 41, 32, 44, 38, 47, 53, 26, 28, 9, 48, 26, 33, 47, 49, 24, 19, 44, 35, 32, 52, 57, 2, 7, 42, 37, 45, 45, 52, 13, 0, 26, 31, 28, 58, 47, 7, 52
            |7, 18, 26, 8, 24, 6, 30, 13, 27, 31, 9, 4, 17, 28, 19, 8, 21, 27, 13, 7, 29, 18, 9, 27, 32, 24, 22, 24, 23, 21, 20, 28, 13, 26, 0, 6, 6, 32, 25, 24, 28
            |4, 22, 21, 13, 24, 1, 29, 8, 25, 27, 12, 4, 23, 24, 21, 2, 16, 23, 15, 13, 28, 18, 7, 21, 26, 30, 28, 21, 24, 15, 14, 24, 18, 31, 6, 0, 6, 26, 21, 29, 23
            |4, 17, 25, 14, 29, 5, 34, 9, 31, 33, 15, 2, 19, 22, 15, 6, 20, 22, 9, 10, 34, 23, 4, 25, 30, 27, 26, 18, 29, 17, 19, 30, 15, 28, 6, 6, 0, 30, 20, 25, 24
            |27, 46, 6, 38, 34, 26, 39, 21, 28, 23, 35, 30, 49, 25, 42, 25, 11, 22, 38, 39, 37, 33, 28, 6, 2, 57, 54, 29, 38, 15, 13, 17, 45, 58, 32, 26, 30, 0, 23, 55, 15
            |18, 30, 20, 34, 43, 20, 48, 13, 40, 39, 34, 21, 37, 3, 24, 19, 19, 2, 22, 30, 47, 38, 16, 19, 21, 46, 45, 7, 44, 10, 20, 33, 34, 47, 25, 21, 20, 23, 0, 42, 9
            |28, 12, 49, 22, 42, 29, 46, 34, 48, 53, 26, 25, 7, 43, 20, 30, 45, 44, 19, 17, 46, 37, 28, 50, 55, 8, 12, 37, 39, 42, 43, 51, 11, 7, 24, 29, 25, 55, 42, 0, 48
            |21, 37, 14, 36, 41, 22, 46, 15, 37, 34, 35, 25, 43, 10, 31, 21, 14, 7, 29, 34, 44, 37, 20, 13, 13, 51, 50, 15, 43, 8, 16, 28, 39, 52, 28, 23, 24, 15, 9, 48, 0|];
early = [0, 7, 143, 0, 195, 0, 228, 0, 204, 351, 249, 0, 30, 122, 99, 0, 149, 110, 40, 0, 429, 226, 0, 173, 159, 44, 60, 108, 208, 126, 141, 191, 10, 254, 0, 0, 0, 374, 292, 55, 366];
late = [600, 160, 297, 133, 325, 60, 343, 96, 353, 474, 358, 90, 178, 262, 225, 109, 307, 257, 158, 119, 569, 358, 87, 318, 314, 189, 174, 239, 346, 279, 278, 338, 134, 391, 98, 68, 125, 528, 462, 189, 523];