% n40w200.004    91.75 492
n = 41;
duration = [|0, 18, 9, 9, 30, 20, 23, 12, 8, 14, 25, 24, 23, 26, 17, 25, 23, 28, 15, 25, 22, 16, 16, 18, 25, 22, 24, 19, 20, 22, 23, 36, 21, 10, 25, 29, 20, 26, 23, 15, 16
            |18, 0, 24, 19, 29, 34, 9, 29, 22, 11, 9, 16, 20, 42, 32, 11, 24, 13, 20, 13, 10, 33, 26, 37, 16, 21, 11, 13, 12, 9, 32, 35, 38, 28, 42, 26, 19, 29, 41, 4, 13
            |9, 24, 0, 6, 39, 11, 31, 6, 2, 23, 32, 24, 32, 29, 23, 27, 19, 31, 11, 34, 30, 9, 8, 16, 25, 32, 32, 28, 21, 25, 31, 45, 22, 9, 26, 39, 29, 19, 22, 22, 16
            |9, 19, 6, 0, 37, 15, 26, 12, 4, 20, 27, 19, 30, 33, 25, 22, 15, 25, 7, 29, 26, 15, 9, 21, 19, 30, 28, 25, 15, 19, 32, 44, 27, 13, 31, 36, 27, 17, 27, 17, 10
            |30, 29, 39, 37, 0, 50, 23, 40, 38, 19, 25, 45, 9, 33, 25, 40, 49, 41, 43, 18, 20, 43, 46, 40, 44, 8, 21, 16, 40, 38, 15, 6, 35, 35, 36, 4, 11, 54, 40, 27, 39
            |20, 34, 11, 15, 50, 0, 41, 11, 13, 34, 42, 30, 43, 34, 31, 35, 21, 38, 16, 44, 41, 9, 9, 18, 30, 43, 43, 39, 28, 32, 40, 56, 27, 16, 30, 49, 40, 17, 24, 32, 23
            |23, 9, 31, 26, 23, 41, 0, 35, 29, 11, 2, 24, 15, 43, 33, 18, 32, 19, 28, 5, 3, 39, 34, 41, 24, 16, 2, 9, 21, 17, 30, 28, 41, 33, 44, 19, 15, 38, 44, 9, 22
            |12, 29, 6, 12, 40, 11, 35, 0, 8, 26, 36, 30, 34, 24, 20, 34, 25, 37, 17, 37, 34, 4, 13, 10, 31, 33, 36, 31, 27, 31, 30, 46, 17, 5, 21, 40, 31, 24, 16, 27, 22
            |8, 22, 2, 4, 38, 13, 29, 8, 0, 21, 30, 23, 31, 29, 22, 26, 18, 29, 10, 32, 28, 11, 9, 17, 23, 30, 30, 27, 19, 23, 30, 44, 23, 9, 27, 37, 27, 19, 23, 20, 14
            |14, 11, 23, 20, 19, 34, 11, 26, 21, 0, 13, 26, 11, 33, 22, 22, 30, 24, 24, 11, 9, 30, 28, 31, 25, 11, 11, 5, 21, 20, 21, 26, 30, 23, 33, 17, 9, 35, 34, 8, 20
            |25, 9, 32, 27, 25, 42, 2, 36, 30, 13, 0, 23, 17, 45, 35, 17, 32, 17, 28, 7, 5, 40, 35, 43, 23, 19, 4, 11, 20, 16, 32, 30, 43, 34, 46, 21, 17, 38, 46, 10, 22
            |24, 16, 24, 19, 45, 30, 24, 30, 23, 26, 23, 0, 36, 50, 41, 8, 11, 10, 14, 29, 26, 33, 21, 40, 1, 37, 26, 29, 5, 7, 45, 51, 45, 32, 49, 42, 34, 17, 45, 18, 9
            |23, 20, 32, 30, 9, 43, 15, 34, 31, 11, 17, 36, 0, 33, 23, 31, 41, 33, 35, 11, 12, 38, 38, 36, 36, 1, 14, 7, 31, 30, 16, 15, 33, 30, 34, 6, 3, 45, 37, 18, 31
            |26, 42, 29, 33, 33, 34, 43, 24, 29, 33, 45, 50, 33, 0, 11, 51, 48, 54, 40, 42, 41, 25, 37, 16, 51, 31, 43, 35, 46, 48, 18, 37, 7, 20, 4, 36, 30, 48, 11, 38, 41
            |17, 32, 23, 25, 25, 31, 33, 20, 22, 22, 35, 41, 23, 11, 0, 41, 40, 44, 32, 31, 30, 22, 31, 16, 41, 22, 32, 25, 36, 38, 11, 30, 10, 15, 12, 27, 20, 42, 15, 28, 33
            |25, 11, 27, 22, 40, 35, 18, 34, 26, 22, 17, 8, 31, 51, 41, 0, 18, 4, 19, 23, 20, 37, 26, 42, 7, 32, 20, 24, 7, 3, 43, 46, 46, 34, 50, 36, 30, 24, 47, 14, 12
            |23, 24, 19, 15, 49, 21, 32, 25, 18, 30, 32, 11, 41, 48, 40, 18, 0, 21, 8, 37, 33, 26, 12, 35, 12, 41, 34, 35, 12, 17, 46, 56, 41, 28, 45, 47, 39, 6, 40, 24, 11
            |28, 13, 31, 25, 41, 38, 19, 37, 29, 24, 17, 10, 33, 54, 44, 4, 21, 0, 22, 24, 21, 40, 29, 46, 9, 34, 21, 26, 11, 6, 45, 47, 49, 37, 53, 38, 32, 27, 51, 16, 16
            |15, 20, 11, 7, 43, 16, 28, 17, 10, 24, 28, 14, 35, 40, 32, 19, 8, 22, 0, 32, 29, 20, 7, 27, 14, 35, 30, 29, 11, 16, 39, 49, 33, 20, 37, 41, 32, 11, 33, 19, 7
            |25, 13, 34, 29, 18, 44, 5, 37, 32, 11, 7, 29, 11, 42, 31, 23, 37, 24, 32, 0, 4, 41, 38, 42, 29, 13, 3, 7, 25, 22, 27, 23, 40, 34, 43, 14, 12, 42, 44, 13, 26
            |22, 10, 30, 26, 20, 41, 3, 34, 28, 9, 5, 26, 12, 41, 30, 20, 33, 21, 29, 4, 0, 38, 34, 39, 26, 13, 2, 6, 22, 19, 27, 25, 38, 31, 41, 16, 12, 39, 42, 9, 23
            |16, 33, 9, 15, 43, 9, 39, 4, 11, 30, 40, 33, 38, 25, 22, 37, 26, 40, 20, 41, 38, 0, 14, 9, 34, 37, 40, 35, 30, 34, 33, 49, 17, 8, 21, 44, 34, 25, 15, 31, 25
            |16, 26, 8, 9, 46, 9, 34, 13, 9, 28, 35, 21, 38, 37, 31, 26, 12, 29, 7, 38, 34, 14, 0, 23, 21, 38, 36, 34, 19, 24, 39, 52, 30, 17, 34, 45, 35, 11, 29, 25, 14
            |18, 37, 16, 21, 40, 18, 41, 10, 17, 31, 43, 40, 36, 16, 16, 42, 35, 46, 27, 42, 39, 9, 23, 0, 41, 35, 41, 35, 36, 40, 27, 46, 9, 9, 12, 41, 33, 34, 6, 34, 31
            |25, 16, 25, 19, 44, 30, 24, 31, 23, 25, 23, 1, 36, 51, 41, 7, 12, 9, 14, 29, 26, 34, 21, 41, 0, 36, 26, 29, 5, 6, 45, 50, 45, 32, 49, 41, 34, 18, 46, 18, 9
            |22, 21, 32, 30, 8, 43, 16, 33, 30, 11, 19, 37, 1, 31, 22, 32, 41, 34, 35, 13, 13, 37, 38, 35, 36, 0, 15, 8, 32, 31, 15, 14, 31, 29, 33, 7, 3, 46, 36, 19, 31
            |24, 11, 32, 28, 21, 43, 2, 36, 30, 11, 4, 26, 14, 43, 32, 20, 34, 21, 30, 3, 2, 40, 36, 41, 26, 15, 0, 8, 23, 19, 29, 26, 41, 34, 44, 17, 14, 40, 44, 11, 24
            |19, 13, 28, 25, 16, 39, 9, 31, 27, 5, 11, 29, 7, 35, 25, 24, 35, 26, 29, 7, 6, 35, 34, 35, 29, 8, 8, 0, 25, 23, 21, 22, 34, 28, 36, 13, 6, 40, 38, 11, 24
            |20, 12, 21, 15, 40, 28, 21, 27, 19, 21, 20, 5, 31, 46, 36, 7, 12, 11, 11, 25, 22, 30, 19, 36, 5, 32, 23, 25, 0, 5, 40, 46, 40, 28, 44, 37, 29, 18, 41, 13, 5
            |22, 9, 25, 19, 38, 32, 17, 31, 23, 20, 16, 7, 30, 48, 38, 3, 17, 6, 16, 22, 19, 34, 24, 40, 6, 31, 19, 23, 5, 0, 40, 44, 43, 31, 47, 35, 28, 23, 45, 12, 9
            |23, 32, 31, 32, 15, 40, 30, 30, 30, 21, 32, 45, 16, 18, 11, 43, 46, 45, 39, 27, 27, 33, 39, 27, 45, 15, 29, 21, 40, 40, 0, 19, 21, 25, 21, 18, 15, 49, 26, 29, 37
            |36, 35, 45, 44, 6, 56, 28, 46, 44, 26, 30, 51, 15, 37, 30, 46, 56, 47, 49, 23, 25, 49, 52, 46, 50, 14, 26, 22, 46, 44, 19, 0, 40, 41, 40, 9, 17, 60, 45, 33, 45
            |21, 38, 22, 27, 35, 27, 41, 17, 23, 30, 43, 45, 33, 7, 10, 46, 41, 49, 33, 40, 38, 17, 30, 9, 45, 31, 41, 34, 40, 43, 21, 40, 0, 13, 4, 37, 30, 41, 5, 35, 36
            |10, 28, 9, 13, 35, 16, 33, 5, 9, 23, 34, 32, 30, 20, 15, 34, 28, 37, 20, 34, 31, 8, 17, 9, 32, 29, 34, 28, 28, 31, 25, 41, 13, 0, 17, 36, 27, 28, 14, 25, 23
            |25, 42, 26, 31, 36, 30, 44, 21, 27, 33, 46, 49, 34, 4, 12, 50, 45, 53, 37, 43, 41, 21, 34, 12, 49, 33, 44, 36, 44, 47, 21, 40, 4, 17, 0, 38, 32, 45, 7, 38, 40
            |29, 26, 39, 36, 4, 49, 19, 40, 37, 17, 21, 42, 6, 36, 27, 36, 47, 38, 41, 14, 16, 44, 45, 41, 41, 7, 17, 13, 37, 35, 18, 9, 37, 36, 38, 0, 9, 52, 42, 24, 37
            |20, 19, 29, 27, 11, 40, 15, 31, 27, 9, 17, 34, 3, 30, 20, 30, 39, 32, 32, 12, 12, 34, 35, 33, 34, 3, 14, 6, 29, 28, 15, 17, 30, 27, 32, 9, 0, 43, 34, 16, 28
            |26, 29, 19, 17, 54, 17, 38, 24, 19, 35, 38, 17, 45, 48, 42, 24, 6, 27, 11, 42, 39, 25, 11, 34, 18, 46, 40, 40, 18, 23, 49, 60, 41, 28, 45, 52, 43, 0, 40, 29, 16
            |23, 41, 22, 27, 40, 24, 44, 16, 23, 34, 46, 45, 37, 11, 15, 47, 40, 51, 33, 44, 42, 15, 29, 6, 46, 36, 44, 38, 41, 45, 26, 45, 5, 14, 7, 42, 34, 40, 0, 37, 37
            |15, 4, 22, 17, 27, 32, 9, 27, 20, 8, 10, 18, 18, 38, 28, 14, 24, 16, 19, 13, 9, 31, 25, 34, 18, 19, 11, 11, 13, 12, 29, 33, 35, 25, 38, 24, 16, 29, 37, 0, 13
            |16, 13, 16, 10, 39, 23, 22, 22, 14, 20, 22, 9, 31, 41, 33, 12, 11, 16, 7, 26, 23, 25, 14, 31, 9, 31, 24, 24, 5, 9, 37, 45, 36, 23, 40, 37, 28, 16, 37, 13, 0|];
early = [0, 0, 0, 0, 397, 120, 16, 92, 237, 212, 35, 0, 239, 195, 134, 40, 0, 0, 0, 0, 52, 101, 78, 127, 0, 284, 0, 41, 0, 0, 232, 378, 168, 136, 178, 201, 194, 43, 166, 27, 277];
late = [605, 192, 137, 146, 575, 292, 154, 284, 424, 449, 142, 174, 381, 393, 404, 258, 105, 108, 77, 162, 206, 305, 319, 357, 135, 469, 186, 244, 111, 190, 522, 524, 300, 349, 360, 432, 446, 216, 354, 196, 487];