% n40w120.003    20.20 523
n = 41;
duration = [|0, 12, 17, 26, 24, 27, 21, 18, 25, 12, 34, 25, 8, 13, 25, 22, 29, 14, 25, 12, 17, 14, 9, 24, 16, 22, 26, 22, 11, 10, 27, 36, 17, 16, 24, 18, 6, 25, 22, 31, 24
            |12, 0, 10, 25, 34, 21, 11, 12, 32, 21, 24, 34, 9, 9, 28, 28, 22, 13, 37, 21, 22, 16, 13, 22, 12, 27, 23, 29, 16, 19, 26, 41, 27, 12, 25, 12, 17, 17, 14, 28, 19
            |17, 10, 0, 16, 33, 11, 19, 22, 28, 29, 18, 32, 18, 4, 20, 37, 13, 6, 41, 28, 32, 11, 11, 12, 3, 22, 13, 24, 25, 26, 37, 34, 34, 23, 35, 2, 22, 9, 6, 38, 29
            |26, 25, 16, 0, 28, 10, 35, 37, 21, 38, 24, 28, 31, 16, 7, 48, 14, 13, 43, 37, 43, 12, 17, 4, 13, 13, 6, 17, 36, 36, 51, 21, 42, 37, 49, 13, 30, 16, 16, 53, 44
            |24, 34, 33, 28, 0, 36, 45, 42, 9, 28, 49, 1, 32, 29, 22, 38, 40, 27, 19, 27, 36, 22, 22, 30, 30, 16, 33, 11, 32, 28, 49, 20, 27, 40, 45, 32, 22, 39, 37, 54, 48
            |27, 21, 11, 10, 36, 0, 29, 32, 29, 39, 14, 36, 29, 13, 17, 48, 4, 13, 48, 38, 42, 16, 19, 7, 10, 22, 4, 26, 35, 37, 48, 31, 43, 33, 46, 9, 32, 6, 8, 49, 39
            |21, 11, 19, 35, 45, 29, 0, 6, 43, 26, 26, 45, 14, 20, 38, 29, 28, 23, 45, 27, 24, 27, 24, 31, 22, 39, 31, 40, 19, 25, 22, 52, 32, 10, 22, 21, 25, 23, 21, 21, 11
            |18, 12, 22, 37, 42, 32, 6, 0, 42, 21, 32, 43, 10, 21, 39, 23, 32, 24, 40, 22, 18, 28, 23, 34, 24, 38, 34, 39, 14, 19, 16, 52, 27, 4, 16, 24, 21, 27, 24, 17, 7
            |25, 32, 28, 21, 9, 29, 43, 42, 0, 32, 43, 8, 33, 25, 14, 43, 34, 22, 27, 31, 40, 17, 19, 22, 25, 8, 26, 4, 35, 31, 52, 12, 33, 41, 48, 27, 25, 33, 32, 56, 49
            |12, 21, 29, 38, 28, 39, 26, 21, 32, 0, 45, 29, 13, 26, 36, 11, 41, 27, 20, 1, 8, 26, 21, 36, 28, 32, 39, 30, 7, 2, 21, 44, 6, 17, 17, 30, 8, 37, 34, 27, 24
            |34, 24, 18, 24, 49, 14, 26, 32, 43, 45, 0, 49, 33, 21, 31, 52, 10, 23, 58, 45, 47, 27, 29, 21, 20, 36, 18, 39, 40, 43, 48, 45, 51, 34, 48, 17, 40, 10, 12, 47, 37
            |25, 34, 32, 28, 1, 36, 45, 43, 8, 29, 49, 0, 33, 29, 21, 39, 40, 26, 20, 28, 37, 22, 22, 29, 30, 15, 33, 11, 33, 28, 50, 19, 28, 41, 45, 32, 23, 39, 37, 55, 49
            |8, 9, 18, 31, 32, 29, 14, 10, 33, 13, 33, 33, 0, 16, 32, 19, 31, 18, 31, 13, 14, 20, 15, 28, 19, 30, 30, 30, 7, 11, 20, 43, 19, 8, 17, 20, 11, 26, 23, 23, 16
            |13, 9, 4, 16, 29, 13, 20, 21, 25, 26, 21, 29, 16, 0, 18, 34, 16, 4, 37, 25, 29, 8, 8, 13, 3, 19, 14, 21, 22, 23, 35, 32, 30, 22, 33, 4, 19, 12, 9, 38, 28
            |25, 28, 20, 7, 22, 17, 38, 39, 14, 36, 31, 21, 32, 18, 0, 47, 21, 15, 38, 35, 42, 12, 17, 10, 17, 6, 13, 11, 36, 35, 52, 15, 39, 39, 49, 18, 28, 22, 22, 55, 46
            |22, 28, 37, 48, 38, 48, 29, 23, 43, 11, 52, 39, 19, 34, 47, 0, 49, 36, 26, 12, 5, 36, 31, 46, 37, 43, 48, 41, 12, 12, 15, 55, 11, 19, 10, 39, 19, 45, 42, 21, 22
            |29, 22, 13, 14, 40, 4, 28, 32, 34, 41, 10, 40, 31, 16, 21, 49, 0, 16, 52, 41, 44, 19, 22, 11, 13, 26, 8, 30, 37, 39, 48, 35, 46, 34, 47, 11, 34, 5, 8, 49, 39
            |14, 13, 6, 13, 27, 13, 23, 24, 22, 27, 23, 26, 18, 4, 15, 36, 16, 0, 36, 26, 31, 5, 6, 10, 3, 16, 12, 18, 24, 25, 38, 29, 31, 25, 36, 5, 19, 13, 11, 41, 32
            |25, 37, 41, 43, 19, 48, 45, 40, 27, 20, 58, 20, 31, 37, 38, 26, 52, 36, 0, 19, 27, 33, 30, 43, 39, 32, 46, 28, 27, 21, 41, 39, 16, 37, 35, 41, 20, 49, 46, 46, 44
            |12, 21, 28, 37, 27, 38, 27, 22, 31, 1, 45, 28, 13, 25, 35, 12, 41, 26, 19, 0, 9, 25, 20, 36, 28, 31, 38, 29, 8, 2, 23, 43, 6, 18, 18, 30, 7, 37, 34, 28, 25
            |17, 22, 32, 43, 36, 42, 24, 18, 40, 8, 47, 37, 14, 29, 42, 5, 44, 31, 27, 9, 0, 31, 26, 41, 32, 39, 43, 38, 7, 9, 14, 51, 11, 14, 9, 33, 15, 40, 36, 20, 19
            |14, 16, 11, 12, 22, 16, 27, 28, 17, 26, 27, 22, 20, 8, 12, 36, 19, 5, 33, 25, 31, 0, 5, 11, 8, 11, 14, 13, 25, 24, 40, 24, 30, 27, 37, 10, 18, 17, 16, 43, 35
            |9, 13, 11, 17, 22, 19, 24, 23, 19, 21, 29, 22, 15, 8, 17, 31, 22, 6, 30, 20, 26, 5, 0, 15, 9, 15, 18, 16, 20, 19, 35, 28, 25, 23, 32, 11, 13, 19, 17, 39, 30
            |24, 22, 12, 4, 30, 7, 31, 34, 22, 36, 21, 29, 28, 13, 10, 46, 11, 10, 43, 36, 41, 11, 15, 0, 10, 15, 4, 19, 34, 34, 48, 24, 40, 34, 46, 10, 29, 12, 13, 50, 41
            |16, 12, 3, 13, 30, 10, 22, 24, 25, 28, 20, 30, 19, 3, 17, 37, 13, 3, 39, 28, 32, 8, 9, 10, 0, 18, 11, 21, 25, 26, 38, 31, 33, 24, 36, 2, 21, 10, 8, 40, 31
            |22, 27, 22, 13, 16, 22, 39, 38, 8, 32, 36, 15, 30, 19, 6, 43, 26, 16, 32, 31, 39, 11, 15, 15, 18, 0, 18, 4, 33, 31, 50, 13, 34, 37, 46, 20, 24, 26, 25, 53, 45
            |26, 23, 13, 6, 33, 4, 31, 34, 26, 39, 18, 33, 30, 14, 13, 48, 8, 12, 46, 38, 43, 14, 18, 4, 11, 18, 0, 22, 36, 37, 49, 27, 43, 35, 47, 10, 31, 10, 11, 51, 41
            |22, 29, 24, 17, 11, 26, 40, 39, 4, 30, 39, 11, 30, 21, 11, 41, 30, 18, 28, 29, 38, 13, 16, 19, 21, 4, 22, 0, 32, 29, 49, 14, 32, 38, 45, 23, 23, 29, 28, 53, 46
            |11, 16, 25, 36, 32, 35, 19, 14, 35, 7, 40, 33, 7, 22, 36, 12, 37, 24, 27, 8, 7, 25, 20, 34, 25, 33, 36, 32, 0, 6, 17, 46, 13, 10, 13, 26, 10, 33, 29, 22, 17
            |10, 19, 26, 36, 28, 37, 25, 19, 31, 2, 43, 28, 11, 23, 35, 12, 39, 25, 21, 2, 9, 24, 19, 34, 26, 31, 37, 29, 6, 0, 22, 43, 8, 16, 17, 28, 6, 35, 32, 27, 23
            |27, 26, 37, 51, 49, 48, 22, 16, 52, 21, 48, 50, 20, 35, 52, 15, 48, 38, 41, 23, 14, 40, 35, 48, 38, 50, 49, 49, 17, 22, 0, 63, 25, 14, 5, 39, 27, 43, 40, 6, 11
            |36, 41, 34, 21, 20, 31, 52, 52, 12, 44, 45, 19, 43, 32, 15, 55, 35, 29, 39, 43, 51, 24, 28, 24, 31, 13, 27, 14, 46, 43, 63, 0, 45, 51, 59, 32, 37, 37, 36, 67, 59
            |17, 27, 34, 42, 27, 43, 32, 27, 33, 6, 51, 28, 19, 30, 39, 11, 46, 31, 16, 6, 11, 30, 25, 40, 33, 34, 43, 32, 13, 8, 25, 45, 0, 23, 20, 35, 12, 42, 39, 31, 29
            |16, 12, 23, 37, 40, 33, 10, 4, 41, 17, 34, 41, 8, 22, 39, 19, 34, 25, 37, 18, 14, 27, 23, 34, 24, 37, 35, 38, 10, 16, 14, 51, 23, 0, 13, 25, 18, 29, 26, 16, 8
            |24, 25, 35, 49, 45, 46, 22, 16, 48, 17, 48, 45, 17, 33, 49, 10, 47, 36, 35, 18, 9, 37, 32, 46, 36, 46, 47, 45, 13, 17, 5, 59, 20, 13, 0, 37, 23, 42, 39, 11, 13
            |18, 12, 2, 13, 32, 9, 21, 24, 27, 30, 17, 32, 20, 4, 18, 39, 11, 5, 41, 30, 33, 10, 11, 10, 2, 20, 10, 23, 26, 28, 39, 32, 35, 25, 37, 0, 23, 8, 5, 40, 31
            |6, 17, 22, 30, 22, 32, 25, 21, 25, 8, 40, 23, 11, 19, 28, 19, 34, 19, 20, 7, 15, 18, 13, 29, 21, 24, 31, 23, 10, 6, 27, 37, 12, 18, 23, 23, 0, 31, 28, 32, 26
            |25, 17, 9, 16, 39, 6, 23, 27, 33, 37, 10, 39, 26, 12, 22, 45, 5, 13, 49, 37, 40, 17, 19, 12, 10, 26, 10, 29, 33, 35, 43, 37, 42, 29, 42, 8, 31, 0, 3, 44, 34
            |22, 14, 6, 16, 37, 8, 21, 24, 32, 34, 12, 37, 23, 9, 22, 42, 8, 11, 46, 34, 36, 16, 17, 13, 8, 25, 11, 28, 29, 32, 40, 36, 39, 26, 39, 5, 28, 3, 0, 41, 31
            |31, 28, 38, 53, 54, 49, 21, 17, 56, 27, 47, 55, 23, 38, 55, 21, 49, 41, 46, 28, 20, 43, 39, 50, 40, 53, 51, 53, 22, 27, 6, 67, 31, 16, 11, 40, 32, 44, 41, 0, 10
            |24, 19, 29, 44, 48, 39, 11, 7, 49, 24, 37, 49, 16, 28, 46, 22, 39, 32, 44, 25, 19, 35, 30, 41, 31, 45, 41, 46, 17, 23, 11, 59, 29, 8, 13, 31, 26, 34, 31, 10, 0|];
early = [0, 0, 0, 66, 341, 43, 0, 257, 116, 188, 17, 126, 0, 1, 57, 220, 3, 86, 429, 249, 227, 81, 173, 66, 0, 115, 45, 131, 248, 187, 391, 141, 196, 0, 222, 2, 302, 18, 0, 281, 387];
late = [578, 93, 114, 181, 456, 167, 86, 385, 235, 317, 144, 244, 62, 108, 187, 338, 131, 204, 553, 354, 360, 203, 297, 196, 103, 219, 170, 249, 376, 316, 511, 264, 321, 85, 345, 109, 428, 125, 120, 397, 511];