% n40w200.002    101.40 463
n = 41;
duration = [|0, 34, 31, 30, 9, 25, 25, 19, 9, 33, 23, 28, 38, 27, 19, 33, 16, 16, 32, 18, 12, 24, 17, 26, 30, 21, 12, 14, 25, 33, 22, 11, 25, 32, 31, 6, 9, 25, 17, 21, 9
            |34, 0, 8, 5, 41, 55, 32, 19, 37, 15, 12, 24, 17, 38, 21, 17, 19, 43, 32, 22, 28, 16, 36, 13, 48, 20, 34, 38, 18, 11, 13, 45, 10, 6, 13, 39, 37, 10, 46, 17, 42
            |31, 8, 0, 4, 39, 50, 25, 13, 36, 22, 14, 28, 24, 42, 15, 24, 15, 38, 24, 16, 23, 9, 37, 6, 50, 22, 34, 33, 11, 4, 9, 42, 7, 12, 20, 37, 36, 12, 40, 20, 40
            |30, 5, 4, 0, 37, 50, 27, 14, 34, 17, 10, 24, 20, 38, 16, 19, 15, 39, 27, 17, 24, 11, 34, 9, 47, 18, 31, 33, 13, 8, 8, 41, 5, 8, 15, 36, 34, 8, 41, 16, 38
            |9, 41, 39, 37, 0, 25, 34, 28, 5, 36, 29, 30, 42, 24, 28, 37, 24, 21, 41, 27, 21, 33, 14, 34, 24, 24, 10, 21, 33, 41, 30, 8, 32, 38, 35, 4, 5, 31, 21, 25, 3
            |25, 55, 50, 50, 25, 0, 31, 37, 30, 57, 46, 53, 62, 49, 35, 58, 36, 12, 38, 34, 27, 41, 39, 44, 48, 45, 35, 17, 40, 51, 42, 17, 45, 55, 55, 23, 30, 47, 10, 46, 22
            |25, 32, 25, 27, 34, 31, 0, 15, 35, 41, 29, 43, 46, 50, 13, 43, 18, 20, 7, 13, 14, 16, 41, 19, 55, 34, 36, 16, 14, 23, 21, 31, 24, 34, 39, 31, 35, 29, 22, 33, 33
            |19, 19, 13, 14, 28, 37, 15, 0, 26, 26, 14, 29, 31, 37, 2, 28, 4, 25, 18, 3, 10, 5, 30, 7, 44, 20, 26, 19, 5, 14, 7, 29, 9, 20, 24, 25, 26, 14, 27, 18, 28
            |9, 37, 36, 34, 5, 30, 35, 26, 0, 32, 25, 25, 37, 19, 26, 32, 22, 24, 41, 26, 21, 31, 9, 32, 21, 20, 5, 23, 32, 39, 27, 13, 29, 34, 31, 7, 0, 27, 25, 21, 8
            |33, 15, 22, 17, 36, 57, 41, 26, 32, 0, 12, 10, 6, 26, 28, 2, 24, 46, 43, 29, 33, 26, 27, 24, 36, 12, 27, 42, 28, 25, 20, 43, 18, 9, 2, 36, 32, 12, 48, 11, 39
            |23, 12, 14, 10, 29, 46, 29, 14, 25, 12, 0, 16, 17, 28, 16, 14, 12, 35, 31, 16, 21, 15, 24, 13, 37, 9, 22, 30, 16, 17, 8, 34, 7, 9, 10, 28, 25, 2, 37, 6, 31
            |28, 24, 28, 24, 30, 53, 43, 29, 25, 10, 16, 0, 14, 16, 30, 9, 25, 44, 47, 30, 32, 30, 18, 29, 26, 9, 20, 40, 32, 32, 24, 37, 23, 18, 11, 31, 25, 17, 45, 10, 33
            |38, 17, 24, 20, 42, 62, 46, 31, 37, 6, 17, 14, 0, 30, 33, 5, 29, 52, 47, 34, 38, 30, 32, 28, 40, 18, 33, 48, 32, 28, 25, 48, 22, 12, 7, 42, 37, 17, 54, 17, 44
            |27, 38, 42, 38, 24, 49, 50, 37, 19, 26, 28, 16, 30, 0, 38, 25, 33, 43, 55, 38, 36, 40, 10, 40, 10, 19, 15, 41, 42, 45, 35, 32, 35, 33, 27, 26, 19, 30, 44, 22, 27
            |19, 21, 15, 16, 28, 35, 13, 2, 26, 28, 16, 30, 33, 38, 0, 30, 5, 23, 17, 1, 8, 6, 30, 9, 45, 22, 26, 17, 6, 16, 9, 28, 12, 22, 26, 25, 26, 16, 25, 20, 28
            |33, 17, 24, 19, 37, 58, 43, 28, 32, 2, 14, 9, 5, 25, 30, 0, 26, 48, 45, 30, 34, 28, 26, 26, 35, 13, 27, 43, 30, 27, 22, 43, 20, 12, 4, 37, 32, 14, 49, 12, 39
            |16, 19, 15, 15, 24, 36, 18, 4, 22, 24, 12, 25, 29, 33, 5, 26, 0, 24, 22, 5, 9, 9, 25, 10, 40, 16, 22, 19, 9, 17, 7, 26, 9, 19, 22, 22, 22, 13, 26, 15, 25
            |16, 43, 38, 39, 21, 12, 20, 25, 24, 46, 35, 44, 52, 43, 23, 48, 24, 0, 27, 22, 15, 29, 33, 32, 44, 35, 28, 5, 28, 38, 31, 14, 33, 43, 45, 17, 24, 36, 2, 35, 18
            |32, 32, 24, 27, 41, 38, 7, 18, 41, 43, 31, 47, 47, 55, 17, 45, 22, 27, 0, 17, 20, 17, 46, 19, 60, 38, 42, 23, 15, 22, 23, 38, 25, 35, 41, 37, 41, 31, 29, 36, 40
            |18, 22, 16, 17, 27, 34, 13, 3, 26, 29, 16, 30, 34, 38, 1, 30, 5, 22, 17, 0, 7, 7, 30, 10, 44, 21, 25, 17, 7, 17, 9, 27, 12, 23, 27, 24, 26, 17, 24, 20, 27
            |12, 28, 23, 24, 21, 27, 14, 10, 21, 33, 21, 32, 38, 36, 8, 34, 9, 15, 20, 7, 0, 15, 27, 17, 41, 23, 22, 10, 14, 24, 16, 20, 18, 28, 31, 18, 21, 22, 17, 23, 21
            |24, 16, 9, 11, 33, 41, 16, 5, 31, 26, 15, 30, 30, 40, 6, 28, 9, 29, 17, 7, 15, 0, 34, 3, 48, 22, 30, 24, 2, 9, 6, 34, 8, 18, 24, 30, 31, 14, 31, 20, 33
            |17, 36, 37, 34, 14, 39, 41, 30, 9, 27, 24, 18, 32, 10, 30, 26, 25, 33, 46, 30, 27, 34, 0, 34, 14, 16, 5, 32, 35, 40, 29, 22, 30, 31, 26, 16, 9, 26, 34, 18, 17
            |26, 13, 6, 9, 34, 44, 19, 7, 32, 24, 13, 29, 28, 40, 9, 26, 10, 32, 19, 10, 17, 3, 34, 0, 48, 21, 31, 26, 4, 7, 6, 36, 6, 16, 22, 32, 32, 13, 34, 19, 35
            |30, 48, 50, 47, 24, 48, 55, 44, 21, 36, 37, 26, 40, 10, 45, 35, 40, 44, 60, 44, 41, 48, 14, 48, 0, 28, 19, 44, 49, 53, 42, 31, 43, 43, 36, 27, 21, 38, 45, 30, 26
            |21, 20, 22, 18, 24, 45, 34, 20, 20, 12, 9, 9, 18, 19, 22, 13, 16, 35, 38, 21, 23, 22, 16, 21, 28, 0, 16, 32, 24, 26, 16, 30, 16, 15, 11, 24, 20, 10, 37, 2, 27
            |12, 34, 34, 31, 10, 35, 36, 26, 5, 27, 22, 20, 33, 15, 26, 27, 22, 28, 42, 25, 22, 30, 5, 31, 19, 16, 0, 26, 31, 37, 26, 18, 27, 30, 27, 12, 5, 24, 29, 17, 13
            |14, 38, 33, 33, 21, 17, 16, 19, 23, 42, 30, 40, 48, 41, 17, 43, 19, 5, 23, 17, 10, 24, 32, 26, 44, 32, 26, 0, 23, 33, 25, 16, 28, 38, 40, 17, 23, 31, 8, 31, 19
            |25, 18, 11, 13, 33, 40, 14, 5, 32, 28, 16, 32, 32, 42, 6, 30, 9, 28, 15, 7, 14, 2, 35, 4, 49, 24, 31, 23, 0, 10, 8, 34, 10, 20, 26, 31, 32, 16, 30, 22, 34
            |33, 11, 4, 8, 41, 51, 23, 14, 39, 25, 17, 32, 28, 45, 16, 27, 17, 38, 22, 17, 24, 9, 40, 7, 53, 26, 37, 33, 10, 0, 11, 43, 10, 16, 23, 39, 39, 16, 41, 23, 42
            |22, 13, 9, 8, 30, 42, 21, 7, 27, 20, 8, 24, 25, 35, 9, 22, 7, 31, 23, 9, 16, 6, 29, 6, 42, 16, 26, 25, 8, 11, 0, 33, 3, 13, 18, 28, 27, 8, 33, 14, 31
            |11, 45, 42, 41, 8, 17, 31, 29, 13, 43, 34, 37, 48, 32, 28, 43, 26, 14, 38, 27, 20, 34, 22, 36, 31, 30, 18, 16, 34, 43, 33, 0, 35, 42, 41, 6, 13, 35, 14, 31, 5
            |25, 10, 7, 5, 32, 45, 24, 9, 29, 18, 7, 23, 22, 35, 12, 20, 9, 33, 25, 12, 18, 8, 30, 6, 43, 16, 27, 28, 10, 10, 3, 35, 0, 11, 16, 30, 29, 6, 36, 13, 33
            |32, 6, 12, 8, 38, 55, 34, 20, 34, 9, 9, 18, 12, 33, 22, 12, 19, 43, 35, 23, 28, 18, 31, 16, 43, 15, 30, 38, 20, 16, 13, 42, 11, 0, 8, 37, 34, 7, 45, 13, 40
            |31, 13, 20, 15, 35, 55, 39, 24, 31, 2, 10, 11, 7, 27, 26, 4, 22, 45, 41, 27, 31, 24, 26, 22, 36, 11, 27, 40, 26, 23, 18, 41, 16, 8, 0, 35, 31, 10, 47, 10, 38
            |6, 39, 37, 36, 4, 23, 31, 25, 7, 36, 28, 31, 42, 26, 25, 37, 22, 17, 37, 24, 18, 30, 16, 32, 27, 24, 12, 17, 31, 39, 28, 6, 30, 37, 35, 0, 7, 30, 18, 25, 3
            |9, 37, 36, 34, 5, 30, 35, 26, 0, 32, 25, 25, 37, 19, 26, 32, 22, 24, 41, 26, 21, 31, 9, 32, 21, 20, 5, 23, 32, 39, 27, 13, 29, 34, 31, 7, 0, 27, 25, 21, 8
            |25, 10, 12, 8, 31, 47, 29, 14, 27, 12, 2, 17, 17, 30, 16, 14, 13, 36, 31, 17, 22, 14, 26, 13, 38, 10, 24, 31, 16, 16, 8, 35, 6, 7, 10, 30, 27, 0, 38, 8, 33
            |17, 46, 40, 41, 21, 10, 22, 27, 25, 48, 37, 45, 54, 44, 25, 49, 26, 2, 29, 24, 17, 31, 34, 34, 45, 37, 29, 8, 30, 41, 33, 14, 36, 45, 47, 18, 25, 38, 0, 37, 19
            |21, 17, 20, 16, 25, 46, 33, 18, 21, 11, 6, 10, 17, 22, 20, 12, 15, 35, 36, 20, 23, 20, 18, 19, 30, 2, 17, 31, 22, 23, 14, 31, 13, 13, 10, 25, 21, 8, 37, 0, 28
            |9, 42, 40, 38, 3, 22, 33, 28, 8, 39, 31, 33, 44, 27, 28, 39, 25, 18, 40, 27, 21, 33, 17, 35, 26, 27, 13, 19, 34, 42, 31, 5, 33, 40, 38, 3, 8, 33, 19, 28, 0|];
early = [0, 51, 108, 44, 0, 228, 189, 71, 0, 111, 30, 0, 36, 344, 141, 24, 24, 230, 131, 39, 346, 90, 0, 99, 0, 0, 0, 204, 45, 180, 88, 253, 18, 0, 0, 296, 0, 51, 209, 0, 361];
late = [549, 273, 265, 203, 127, 384, 400, 301, 125, 357, 203, 156, 184, 511, 410, 209, 302, 484, 416, 286, 537, 382, 152, 227, 161, 178, 72, 440, 291, 303, 258, 486, 269, 200, 168, 454, 149, 231, 407, 233, 493];