% n40w120.002    22.55 608
n = 41;
duration = [|0, 35, 32, 48, 43, 44, 37, 34, 14, 7, 4, 43, 28, 52, 31, 18, 4, 54, 7, 4, 32, 42, 42, 31, 17, 20, 31, 9, 21, 31, 41, 35, 6, 38, 20, 39, 16, 13, 28, 26, 32
            |35, 0, 38, 40, 11, 17, 26, 23, 22, 30, 31, 32, 30, 42, 52, 44, 37, 44, 31, 34, 8, 46, 20, 38, 30, 34, 34, 32, 23, 15, 12, 53, 29, 27, 25, 4, 29, 22, 14, 9, 52
            |32, 38, 0, 19, 38, 32, 17, 18, 35, 26, 32, 18, 9, 23, 18, 22, 30, 24, 36, 28, 30, 9, 28, 2, 16, 12, 5, 39, 18, 24, 34, 17, 34, 17, 17, 40, 17, 30, 24, 32, 18
            |48, 40, 19, 0, 35, 26, 15, 18, 46, 41, 47, 8, 20, 4, 36, 40, 46, 6, 50, 44, 32, 16, 22, 21, 31, 29, 17, 53, 29, 27, 30, 33, 48, 13, 29, 40, 32, 42, 28, 37, 35
            |43, 11, 38, 35, 0, 9, 23, 21, 31, 37, 39, 27, 30, 36, 54, 49, 44, 37, 40, 41, 11, 44, 13, 39, 34, 37, 33, 42, 26, 15, 4, 54, 38, 23, 29, 8, 34, 30, 17, 17, 54
            |44, 17, 32, 26, 9, 0, 16, 14, 34, 37, 40, 18, 25, 27, 49, 46, 44, 28, 42, 41, 13, 36, 4, 33, 31, 34, 27, 44, 24, 13, 5, 49, 40, 16, 26, 16, 31, 32, 15, 20, 49
            |37, 26, 17, 15, 23, 16, 0, 3, 32, 30, 34, 7, 11, 18, 35, 34, 36, 19, 38, 33, 18, 21, 11, 18, 21, 21, 12, 40, 16, 12, 18, 34, 35, 1, 17, 27, 21, 28, 14, 23, 34
            |34, 23, 18, 18, 21, 14, 3, 0, 29, 27, 32, 10, 11, 21, 35, 33, 34, 22, 35, 31, 15, 23, 11, 19, 19, 20, 13, 38, 13, 9, 16, 34, 32, 4, 15, 24, 19, 25, 10, 20, 34
            |14, 22, 35, 46, 31, 34, 32, 29, 0, 13, 9, 39, 28, 50, 40, 29, 17, 51, 9, 15, 21, 44, 34, 33, 19, 24, 31, 10, 17, 22, 30, 43, 8, 33, 18, 26, 18, 4, 20, 14, 41
            |7, 30, 26, 41, 37, 37, 30, 27, 13, 0, 6, 36, 21, 45, 28, 16, 7, 47, 10, 4, 26, 35, 36, 24, 10, 14, 24, 14, 14, 24, 35, 31, 8, 31, 13, 34, 9, 10, 22, 22, 28
            |4, 31, 32, 47, 39, 40, 34, 32, 9, 6, 0, 41, 27, 51, 33, 21, 8, 52, 4, 6, 28, 42, 39, 30, 16, 20, 30, 7, 19, 27, 37, 37, 2, 36, 18, 35, 15, 9, 25, 22, 34
            |43, 32, 18, 8, 27, 18, 7, 10, 39, 36, 41, 0, 16, 11, 37, 38, 42, 12, 45, 39, 24, 19, 14, 20, 27, 26, 15, 47, 23, 19, 23, 35, 42, 6, 24, 32, 27, 35, 21, 30, 36
            |28, 30, 9, 20, 30, 25, 11, 11, 28, 21, 27, 16, 0, 24, 24, 23, 27, 26, 31, 24, 22, 17, 22, 9, 11, 10, 4, 34, 10, 16, 26, 24, 28, 12, 10, 32, 12, 23, 16, 24, 24
            |52, 42, 23, 4, 36, 27, 18, 21, 50, 45, 51, 11, 24, 0, 40, 45, 51, 1, 54, 48, 35, 19, 23, 25, 36, 34, 22, 57, 33, 30, 32, 37, 52, 17, 33, 42, 36, 46, 31, 40, 39
            |31, 52, 18, 36, 54, 49, 35, 35, 40, 28, 33, 37, 24, 40, 0, 13, 27, 41, 37, 27, 45, 22, 46, 17, 22, 18, 22, 40, 29, 39, 50, 5, 35, 35, 27, 54, 23, 36, 38, 44, 1
            |18, 44, 22, 40, 49, 46, 34, 33, 29, 16, 21, 38, 23, 45, 13, 0, 14, 46, 25, 15, 38, 29, 44, 20, 15, 13, 24, 27, 23, 34, 46, 18, 23, 35, 21, 48, 16, 26, 33, 36, 14
            |4, 37, 30, 46, 44, 44, 36, 34, 17, 7, 8, 42, 27, 51, 27, 14, 0, 52, 11, 3, 33, 39, 43, 28, 15, 18, 29, 13, 21, 31, 42, 31, 10, 37, 19, 41, 15, 16, 29, 28, 28
            |54, 44, 24, 6, 37, 28, 19, 22, 51, 47, 52, 12, 26, 1, 41, 46, 52, 0, 56, 50, 36, 20, 24, 27, 37, 35, 23, 59, 34, 31, 33, 38, 53, 18, 35, 43, 38, 47, 33, 42, 40
            |7, 31, 36, 50, 40, 42, 38, 35, 9, 10, 4, 45, 31, 54, 37, 25, 11, 56, 0, 10, 30, 46, 42, 35, 20, 24, 34, 3, 22, 30, 39, 41, 3, 39, 21, 35, 19, 10, 27, 23, 38
            |4, 34, 28, 44, 41, 41, 33, 31, 15, 4, 6, 39, 24, 48, 27, 15, 3, 50, 10, 0, 30, 37, 40, 26, 13, 16, 27, 13, 18, 28, 39, 31, 9, 34, 16, 38, 12, 13, 26, 25, 28
            |32, 8, 30, 32, 11, 13, 18, 15, 21, 26, 28, 24, 22, 35, 45, 38, 33, 36, 30, 30, 0, 38, 14, 31, 23, 27, 25, 31, 16, 6, 9, 45, 27, 19, 18, 10, 23, 19, 6, 7, 45
            |42, 46, 9, 16, 44, 36, 21, 23, 44, 35, 42, 19, 17, 19, 22, 29, 39, 20, 46, 37, 38, 0, 32, 11, 26, 21, 13, 49, 27, 31, 39, 18, 43, 21, 26, 47, 27, 40, 32, 40, 20
            |42, 20, 28, 22, 13, 4, 11, 11, 34, 36, 39, 14, 22, 23, 46, 44, 43, 24, 42, 40, 14, 32, 0, 29, 29, 31, 23, 44, 22, 12, 9, 45, 39, 11, 24, 19, 29, 31, 14, 21, 45
            |31, 38, 2, 21, 39, 33, 18, 19, 33, 24, 30, 20, 9, 25, 17, 20, 28, 27, 35, 26, 31, 11, 29, 0, 15, 10, 6, 38, 17, 24, 35, 16, 32, 18, 16, 40, 16, 29, 24, 32, 16
            |17, 30, 16, 31, 34, 31, 21, 19, 19, 10, 16, 27, 11, 36, 22, 15, 15, 37, 20, 13, 23, 26, 29, 15, 0, 5, 14, 23, 8, 19, 31, 25, 17, 22, 5, 33, 1, 15, 17, 21, 23
            |20, 34, 12, 29, 37, 34, 21, 20, 24, 14, 20, 26, 10, 34, 18, 13, 18, 35, 24, 16, 27, 21, 31, 10, 5, 0, 12, 28, 11, 22, 34, 20, 22, 22, 9, 37, 6, 20, 21, 26, 18
            |31, 34, 5, 17, 33, 27, 12, 13, 31, 24, 30, 15, 4, 22, 22, 24, 29, 23, 34, 27, 25, 13, 23, 6, 14, 12, 0, 37, 14, 19, 29, 22, 31, 13, 14, 35, 15, 27, 19, 27, 22
            |9, 32, 39, 53, 42, 44, 40, 38, 10, 14, 7, 47, 34, 57, 40, 27, 13, 59, 3, 13, 31, 49, 44, 38, 23, 28, 37, 0, 25, 32, 41, 44, 6, 42, 24, 36, 22, 13, 30, 25, 41
            |21, 23, 18, 29, 26, 24, 16, 13, 17, 14, 19, 23, 10, 33, 29, 23, 21, 34, 22, 18, 16, 27, 22, 17, 8, 11, 14, 25, 0, 11, 23, 31, 19, 17, 2, 25, 7, 13, 10, 15, 29
            |31, 15, 24, 27, 15, 13, 12, 9, 22, 24, 27, 19, 16, 30, 39, 34, 31, 31, 30, 28, 6, 31, 12, 24, 19, 22, 19, 32, 11, 0, 12, 40, 27, 13, 14, 16, 19, 19, 2, 11, 39
            |41, 12, 34, 30, 4, 5, 18, 16, 30, 35, 37, 23, 26, 32, 50, 46, 42, 33, 39, 39, 9, 39, 9, 35, 31, 34, 29, 41, 23, 12, 0, 50, 36, 19, 25, 10, 30, 28, 13, 16, 50
            |35, 53, 17, 33, 54, 49, 34, 34, 43, 31, 37, 35, 24, 37, 5, 18, 31, 38, 41, 31, 45, 18, 45, 16, 25, 20, 22, 44, 31, 40, 50, 0, 39, 34, 29, 55, 26, 39, 39, 45, 4
            |6, 29, 34, 48, 38, 40, 35, 32, 8, 8, 2, 42, 28, 52, 35, 23, 10, 53, 3, 9, 27, 43, 39, 32, 17, 22, 31, 6, 19, 27, 36, 39, 0, 36, 18, 33, 17, 8, 25, 21, 36
            |38, 27, 17, 13, 23, 16, 1, 4, 33, 31, 36, 6, 12, 17, 35, 35, 37, 18, 39, 34, 19, 21, 11, 18, 22, 22, 13, 42, 17, 13, 19, 34, 36, 0, 18, 27, 22, 30, 15, 24, 35
            |20, 25, 17, 29, 29, 26, 17, 15, 18, 13, 18, 24, 10, 33, 27, 21, 19, 35, 21, 16, 18, 26, 24, 16, 5, 9, 14, 24, 2, 14, 25, 29, 18, 18, 0, 28, 5, 14, 12, 17, 27
            |39, 4, 40, 40, 8, 16, 27, 24, 26, 34, 35, 32, 32, 42, 54, 48, 41, 43, 35, 38, 10, 47, 19, 40, 33, 37, 35, 36, 25, 16, 10, 55, 33, 27, 28, 0, 32, 25, 16, 13, 54
            |16, 29, 17, 32, 34, 31, 21, 19, 18, 9, 15, 27, 12, 36, 23, 16, 15, 38, 19, 12, 23, 27, 29, 16, 1, 6, 15, 22, 7, 19, 30, 26, 17, 22, 5, 32, 0, 14, 17, 21, 24
            |13, 22, 30, 42, 30, 32, 28, 25, 4, 10, 9, 35, 23, 46, 36, 26, 16, 47, 10, 13, 19, 40, 31, 29, 15, 20, 27, 13, 13, 19, 28, 39, 8, 30, 14, 25, 14, 0, 17, 13, 37
            |28, 14, 24, 28, 17, 15, 14, 10, 20, 22, 25, 21, 16, 31, 38, 33, 29, 33, 27, 26, 6, 32, 14, 24, 17, 21, 19, 30, 10, 2, 13, 39, 25, 15, 12, 16, 17, 17, 0, 9, 38
            |26, 9, 32, 37, 17, 20, 23, 20, 14, 22, 22, 30, 24, 40, 44, 36, 28, 42, 23, 25, 7, 40, 21, 32, 21, 26, 27, 25, 15, 11, 16, 45, 21, 24, 17, 13, 21, 13, 9, 0, 44
            |32, 52, 18, 35, 54, 49, 34, 34, 41, 28, 34, 36, 24, 39, 1, 14, 28, 40, 38, 28, 45, 20, 45, 16, 23, 18, 22, 41, 29, 39, 50, 4, 36, 35, 27, 54, 24, 37, 38, 44, 0|];