% n40w180.002    83.17 532
n = 41;
duration = [|0, 12, 13, 4, 37, 38, 19, 15, 36, 33, 17, 17, 11, 27, 19, 14, 17, 41, 33, 38, 27, 23, 31, 40, 17, 23, 31, 33, 21, 37, 6, 23, 6, 13, 38, 36, 30, 25, 6, 15, 17
            |12, 0, 10, 16, 31, 46, 9, 4, 35, 27, 15, 21, 22, 29, 23, 21, 26, 40, 35, 35, 38, 21, 40, 37, 5, 13, 30, 28, 33, 39, 9, 12, 11, 24, 46, 35, 39, 17, 9, 23, 27
            |13, 10, 0, 17, 42, 51, 19, 9, 45, 37, 24, 28, 23, 37, 30, 26, 30, 49, 43, 45, 39, 30, 44, 47, 11, 12, 39, 38, 33, 48, 14, 21, 8, 20, 51, 45, 43, 27, 6, 28, 30
            |4, 16, 17, 0, 37, 34, 22, 19, 35, 34, 18, 15, 6, 25, 17, 11, 13, 40, 31, 37, 23, 22, 27, 39, 21, 28, 30, 33, 17, 34, 9, 26, 10, 12, 34, 35, 25, 26, 11, 12, 13
            |37, 31, 42, 37, 0, 44, 23, 34, 14, 4, 20, 26, 40, 20, 25, 30, 36, 16, 21, 10, 50, 16, 42, 11, 32, 40, 13, 4, 48, 25, 31, 23, 40, 49, 43, 14, 42, 15, 39, 32, 37
            |38, 46, 51, 34, 44, 0, 46, 50, 31, 43, 36, 26, 29, 25, 24, 25, 21, 33, 24, 36, 19, 32, 7, 37, 51, 60, 31, 41, 24, 21, 38, 51, 44, 39, 1, 31, 9, 45, 45, 24, 21
            |19, 9, 19, 22, 23, 46, 0, 11, 29, 19, 11, 20, 27, 25, 22, 22, 28, 34, 30, 28, 42, 16, 41, 30, 9, 18, 24, 20, 37, 35, 13, 5, 20, 32, 46, 29, 40, 8, 18, 24, 29
            |15, 4, 9, 19, 34, 50, 11, 0, 39, 30, 19, 25, 25, 33, 28, 25, 30, 44, 39, 39, 42, 25, 44, 41, 3, 9, 34, 31, 36, 44, 13, 13, 13, 26, 50, 39, 43, 19, 10, 27, 30
            |36, 35, 45, 35, 14, 31, 29, 39, 0, 15, 20, 20, 35, 10, 18, 25, 28, 5, 8, 5, 40, 14, 30, 6, 38, 47, 5, 13, 40, 11, 31, 32, 41, 46, 30, 0, 31, 23, 40, 25, 30
            |33, 27, 37, 34, 4, 43, 19, 30, 15, 0, 16, 22, 36, 18, 22, 27, 33, 18, 20, 11, 47, 13, 40, 13, 28, 36, 12, 2, 45, 25, 27, 20, 36, 45, 42, 15, 40, 11, 35, 29, 34
            |17, 15, 24, 18, 20, 36, 11, 19, 20, 16, 0, 10, 21, 14, 11, 13, 19, 25, 20, 21, 34, 6, 30, 23, 18, 27, 15, 16, 30, 25, 11, 15, 21, 29, 35, 20, 30, 10, 20, 15, 21
            |17, 21, 28, 15, 26, 26, 20, 25, 20, 22, 10, 0, 15, 10, 2, 5, 10, 25, 16, 23, 25, 9, 20, 25, 26, 35, 16, 21, 22, 20, 14, 25, 23, 26, 25, 20, 20, 20, 22, 6, 12
            |11, 22, 23, 6, 40, 29, 27, 25, 35, 36, 21, 15, 0, 24, 16, 10, 8, 39, 30, 38, 16, 23, 21, 39, 27, 34, 30, 35, 11, 32, 14, 32, 16, 12, 29, 35, 20, 30, 17, 9, 8
            |27, 29, 37, 25, 20, 25, 25, 33, 10, 18, 14, 10, 24, 0, 8, 15, 18, 15, 6, 14, 31, 9, 22, 16, 32, 42, 7, 16, 30, 11, 23, 29, 32, 36, 24, 10, 22, 21, 32, 15, 19
            |19, 23, 30, 17, 25, 24, 22, 28, 18, 22, 11, 2, 16, 8, 0, 6, 11, 23, 14, 22, 25, 9, 19, 23, 28, 37, 14, 21, 23, 17, 16, 27, 25, 28, 24, 18, 19, 21, 25, 7, 12
            |14, 21, 26, 11, 30, 25, 22, 25, 25, 27, 13, 5, 10, 15, 6, 0, 6, 29, 20, 28, 21, 14, 19, 30, 26, 34, 21, 26, 17, 23, 13, 27, 20, 21, 25, 25, 18, 24, 20, 2, 7
            |17, 26, 30, 13, 36, 21, 28, 30, 28, 33, 19, 10, 8, 18, 11, 6, 0, 33, 22, 32, 15, 20, 14, 34, 31, 39, 25, 32, 12, 24, 17, 33, 23, 20, 21, 28, 13, 30, 23, 4, 1
            |41, 40, 49, 40, 16, 33, 34, 44, 5, 18, 25, 25, 39, 15, 23, 29, 33, 0, 11, 6, 44, 19, 33, 5, 42, 52, 10, 16, 44, 12, 36, 36, 46, 51, 32, 5, 34, 27, 45, 30, 34
            |33, 35, 43, 31, 21, 24, 30, 39, 8, 20, 20, 16, 30, 6, 14, 20, 22, 11, 0, 13, 33, 14, 22, 13, 38, 48, 8, 18, 34, 5, 29, 34, 39, 41, 23, 8, 24, 26, 38, 20, 24
            |38, 35, 45, 37, 10, 36, 28, 39, 5, 11, 21, 23, 38, 14, 22, 28, 32, 6, 13, 0, 45, 15, 35, 2, 37, 46, 7, 9, 44, 16, 32, 30, 42, 48, 35, 5, 36, 21, 41, 29, 33
            |27, 38, 39, 23, 50, 19, 42, 42, 40, 47, 34, 25, 16, 31, 25, 21, 15, 44, 33, 45, 0, 34, 13, 46, 44, 50, 38, 46, 6, 33, 30, 47, 32, 23, 20, 40, 11, 44, 33, 19, 13
            |23, 21, 30, 22, 16, 32, 16, 25, 14, 13, 6, 9, 23, 9, 9, 14, 20, 19, 14, 15, 34, 0, 28, 17, 24, 34, 9, 12, 32, 19, 17, 20, 27, 34, 32, 14, 28, 13, 26, 16, 21
            |31, 40, 44, 27, 42, 7, 41, 44, 30, 40, 30, 20, 21, 22, 19, 19, 14, 33, 22, 35, 13, 28, 0, 36, 45, 53, 29, 38, 17, 21, 31, 45, 37, 32, 8, 30, 2, 40, 38, 17, 14
            |40, 37, 47, 39, 11, 37, 30, 41, 6, 13, 23, 25, 39, 16, 23, 30, 34, 5, 13, 2, 46, 17, 36, 0, 39, 48, 9, 11, 45, 16, 34, 32, 44, 50, 36, 6, 37, 23, 43, 31, 35
            |17, 5, 11, 21, 32, 51, 9, 3, 38, 28, 18, 26, 27, 32, 28, 26, 31, 42, 38, 37, 44, 24, 45, 39, 0, 9, 33, 29, 38, 43, 14, 10, 15, 28, 51, 38, 44, 17, 13, 28, 32
            |23, 13, 12, 28, 40, 60, 18, 9, 47, 36, 27, 35, 34, 42, 37, 34, 39, 52, 48, 46, 50, 34, 53, 48, 9, 0, 42, 38, 44, 52, 22, 17, 19, 32, 59, 47, 52, 25, 17, 36, 39
            |31, 30, 39, 30, 13, 31, 24, 34, 5, 12, 15, 16, 30, 7, 14, 21, 25, 10, 8, 7, 38, 9, 29, 9, 33, 42, 0, 10, 37, 13, 26, 27, 36, 41, 30, 5, 30, 18, 35, 22, 26
            |33, 28, 38, 33, 4, 41, 20, 31, 13, 2, 16, 21, 35, 16, 21, 26, 32, 16, 18, 9, 46, 12, 38, 11, 29, 38, 10, 0, 44, 23, 27, 21, 37, 45, 40, 13, 39, 12, 35, 28, 33
            |21, 33, 33, 17, 48, 24, 37, 36, 40, 45, 30, 22, 11, 30, 23, 17, 12, 44, 34, 44, 6, 32, 17, 45, 38, 44, 37, 44, 0, 35, 25, 42, 26, 16, 25, 40, 15, 40, 27, 16, 11
            |37, 39, 48, 34, 25, 21, 35, 44, 11, 25, 25, 20, 32, 11, 17, 23, 24, 12, 5, 16, 33, 19, 21, 16, 43, 52, 13, 23, 35, 0, 33, 39, 42, 44, 20, 11, 23, 31, 42, 23, 25
            |6, 9, 14, 9, 31, 38, 13, 13, 31, 27, 11, 14, 14, 23, 16, 13, 17, 36, 29, 32, 30, 17, 31, 34, 14, 22, 26, 27, 25, 33, 0, 18, 10, 19, 38, 31, 30, 18, 9, 14, 18
            |23, 12, 21, 26, 23, 51, 5, 13, 32, 20, 15, 25, 32, 29, 27, 27, 33, 36, 34, 30, 47, 20, 45, 32, 10, 17, 27, 21, 42, 39, 18, 0, 23, 36, 50, 32, 45, 9, 21, 29, 34
            |6, 11, 8, 10, 40, 44, 20, 13, 41, 36, 21, 23, 16, 32, 25, 20, 23, 46, 39, 42, 32, 27, 37, 44, 15, 19, 36, 37, 26, 42, 10, 23, 0, 13, 44, 41, 35, 27, 2, 21, 23
            |13, 24, 20, 12, 49, 39, 32, 26, 46, 45, 29, 26, 12, 36, 28, 21, 20, 51, 41, 48, 23, 34, 32, 50, 28, 32, 41, 45, 16, 44, 19, 36, 13, 0, 39, 46, 30, 37, 16, 21, 19
            |38, 46, 51, 34, 43, 1, 46, 50, 30, 42, 35, 25, 29, 24, 24, 25, 21, 32, 23, 35, 20, 32, 8, 36, 51, 59, 30, 40, 25, 20, 38, 50, 44, 39, 0, 30, 9, 44, 45, 23, 21
            |36, 35, 45, 35, 14, 31, 29, 39, 0, 15, 20, 20, 35, 10, 18, 25, 28, 5, 8, 5, 40, 14, 30, 6, 38, 47, 5, 13, 40, 11, 31, 32, 41, 46, 30, 0, 31, 23, 40, 25, 30
            |30, 39, 43, 25, 42, 9, 40, 43, 31, 40, 30, 20, 20, 22, 19, 18, 13, 34, 24, 36, 11, 28, 2, 37, 44, 52, 30, 39, 15, 23, 30, 45, 35, 30, 9, 31, 0, 40, 36, 16, 13
            |25, 17, 27, 26, 15, 45, 8, 19, 23, 11, 10, 20, 30, 21, 21, 24, 30, 27, 26, 21, 44, 13, 40, 23, 17, 25, 18, 12, 40, 31, 18, 9, 27, 37, 44, 23, 40, 0, 25, 25, 31
            |6, 9, 6, 11, 39, 45, 18, 10, 40, 35, 20, 22, 17, 32, 25, 20, 23, 45, 38, 41, 33, 26, 38, 43, 13, 17, 35, 35, 27, 42, 9, 21, 2, 16, 45, 40, 36, 25, 0, 21, 23
            |15, 23, 28, 12, 32, 24, 24, 27, 25, 29, 15, 6, 9, 15, 7, 2, 4, 30, 20, 29, 19, 16, 17, 31, 28, 36, 22, 28, 16, 23, 14, 29, 21, 21, 23, 25, 16, 25, 21, 0, 5
            |17, 27, 30, 13, 37, 21, 29, 30, 30, 34, 21, 12, 8, 19, 12, 7, 1, 34, 24, 33, 13, 21, 14, 35, 32, 39, 26, 33, 11, 25, 18, 34, 23, 19, 21, 30, 13, 31, 23, 5, 0|];