% n60w140.005    35.85 618
n = 61;
duration = [|0, 23, 32, 28, 35, 17, 39, 28, 10, 42, 34, 12, 3, 31, 31, 29, 33, 8, 21, 35, 14, 35, 19, 13, 25, 38, 18, 24, 7, 33, 29, 1, 10, 19, 18, 11, 36, 12, 10, 30, 42, 15, 22, 25, 20, 9, 30, 23, 37, 2, 35, 25, 16, 13, 14, 6, 12, 25, 20, 7, 42
            |23, 0, 28, 38, 30, 21, 55, 17, 31, 39, 44, 32, 25, 44, 43, 50, 54, 31, 44, 49, 23, 51, 41, 34, 28, 43, 33, 4, 16, 38, 32, 24, 32, 25, 9, 34, 52, 25, 16, 47, 42, 8, 45, 40, 41, 16, 28, 44, 42, 25, 54, 17, 37, 34, 36, 21, 33, 35, 39, 20, 59
            |32, 28, 0, 19, 3, 15, 38, 11, 31, 11, 23, 43, 35, 27, 25, 44, 44, 38, 48, 31, 18, 34, 48, 35, 10, 17, 24, 24, 31, 14, 9, 33, 41, 14, 21, 40, 35, 22, 23, 35, 14, 28, 49, 28, 37, 34, 3, 54, 18, 33, 41, 11, 34, 32, 38, 26, 32, 18, 33, 25, 44
            |28, 38, 19, 0, 20, 17, 19, 27, 21, 22, 6, 37, 30, 8, 6, 27, 26, 31, 37, 12, 16, 15, 38, 24, 11, 11, 12, 36, 32, 8, 10, 30, 34, 13, 29, 32, 17, 17, 24, 17, 18, 34, 37, 11, 22, 35, 16, 44, 9, 29, 22, 24, 22, 21, 27, 24, 22, 3, 19, 23, 25
            |35, 30, 3, 20, 0, 18, 39, 13, 34, 9, 24, 46, 38, 28, 26, 46, 46, 41, 51, 32, 21, 35, 51, 37, 12, 17, 27, 26, 34, 15, 10, 36, 44, 17, 23, 43, 37, 25, 26, 37, 13, 31, 52, 30, 39, 36, 5, 56, 18, 36, 43, 13, 37, 35, 41, 29, 35, 20, 36, 28, 45
            |17, 21, 15, 17, 18, 0, 35, 14, 17, 25, 24, 28, 20, 24, 22, 34, 36, 23, 34, 29, 4, 30, 34, 21, 9, 24, 14, 18, 17, 19, 13, 18, 26, 4, 12, 26, 32, 8, 9, 28, 26, 17, 35, 21, 25, 20, 13, 39, 23, 18, 35, 10, 22, 19, 25, 11, 19, 15, 23, 10, 40
            |39, 55, 38, 19, 39, 35, 0, 46, 29, 38, 15, 43, 39, 12, 13, 19, 14, 37, 36, 7, 32, 4, 40, 28, 30, 25, 22, 53, 45, 25, 30, 40, 39, 30, 46, 37, 3, 31, 39, 10, 33, 49, 36, 15, 22, 48, 35, 45, 23, 38, 8, 43, 25, 26, 30, 37, 27, 21, 20, 36, 6
            |28, 17, 11, 27, 13, 14, 46, 0, 31, 22, 33, 40, 31, 34, 33, 48, 49, 36, 48, 39, 18, 42, 47, 35, 16, 28, 28, 13, 25, 24, 18, 30, 38, 17, 12, 39, 43, 22, 18, 41, 25, 20, 49, 34, 39, 27, 13, 51, 28, 30, 47, 4, 36, 33, 38, 23, 33, 25, 36, 22, 52
            |10, 31, 31, 21, 34, 17, 29, 31, 0, 39, 26, 16, 10, 22, 23, 19, 23, 9, 17, 26, 13, 25, 18, 4, 22, 32, 10, 31, 17, 28, 26, 11, 12, 17, 24, 11, 26, 9, 15, 19, 37, 24, 18, 15, 10, 19, 28, 23, 31, 9, 25, 27, 6, 3, 7, 10, 2, 19, 9, 11, 32
            |42, 39, 11, 22, 9, 25, 38, 22, 39, 0, 23, 53, 45, 28, 26, 49, 48, 47, 56, 31, 28, 35, 57, 42, 18, 13, 31, 35, 42, 14, 14, 43, 50, 23, 32, 50, 36, 31, 34, 38, 6, 40, 57, 32, 43, 45, 13, 62, 15, 43, 43, 22, 42, 40, 46, 36, 40, 22, 39, 35, 44
            |34, 44, 23, 6, 24, 24, 15, 33, 26, 23, 0, 42, 36, 6, 4, 28, 25, 36, 40, 8, 23, 12, 42, 28, 16, 10, 16, 42, 38, 9, 15, 35, 38, 19, 35, 37, 13, 23, 31, 17, 18, 41, 41, 13, 25, 41, 21, 48, 8, 34, 20, 30, 26, 25, 31, 30, 26, 9, 21, 29, 21
            |12, 32, 43, 37, 46, 28, 43, 40, 16, 53, 42, 0, 9, 38, 38, 28, 34, 6, 14, 41, 25, 40, 10, 15, 35, 48, 26, 34, 16, 43, 40, 10, 4, 30, 29, 6, 41, 22, 21, 33, 52, 24, 14, 30, 21, 16, 41, 12, 46, 10, 38, 36, 18, 17, 13, 17, 16, 34, 23, 19, 45
            |3, 25, 35, 30, 38, 20, 39, 31, 10, 45, 36, 9, 0, 32, 32, 28, 32, 5, 18, 36, 17, 36, 16, 12, 27, 40, 19, 27, 9, 35, 32, 2, 7, 21, 21, 8, 37, 14, 13, 29, 44, 17, 19, 25, 19, 11, 33, 20, 39, 1, 35, 28, 15, 13, 12, 9, 12, 27, 19, 10, 42
            |31, 44, 27, 8, 28, 24, 12, 34, 22, 28, 6, 38, 32, 0, 2, 22, 20, 32, 35, 5, 21, 8, 37, 23, 18, 16, 13, 42, 36, 14, 18, 32, 34, 19, 35, 32, 9, 21, 29, 11, 24, 39, 35, 8, 19, 39, 24, 43, 14, 31, 15, 31, 21, 21, 26, 28, 22, 9, 16, 27, 17
            |31, 43, 25, 6, 26, 22, 13, 33, 23, 26, 4, 38, 32, 2, 0, 24, 22, 32, 36, 6, 21, 9, 38, 24, 16, 14, 13, 41, 36, 12, 16, 32, 34, 18, 34, 33, 11, 20, 28, 13, 22, 39, 36, 9, 21, 38, 22, 44, 12, 31, 17, 30, 21, 21, 27, 27, 22, 8, 17, 26, 19
            |29, 50, 44, 27, 46, 34, 19, 48, 19, 49, 28, 28, 28, 22, 24, 0, 6, 24, 18, 22, 30, 18, 22, 16, 34, 38, 20, 50, 36, 35, 36, 29, 25, 31, 43, 22, 19, 27, 34, 11, 45, 43, 18, 16, 9, 38, 41, 27, 35, 28, 12, 44, 14, 17, 16, 30, 17, 26, 11, 30, 18
            |33, 54, 44, 26, 46, 36, 14, 49, 23, 48, 25, 34, 32, 20, 22, 6, 0, 29, 24, 18, 32, 14, 28, 21, 34, 35, 22, 53, 40, 33, 36, 34, 30, 33, 46, 28, 14, 29, 37, 9, 43, 47, 24, 16, 14, 43, 41, 33, 33, 32, 6, 46, 18, 21, 21, 33, 21, 26, 14, 33, 12
            |8, 31, 38, 31, 41, 23, 37, 36, 9, 47, 36, 6, 5, 32, 32, 24, 29, 0, 13, 35, 20, 34, 11, 9, 30, 42, 19, 32, 15, 37, 34, 7, 3, 24, 26, 3, 35, 16, 17, 27, 46, 23, 14, 24, 16, 16, 36, 16, 40, 6, 32, 32, 12, 11, 8, 13, 10, 28, 17, 14, 39
            |21, 44, 48, 37, 51, 34, 36, 48, 17, 56, 40, 14, 18, 35, 36, 18, 24, 13, 0, 37, 31, 34, 4, 14, 39, 48, 26, 45, 28, 44, 43, 20, 12, 34, 39, 10, 35, 27, 30, 27, 54, 36, 1, 27, 15, 28, 46, 9, 46, 19, 29, 44, 15, 17, 10, 25, 16, 35, 19, 26, 36
            |35, 49, 31, 12, 32, 29, 7, 39, 26, 31, 8, 41, 36, 5, 6, 22, 18, 35, 37, 0, 26, 4, 40, 26, 23, 18, 17, 47, 41, 17, 22, 36, 37, 24, 40, 36, 5, 26, 34, 11, 26, 44, 37, 11, 22, 43, 28, 45, 16, 35, 13, 36, 24, 24, 29, 32, 25, 14, 19, 32, 13
            |14, 23, 18, 16, 21, 4, 32, 18, 13, 28, 23, 25, 17, 21, 21, 30, 32, 20, 31, 26, 0, 28, 30, 17, 10, 25, 11, 21, 16, 19, 15, 16, 23, 4, 14, 22, 29, 4, 8, 25, 27, 18, 32, 18, 21, 19, 16, 36, 23, 16, 31, 14, 18, 15, 21, 9, 15, 13, 19, 8, 37
            |35, 51, 34, 15, 35, 30, 4, 42, 25, 35, 12, 40, 36, 8, 9, 18, 14, 34, 34, 4, 28, 0, 37, 25, 26, 22, 18, 49, 41, 21, 26, 36, 36, 26, 42, 34, 1, 26, 35, 8, 30, 45, 35, 11, 19, 44, 31, 43, 20, 35, 9, 39, 22, 23, 27, 33, 24, 17, 17, 32, 10
            |19, 41, 48, 38, 51, 34, 40, 47, 18, 57, 42, 10, 16, 37, 38, 22, 28, 11, 4, 40, 30, 37, 0, 15, 39, 50, 27, 43, 25, 45, 43, 18, 9, 34, 37, 8, 38, 26, 29, 30, 55, 33, 5, 30, 18, 25, 46, 6, 48, 17, 33, 43, 17, 18, 11, 24, 17, 36, 21, 25, 40
            |13, 34, 35, 24, 37, 21, 28, 35, 4, 42, 28, 15, 12, 23, 24, 16, 21, 9, 14, 26, 17, 25, 15, 0, 25, 35, 12, 35, 20, 30, 29, 13, 11, 20, 28, 9, 26, 13, 19, 18, 40, 27, 15, 16, 7, 22, 32, 21, 33, 11, 23, 31, 3, 3, 4, 14, 2, 21, 8, 15, 30
            |25, 28, 10, 11, 12, 9, 30, 16, 22, 18, 16, 35, 27, 18, 16, 34, 34, 30, 39, 23, 10, 26, 39, 25, 0, 15, 14, 25, 26, 10, 4, 26, 33, 6, 20, 32, 27, 13, 17, 26, 17, 26, 40, 18, 27, 29, 7, 45, 14, 26, 32, 13, 25, 22, 29, 19, 23, 9, 23, 18, 35
            |38, 43, 17, 11, 17, 24, 25, 28, 32, 13, 10, 48, 40, 16, 14, 38, 35, 42, 48, 18, 25, 22, 50, 35, 15, 0, 23, 40, 41, 5, 11, 40, 44, 20, 34, 43, 23, 27, 32, 27, 8, 41, 49, 22, 33, 44, 16, 55, 2, 39, 30, 27, 33, 32, 38, 33, 33, 14, 30, 32, 31
            |18, 33, 24, 12, 27, 14, 22, 28, 10, 31, 16, 26, 19, 13, 13, 20, 22, 19, 26, 17, 11, 18, 27, 12, 14, 23, 0, 32, 23, 18, 17, 19, 22, 11, 25, 21, 19, 9, 17, 14, 28, 27, 26, 7, 12, 26, 21, 33, 21, 18, 21, 24, 11, 9, 16, 15, 10, 9, 9, 14, 26
            |24, 4, 24, 36, 26, 18, 53, 13, 31, 35, 42, 34, 27, 42, 41, 50, 53, 32, 45, 47, 21, 49, 43, 35, 25, 40, 32, 0, 18, 35, 28, 25, 34, 23, 7, 35, 50, 24, 16, 46, 38, 10, 46, 39, 41, 19, 24, 46, 39, 26, 53, 13, 37, 34, 37, 21, 33, 33, 39, 20, 58
            |7, 16, 31, 32, 34, 17, 45, 25, 17, 42, 38, 16, 9, 36, 36, 36, 40, 15, 28, 41, 16, 41, 25, 20, 26, 41, 23, 18, 0, 36, 30, 8, 16, 20, 13, 17, 42, 15, 9, 36, 43, 8, 29, 30, 27, 3, 30, 28, 39, 9, 42, 22, 23, 20, 21, 8, 19, 29, 26, 9, 48
            |33, 38, 14, 8, 15, 19, 25, 24, 28, 14, 9, 43, 35, 14, 12, 35, 33, 37, 44, 17, 19, 21, 45, 30, 10, 5, 18, 35, 36, 0, 7, 35, 40, 15, 30, 39, 22, 22, 27, 24, 10, 36, 45, 18, 30, 38, 12, 51, 4, 34, 29, 22, 29, 28, 34, 28, 28, 9, 26, 27, 31
            |29, 32, 9, 10, 10, 13, 30, 18, 26, 14, 15, 40, 32, 18, 16, 36, 36, 34, 43, 22, 15, 26, 43, 29, 4, 11, 17, 28, 30, 7, 0, 31, 37, 10, 23, 36, 27, 18, 22, 27, 13, 30, 44, 20, 30, 33, 6, 49, 11, 30, 33, 16, 28, 26, 32, 24, 27, 10, 26, 22, 35
            |1, 24, 33, 30, 36, 18, 40, 30, 11, 43, 35, 10, 2, 32, 32, 29, 34, 7, 20, 36, 16, 36, 18, 13, 26, 40, 19, 25, 8, 35, 31, 0, 9, 20, 19, 10, 37, 13, 11, 30, 43, 16, 21, 25, 20, 9, 31, 22, 38, 1, 36, 26, 16, 13, 14, 7, 13, 27, 20, 8, 43
            |10, 32, 41, 34, 44, 26, 39, 38, 12, 50, 38, 4, 7, 34, 34, 25, 30, 3, 12, 37, 23, 36, 9, 11, 33, 44, 22, 34, 16, 40, 37, 9, 0, 27, 28, 2, 37, 19, 20, 29, 49, 24, 13, 26, 17, 17, 38, 13, 43, 8, 34, 35, 14, 13, 9, 15, 12, 31, 19, 17, 41
            |19, 25, 14, 13, 17, 4, 30, 17, 17, 23, 19, 30, 21, 19, 18, 31, 33, 24, 34, 24, 4, 26, 34, 20, 6, 20, 11, 23, 20, 15, 10, 20, 27, 0, 16, 26, 28, 8, 12, 25, 23, 21, 35, 17, 23, 23, 12, 39, 19, 20, 31, 13, 20, 18, 24, 13, 18, 10, 20, 12, 36
            |18, 9, 21, 29, 23, 12, 46, 12, 24, 32, 35, 29, 21, 35, 34, 43, 46, 26, 39, 40, 14, 42, 37, 28, 20, 34, 25, 7, 13, 30, 23, 19, 28, 16, 0, 29, 43, 17, 9, 39, 34, 8, 40, 32, 34, 15, 20, 41, 34, 20, 45, 10, 30, 27, 30, 14, 26, 26, 32, 13, 51
            |11, 34, 40, 32, 43, 26, 37, 39, 11, 50, 37, 6, 8, 32, 33, 22, 28, 3, 10, 36, 22, 34, 8, 9, 32, 43, 21, 35, 17, 39, 36, 10, 2, 26, 29, 0, 35, 19, 20, 27, 48, 25, 11, 25, 15, 18, 38, 13, 41, 9, 32, 35, 12, 12, 7, 16, 11, 30, 17, 17, 39
            |36, 52, 35, 17, 37, 32, 3, 43, 26, 36, 13, 41, 37, 9, 11, 19, 14, 35, 35, 5, 29, 1, 38, 26, 27, 23, 19, 50, 42, 22, 27, 37, 37, 28, 43, 35, 0, 28, 36, 8, 31, 47, 35, 12, 20, 45, 33, 44, 21, 36, 8, 40, 23, 24, 28, 34, 25, 18, 18, 34, 9
            |12, 25, 22, 17, 25, 8, 31, 22, 9, 31, 23, 22, 14, 21, 20, 27, 29, 16, 27, 26, 4, 26, 26, 13, 13, 27, 9, 24, 15, 22, 18, 13, 19, 8, 17, 19, 28, 0, 9, 23, 30, 19, 28, 16, 17, 18, 19, 32, 25, 13, 29, 18, 14, 11, 16, 7, 11, 14, 15, 6, 35
            |10, 16, 23, 24, 26, 9, 39, 18, 15, 34, 31, 21, 13, 29, 28, 34, 37, 17, 30, 34, 8, 35, 29, 19, 17, 32, 17, 16, 9, 27, 22, 11, 20, 12, 9, 20, 36, 9, 0, 31, 34, 10, 31, 24, 25, 11, 21, 33, 31, 12, 37, 15, 21, 17, 21, 5, 17, 21, 23, 4, 43
            |30, 47, 35, 17, 37, 28, 10, 41, 19, 38, 17, 33, 29, 11, 13, 11, 9, 27, 27, 11, 25, 8, 30, 18, 26, 27, 14, 46, 36, 24, 27, 30, 29, 25, 39, 27, 8, 23, 31, 0, 34, 41, 27, 8, 12, 38, 32, 35, 24, 29, 6, 38, 15, 17, 20, 28, 18, 17, 10, 28, 13
            |42, 42, 14, 18, 13, 26, 33, 25, 37, 6, 18, 52, 44, 24, 22, 45, 43, 46, 54, 26, 27, 30, 55, 40, 17, 8, 28, 38, 43, 10, 13, 43, 49, 23, 34, 48, 31, 30, 34, 34, 0, 42, 55, 29, 40, 46, 14, 61, 10, 43, 38, 25, 39, 38, 44, 36, 38, 19, 36, 35, 39
            |15, 8, 28, 34, 31, 17, 49, 20, 24, 40, 41, 24, 17, 39, 39, 43, 47, 23, 36, 44, 18, 45, 33, 27, 26, 41, 27, 10, 8, 36, 30, 16, 24, 21, 8, 25, 47, 19, 10, 41, 42, 0, 37, 35, 34, 8, 28, 36, 40, 17, 48, 18, 29, 26, 29, 13, 26, 31, 33, 13, 54
            |22, 45, 49, 37, 52, 35, 36, 49, 18, 57, 41, 14, 19, 35, 36, 18, 24, 14, 1, 37, 32, 35, 5, 15, 40, 49, 26, 46, 29, 45, 44, 21, 13, 35, 40, 11, 35, 28, 31, 27, 55, 37, 0, 28, 16, 29, 47, 9, 47, 20, 29, 45, 16, 17, 11, 26, 17, 35, 19, 27, 36
            |25, 40, 28, 11, 30, 21, 15, 34, 15, 32, 13, 30, 25, 8, 9, 16, 16, 24, 27, 11, 18, 11, 30, 16, 18, 22, 7, 39, 30, 18, 20, 25, 26, 17, 32, 25, 12, 16, 24, 8, 29, 35, 28, 0, 12, 33, 25, 35, 19, 24, 14, 30, 13, 13, 18, 22, 14, 10, 9, 21, 19
            |20, 41, 37, 22, 39, 25, 22, 39, 10, 43, 25, 21, 19, 19, 21, 9, 14, 16, 15, 22, 21, 19, 18, 7, 27, 33, 12, 41, 27, 30, 30, 20, 17, 23, 34, 15, 20, 17, 25, 12, 40, 34, 16, 12, 0, 29, 34, 24, 31, 19, 16, 35, 4, 7, 8, 20, 8, 21, 4, 21, 24
            |9, 16, 34, 35, 36, 20, 48, 27, 19, 45, 41, 16, 11, 39, 38, 38, 43, 16, 28, 43, 19, 44, 25, 22, 29, 44, 26, 19, 3, 38, 33, 9, 17, 23, 15, 18, 45, 18, 11, 38, 46, 8, 29, 33, 29, 0, 32, 28, 42, 11, 44, 24, 25, 22, 23, 11, 21, 32, 29, 12, 51
            |30, 28, 3, 16, 5, 13, 35, 13, 28, 13, 21, 41, 33, 24, 22, 41, 41, 36, 46, 28, 16, 31, 46, 32, 7, 16, 21, 24, 30, 12, 6, 31, 38, 12, 20, 38, 33, 19, 21, 32, 14, 28, 47, 25, 34, 32, 0, 51, 16, 31, 38, 11, 32, 29, 35, 24, 30, 15, 30, 23, 41
            |23, 44, 54, 44, 56, 39, 45, 51, 23, 62, 48, 12, 20, 43, 44, 27, 33, 16, 9, 45, 36, 43, 6, 21, 45, 55, 33, 46, 28, 51, 49, 22, 13, 39, 41, 13, 44, 32, 33, 35, 61, 36, 9, 35, 24, 28, 51, 0, 53, 21, 38, 48, 22, 23, 17, 28, 23, 42, 27, 30, 45
            |37, 42, 18, 9, 18, 23, 23, 28, 31, 15, 8, 46, 39, 14, 12, 35, 33, 40, 46, 16, 23, 20, 48, 33, 14, 2, 21, 39, 39, 4, 11, 38, 43, 19, 34, 41, 21, 25, 31, 24, 10, 40, 47, 19, 31, 42, 16, 53, 0, 37, 28, 26, 31, 30, 36, 32, 31, 12, 28, 31, 29
            |2, 25, 33, 29, 36, 18, 38, 30, 9, 43, 34, 10, 1, 31, 31, 28, 32, 6, 19, 35, 16, 35, 17, 11, 26, 39, 18, 26, 9, 34, 30, 1, 8, 20, 20, 9, 36, 13, 12, 29, 43, 17, 20, 24, 19, 11, 31, 21, 37, 0, 34, 26, 14, 12, 12, 7, 11, 26, 19, 9, 41
            |35, 54, 41, 22, 43, 35, 8, 47, 25, 43, 20, 38, 35, 15, 17, 12, 6, 32, 29, 13, 31, 9, 33, 23, 32, 30, 21, 53, 42, 29, 33, 36, 34, 31, 45, 32, 8, 29, 37, 6, 38, 48, 29, 14, 16, 44, 38, 38, 28, 34, 0, 44, 20, 22, 25, 34, 23, 23, 16, 34, 7
            |25, 17, 11, 24, 13, 10, 43, 4, 27, 22, 30, 36, 28, 31, 30, 44, 46, 32, 44, 36, 14, 39, 43, 31, 13, 27, 24, 13, 22, 22, 16, 26, 35, 13, 10, 35, 40, 18, 15, 38, 25, 18, 45, 30, 35, 24, 11, 48, 26, 26, 44, 0, 32, 29, 34, 19, 29, 22, 33, 18, 48
            |16, 37, 34, 22, 37, 22, 25, 36, 6, 42, 26, 18, 15, 21, 21, 14, 18, 12, 15, 24, 18, 22, 17, 3, 25, 33, 11, 37, 23, 29, 28, 16, 14, 20, 30, 12, 23, 14, 21, 15, 39, 29, 16, 13, 4, 25, 32, 22, 31, 14, 20, 32, 0, 3, 5, 16, 4, 20, 5, 17, 27
            |13, 34, 32, 21, 35, 19, 26, 33, 3, 40, 25, 17, 13, 21, 21, 17, 21, 11, 17, 24, 15, 23, 18, 3, 22, 32, 9, 34, 20, 28, 26, 13, 13, 18, 27, 12, 24, 11, 17, 17, 38, 26, 17, 13, 7, 22, 29, 23, 30, 12, 22, 29, 3, 0, 6, 13, 1, 18, 7, 13, 29
            |14, 36, 38, 27, 41, 25, 30, 38, 7, 46, 31, 13, 12, 26, 27, 16, 21, 8, 10, 29, 21, 27, 11, 4, 29, 38, 16, 37, 21, 34, 32, 14, 9, 24, 30, 7, 28, 16, 21, 20, 44, 29, 11, 18, 8, 23, 35, 17, 36, 12, 25, 34, 5, 6, 0, 16, 6, 25, 10, 17, 32
            |6, 21, 26, 24, 29, 11, 37, 23, 10, 36, 30, 17, 9, 28, 27, 30, 33, 13, 25, 32, 9, 33, 24, 14, 19, 33, 15, 21, 8, 28, 24, 7, 15, 13, 14, 16, 34, 7, 5, 28, 36, 13, 26, 22, 20, 11, 24, 28, 32, 7, 34, 19, 16, 13, 16, 0, 13, 21, 19, 1, 40
            |12, 33, 32, 22, 35, 19, 27, 33, 2, 40, 26, 16, 12, 22, 22, 17, 21, 10, 16, 25, 15, 24, 17, 2, 23, 33, 10, 33, 19, 28, 27, 13, 12, 18, 26, 11, 25, 11, 17, 18, 38, 26, 17, 14, 8, 21, 30, 23, 31, 11, 23, 29, 4, 1, 6, 13, 0, 19, 8, 13, 30
            |25, 35, 18, 3, 20, 15, 21, 25, 19, 22, 9, 34, 27, 9, 8, 26, 26, 28, 35, 14, 13, 17, 36, 21, 9, 14, 9, 33, 29, 9, 10, 27, 31, 10, 26, 30, 18, 14, 21, 17, 19, 31, 35, 10, 21, 32, 15, 42, 12, 26, 23, 22, 20, 18, 25, 21, 19, 0, 17, 20, 26
            |20, 39, 33, 19, 36, 23, 20, 36, 9, 39, 21, 23, 19, 16, 17, 11, 14, 17, 19, 19, 19, 17, 21, 8, 23, 30, 9, 39, 26, 26, 26, 20, 19, 20, 32, 17, 18, 15, 23, 10, 36, 33, 19, 9, 4, 29, 30, 27, 28, 19, 16, 33, 5, 7, 10, 19, 8, 17, 0, 19, 22
            |7, 20, 25, 23, 28, 10, 36, 22, 11, 35, 29, 19, 10, 27, 26, 30, 33, 14, 26, 32, 8, 32, 25, 15, 18, 32, 14, 20, 9, 27, 22, 8, 17, 12, 13, 17, 34, 6, 4, 28, 35, 13, 27, 21, 21, 12, 23, 30, 31, 9, 34, 18, 17, 13, 17, 1, 13, 20, 19, 0, 40
            |42, 59, 44, 25, 45, 40, 6, 52, 32, 44, 21, 45, 42, 17, 19, 18, 12, 39, 36, 13, 37, 10, 40, 30, 35, 31, 26, 58, 48, 31, 35, 43, 41, 36, 51, 39, 9, 35, 43, 13, 39, 54, 36, 19, 24, 51, 41, 45, 29, 41, 7, 48, 27, 29, 32, 40, 30, 26, 22, 40, 0|];