% n60w200.005    102.50 682
n = 61;
duration = [|0, 26, 36, 40, 12, 24, 37, 27, 29, 22, 28, 36, 33, 31, 26, 14, 26, 11, 14, 20, 20, 38, 30, 6, 15, 37, 26, 41, 36, 45, 2, 12, 11, 14, 21, 35, 15, 17, 33, 38, 21, 31, 11, 11, 21, 32, 9, 46, 38, 35, 14, 30, 28, 13, 8, 7, 16, 39, 28, 8, 13
            |26, 0, 37, 24, 29, 19, 38, 34, 5, 6, 18, 11, 30, 29, 28, 29, 38, 34, 30, 7, 38, 30, 49, 27, 25, 17, 13, 39, 26, 41, 26, 22, 15, 13, 25, 36, 18, 9, 7, 19, 5, 23, 26, 34, 21, 15, 31, 39, 40, 39, 24, 14, 45, 24, 18, 21, 20, 40, 40, 19, 20
            |36, 37, 0, 23, 48, 18, 1, 10, 42, 31, 19, 46, 7, 8, 10, 23, 16, 33, 24, 39, 25, 12, 28, 42, 48, 29, 24, 5, 16, 10, 34, 45, 33, 31, 15, 1, 45, 35, 38, 28, 35, 15, 46, 33, 18, 25, 45, 14, 3, 4, 22, 25, 25, 47, 35, 39, 46, 3, 15, 38, 44
            |40, 24, 23, 0, 48, 17, 24, 28, 28, 21, 12, 28, 17, 17, 22, 33, 35, 43, 35, 30, 41, 12, 48, 44, 46, 8, 14, 22, 8, 22, 39, 43, 30, 27, 24, 23, 40, 28, 21, 6, 26, 12, 46, 43, 20, 9, 48, 17, 26, 28, 29, 11, 44, 45, 35, 39, 42, 25, 35, 37, 41
            |12, 29, 48, 48, 0, 34, 49, 39, 30, 28, 37, 37, 44, 42, 38, 26, 38, 21, 26, 22, 31, 48, 41, 6, 6, 44, 34, 52, 45, 57, 14, 7, 18, 21, 33, 47, 11, 21, 36, 45, 24, 41, 3, 21, 32, 40, 5, 57, 50, 47, 26, 38, 39, 5, 14, 9, 11, 51, 40, 11, 9
            |24, 19, 18, 17, 34, 0, 19, 16, 24, 13, 5, 28, 12, 10, 9, 16, 21, 26, 18, 21, 25, 15, 33, 29, 33, 17, 7, 21, 12, 24, 22, 29, 16, 14, 8, 17, 28, 17, 21, 17, 17, 7, 31, 26, 3, 12, 33, 23, 21, 20, 12, 10, 30, 31, 20, 24, 29, 21, 22, 23, 28
            |37, 38, 1, 24, 49, 19, 0, 10, 43, 32, 20, 47, 8, 9, 11, 23, 16, 33, 25, 40, 25, 13, 28, 43, 49, 30, 25, 5, 17, 10, 35, 46, 34, 32, 16, 2, 46, 36, 39, 29, 36, 16, 47, 33, 19, 26, 46, 14, 2, 4, 23, 26, 25, 48, 36, 40, 47, 2, 15, 39, 45
            |27, 34, 10, 28, 39, 16, 10, 0, 39, 28, 19, 44, 11, 11, 6, 13, 7, 23, 15, 34, 15, 18, 20, 33, 41, 31, 23, 15, 20, 20, 25, 37, 26, 25, 9, 9, 38, 30, 37, 30, 31, 16, 38, 23, 14, 26, 36, 23, 11, 8, 14, 25, 17, 39, 28, 31, 39, 12, 7, 31, 37
            |29, 5, 42, 28, 30, 24, 43, 39, 0, 11, 23, 7, 35, 34, 34, 34, 43, 38, 35, 9, 43, 35, 54, 30, 25, 20, 18, 44, 30, 46, 29, 23, 18, 17, 30, 41, 19, 12, 8, 22, 9, 28, 27, 38, 26, 19, 33, 43, 45, 44, 29, 19, 50, 25, 21, 24, 20, 45, 45, 22, 21
            |22, 6, 31, 21, 28, 13, 32, 28, 11, 0, 13, 17, 24, 23, 22, 23, 32, 30, 25, 9, 33, 25, 43, 25, 25, 16, 8, 34, 21, 36, 22, 22, 11, 8, 19, 30, 19, 7, 11, 17, 5, 18, 25, 30, 14, 12, 29, 34, 34, 33, 18, 11, 39, 24, 15, 19, 20, 34, 34, 17, 20
            |28, 18, 19, 12, 37, 5, 20, 19, 23, 13, 0, 26, 12, 11, 13, 22, 25, 31, 24, 21, 30, 13, 38, 33, 35, 12, 5, 21, 8, 23, 27, 32, 19, 16, 13, 18, 30, 19, 18, 12, 18, 5, 35, 31, 8, 7, 37, 21, 22, 22, 17, 6, 34, 34, 23, 28, 32, 22, 26, 26, 30
            |36, 11, 46, 28, 37, 28, 47, 44, 7, 17, 26, 0, 38, 37, 38, 40, 49, 45, 41, 16, 49, 37, 59, 36, 31, 20, 22, 47, 32, 48, 36, 30, 25, 23, 35, 45, 25, 19, 8, 22, 16, 31, 34, 45, 30, 21, 40, 45, 49, 48, 35, 21, 56, 31, 28, 30, 26, 48, 50, 29, 28
            |33, 30, 7, 17, 44, 12, 8, 11, 35, 24, 12, 38, 0, 1, 7, 21, 19, 32, 23, 32, 26, 7, 32, 38, 44, 22, 17, 9, 9, 13, 31, 40, 27, 25, 12, 6, 39, 29, 30, 21, 29, 7, 42, 32, 12, 18, 42, 13, 10, 11, 19, 17, 28, 42, 31, 35, 41, 10, 18, 33, 39
            |31, 29, 8, 17, 42, 10, 9, 11, 34, 23, 11, 37, 1, 0, 6, 20, 18, 30, 22, 31, 25, 8, 31, 37, 42, 22, 16, 11, 9, 14, 29, 39, 26, 24, 10, 7, 38, 28, 30, 21, 28, 7, 40, 30, 11, 17, 41, 15, 11, 11, 17, 17, 28, 41, 29, 33, 39, 11, 18, 32, 37
            |26, 28, 10, 22, 38, 9, 11, 6, 34, 22, 13, 38, 7, 6, 0, 14, 13, 24, 16, 29, 19, 14, 26, 32, 38, 25, 17, 15, 15, 19, 24, 34, 22, 21, 5, 9, 35, 25, 30, 24, 26, 10, 36, 24, 8, 20, 35, 21, 13, 11, 12, 19, 22, 36, 25, 29, 36, 13, 13, 28, 34
            |14, 29, 23, 33, 26, 16, 23, 13, 34, 23, 22, 40, 21, 20, 14, 0, 12, 10, 2, 26, 9, 28, 20, 20, 29, 33, 22, 28, 27, 33, 12, 25, 17, 17, 10, 22, 27, 22, 34, 34, 25, 22, 25, 10, 13, 28, 23, 35, 25, 21, 5, 26, 17, 27, 17, 19, 28, 25, 14, 19, 25
            |26, 38, 16, 35, 38, 21, 16, 7, 43, 32, 25, 49, 19, 18, 13, 12, 0, 19, 13, 37, 9, 26, 13, 32, 41, 38, 28, 21, 27, 26, 24, 37, 28, 28, 14, 16, 39, 33, 42, 37, 35, 23, 37, 19, 19, 33, 34, 30, 17, 13, 15, 31, 9, 39, 29, 31, 40, 18, 2, 31, 37
            |11, 34, 33, 43, 21, 26, 33, 23, 38, 30, 31, 45, 32, 30, 24, 10, 19, 0, 9, 30, 11, 38, 20, 15, 25, 42, 31, 38, 37, 43, 9, 23, 20, 22, 20, 32, 26, 26, 40, 43, 29, 32, 21, 0, 23, 37, 16, 45, 34, 31, 14, 35, 18, 23, 18, 17, 27, 35, 21, 18, 23
            |14, 30, 24, 35, 26, 18, 25, 15, 35, 25, 24, 41, 23, 22, 16, 2, 13, 9, 0, 27, 8, 30, 19, 19, 28, 35, 24, 30, 29, 34, 11, 25, 17, 18, 12, 24, 27, 23, 35, 35, 26, 24, 25, 9, 15, 30, 22, 36, 26, 23, 7, 28, 16, 26, 17, 19, 28, 27, 15, 19, 25
            |20, 7, 39, 30, 22, 21, 40, 34, 9, 9, 21, 16, 32, 31, 29, 26, 37, 30, 27, 0, 35, 34, 46, 21, 17, 23, 17, 42, 30, 44, 21, 15, 10, 9, 25, 38, 11, 4, 14, 25, 4, 26, 19, 30, 21, 21, 25, 43, 42, 40, 22, 19, 43, 17, 12, 15, 13, 42, 39, 13, 13
            |20, 38, 25, 41, 31, 25, 25, 15, 43, 33, 30, 49, 26, 25, 19, 9, 9, 11, 8, 35, 0, 33, 11, 25, 35, 42, 31, 30, 34, 35, 18, 32, 25, 26, 17, 25, 35, 31, 43, 42, 34, 29, 31, 11, 21, 36, 27, 38, 26, 22, 14, 34, 8, 33, 25, 26, 35, 27, 11, 26, 32
            |38, 30, 12, 12, 48, 15, 13, 18, 35, 25, 13, 37, 7, 8, 14, 28, 26, 38, 30, 34, 33, 0, 39, 43, 47, 18, 17, 11, 5, 11, 36, 44, 31, 28, 18, 11, 43, 31, 29, 17, 30, 8, 46, 38, 17, 16, 47, 9, 14, 16, 25, 16, 35, 46, 35, 39, 44, 14, 25, 38, 42
            |30, 49, 28, 48, 41, 33, 28, 20, 54, 43, 38, 59, 32, 31, 26, 20, 13, 20, 19, 46, 11, 39, 0, 35, 45, 50, 40, 33, 40, 38, 28, 42, 36, 37, 26, 28, 45, 42, 53, 50, 44, 36, 41, 20, 30, 45, 36, 42, 28, 24, 24, 43, 4, 43, 36, 37, 46, 29, 13, 37, 43
            |6, 27, 42, 44, 6, 29, 43, 33, 30, 25, 33, 36, 38, 37, 32, 20, 32, 15, 19, 21, 25, 43, 35, 0, 10, 40, 30, 47, 41, 51, 8, 9, 14, 17, 27, 41, 13, 19, 34, 42, 22, 36, 6, 15, 27, 36, 4, 51, 44, 41, 20, 34, 33, 9, 10, 6, 13, 45, 34, 8, 10
            |15, 25, 48, 46, 6, 33, 49, 41, 25, 25, 35, 31, 44, 42, 38, 29, 41, 25, 28, 17, 35, 47, 45, 10, 0, 40, 32, 53, 44, 56, 17, 4, 16, 19, 33, 48, 6, 18, 31, 42, 20, 40, 4, 25, 31, 37, 11, 56, 51, 48, 27, 35, 43, 2, 13, 9, 5, 51, 43, 10, 5
            |37, 17, 29, 8, 44, 17, 30, 31, 20, 16, 12, 20, 22, 22, 25, 33, 38, 42, 35, 23, 42, 18, 50, 40, 40, 0, 11, 29, 14, 29, 36, 37, 26, 23, 25, 28, 34, 22, 13, 2, 20, 15, 41, 42, 20, 5, 45, 25, 32, 33, 28, 7, 47, 40, 30, 35, 36, 31, 38, 33, 35
            |26, 13, 24, 14, 34, 7, 25, 23, 18, 8, 5, 22, 17, 16, 17, 22, 28, 31, 24, 17, 31, 17, 40, 30, 32, 11, 0, 26, 13, 28, 25, 28, 16, 13, 15, 23, 26, 14, 14, 12, 13, 10, 31, 31, 10, 6, 34, 26, 27, 27, 17, 4, 37, 31, 20, 25, 28, 27, 29, 23, 27
            |41, 39, 5, 22, 52, 21, 5, 15, 44, 34, 21, 47, 9, 11, 15, 28, 21, 38, 30, 42, 30, 11, 33, 47, 53, 29, 26, 0, 16, 5, 39, 49, 37, 34, 20, 6, 49, 38, 39, 28, 38, 16, 51, 38, 21, 26, 50, 9, 5, 9, 27, 26, 30, 51, 40, 44, 50, 4, 20, 42, 48
            |36, 26, 16, 8, 45, 12, 17, 20, 30, 21, 8, 32, 9, 9, 15, 27, 27, 37, 29, 30, 34, 5, 40, 41, 44, 14, 13, 16, 0, 16, 34, 40, 28, 25, 17, 15, 39, 27, 24, 12, 26, 5, 43, 37, 15, 11, 45, 13, 18, 20, 23, 11, 37, 43, 32, 36, 40, 18, 27, 34, 39
            |45, 41, 10, 22, 57, 24, 10, 20, 46, 36, 23, 48, 13, 14, 19, 33, 26, 43, 34, 44, 35, 11, 38, 51, 56, 29, 28, 5, 16, 0, 43, 53, 40, 38, 24, 11, 52, 41, 40, 27, 41, 18, 55, 43, 25, 27, 55, 6, 10, 14, 31, 27, 35, 55, 43, 48, 54, 9, 25, 46, 52
            |2, 26, 34, 39, 14, 22, 35, 25, 29, 22, 27, 36, 31, 29, 24, 12, 24, 9, 11, 21, 18, 36, 28, 8, 17, 36, 25, 39, 34, 43, 0, 14, 11, 14, 19, 33, 17, 17, 32, 37, 21, 29, 13, 9, 20, 31, 11, 44, 36, 33, 12, 29, 26, 15, 8, 8, 17, 37, 26, 9, 14
            |12, 22, 45, 43, 7, 29, 46, 37, 23, 22, 32, 30, 40, 39, 34, 25, 37, 23, 25, 15, 32, 44, 42, 9, 4, 37, 28, 49, 40, 53, 14, 0, 13, 16, 30, 44, 4, 15, 29, 39, 17, 36, 4, 23, 28, 34, 11, 52, 47, 45, 23, 32, 40, 2, 9, 6, 4, 48, 40, 7, 2
            |11, 15, 33, 30, 18, 16, 34, 26, 18, 11, 19, 25, 27, 26, 22, 17, 28, 20, 17, 10, 25, 31, 36, 14, 16, 26, 16, 37, 28, 40, 11, 13, 0, 3, 18, 32, 12, 6, 21, 28, 9, 23, 15, 20, 15, 22, 18, 40, 35, 33, 13, 20, 33, 15, 4, 9, 13, 36, 30, 7, 11
            |14, 13, 31, 27, 21, 14, 32, 25, 17, 8, 16, 23, 25, 24, 21, 17, 28, 22, 18, 9, 26, 28, 37, 17, 19, 23, 13, 34, 25, 38, 14, 16, 3, 0, 16, 30, 14, 5, 19, 25, 8, 21, 18, 22, 13, 19, 21, 37, 34, 32, 13, 17, 34, 18, 7, 12, 16, 34, 29, 10, 14
            |21, 25, 15, 24, 33, 8, 16, 9, 30, 19, 13, 35, 12, 10, 5, 10, 14, 20, 12, 25, 17, 18, 26, 27, 33, 25, 15, 20, 17, 24, 19, 30, 18, 16, 0, 14, 30, 21, 28, 25, 22, 12, 31, 20, 5, 19, 30, 25, 18, 16, 7, 18, 22, 31, 20, 24, 31, 18, 15, 23, 29
            |35, 36, 1, 23, 47, 17, 2, 9, 41, 30, 18, 45, 6, 7, 9, 22, 16, 32, 24, 38, 25, 11, 28, 41, 48, 28, 23, 6, 15, 11, 33, 44, 32, 30, 14, 0, 44, 34, 37, 27, 34, 14, 45, 32, 17, 24, 45, 14, 4, 5, 21, 24, 25, 46, 34, 38, 45, 4, 15, 37, 43
            |15, 18, 45, 40, 11, 28, 46, 38, 19, 19, 30, 25, 39, 38, 35, 27, 39, 26, 27, 11, 35, 43, 45, 13, 6, 34, 26, 49, 39, 52, 17, 4, 12, 14, 30, 44, 0, 12, 25, 36, 14, 35, 9, 26, 27, 31, 15, 51, 48, 45, 24, 29, 43, 6, 10, 9, 1, 48, 41, 8, 3
            |17, 9, 35, 28, 21, 17, 36, 30, 12, 7, 19, 19, 29, 28, 25, 22, 33, 26, 23, 4, 31, 31, 42, 19, 18, 22, 14, 38, 27, 41, 17, 15, 6, 5, 21, 34, 12, 0, 15, 24, 3, 23, 18, 26, 17, 19, 23, 40, 38, 36, 18, 17, 39, 17, 9, 13, 14, 38, 35, 11, 13
            |33, 7, 38, 21, 36, 21, 39, 37, 8, 11, 18, 8, 30, 30, 30, 34, 42, 40, 35, 14, 43, 29, 53, 34, 31, 13, 14, 39, 24, 40, 32, 29, 21, 19, 28, 37, 25, 15, 0, 15, 12, 23, 33, 40, 23, 13, 38, 37, 41, 41, 29, 13, 50, 31, 25, 28, 26, 40, 43, 26, 27
            |38, 19, 28, 6, 45, 17, 29, 30, 22, 17, 12, 22, 21, 21, 24, 34, 37, 43, 35, 25, 42, 17, 50, 42, 42, 2, 12, 28, 12, 27, 37, 39, 28, 25, 25, 27, 36, 24, 15, 0, 22, 14, 42, 43, 20, 6, 46, 23, 30, 32, 29, 8, 46, 41, 32, 36, 38, 30, 38, 34, 37
            |21, 5, 35, 26, 24, 17, 36, 31, 9, 5, 18, 16, 29, 28, 26, 25, 35, 29, 26, 4, 34, 30, 44, 22, 20, 20, 13, 38, 26, 41, 21, 17, 9, 8, 22, 34, 14, 3, 12, 22, 0, 23, 21, 29, 18, 17, 26, 39, 38, 37, 20, 16, 41, 20, 13, 16, 16, 38, 36, 14, 16
            |31, 23, 15, 12, 41, 7, 16, 16, 28, 18, 5, 31, 7, 7, 10, 22, 23, 32, 24, 26, 29, 8, 36, 36, 40, 15, 10, 16, 5, 18, 29, 36, 23, 21, 12, 14, 35, 23, 23, 14, 23, 0, 38, 32, 9, 11, 40, 16, 17, 18, 18, 10, 33, 38, 27, 31, 36, 17, 24, 30, 35
            |11, 26, 46, 46, 3, 31, 47, 38, 27, 25, 35, 34, 42, 40, 36, 25, 37, 21, 25, 19, 31, 46, 41, 6, 4, 41, 31, 51, 43, 55, 13, 4, 15, 18, 31, 45, 9, 18, 33, 42, 21, 38, 0, 21, 30, 37, 7, 54, 49, 46, 24, 35, 39, 3, 11, 7, 8, 49, 40, 9, 6
            |11, 34, 33, 43, 21, 26, 33, 23, 38, 30, 31, 45, 32, 30, 24, 10, 19, 0, 9, 30, 11, 38, 20, 15, 25, 42, 31, 38, 37, 43, 9, 23, 20, 22, 20, 32, 26, 26, 40, 43, 29, 32, 21, 0, 23, 37, 16, 45, 34, 31, 14, 35, 18, 23, 18, 17, 27, 35, 21, 18, 23
            |21, 21, 18, 20, 32, 3, 19, 14, 26, 14, 8, 30, 12, 11, 8, 13, 19, 23, 15, 21, 21, 17, 30, 27, 31, 20, 10, 21, 15, 25, 20, 28, 15, 13, 5, 17, 27, 17, 23, 20, 18, 9, 30, 23, 0, 15, 31, 25, 21, 19, 9, 13, 27, 30, 18, 23, 29, 21, 20, 21, 27
            |32, 15, 25, 9, 40, 12, 26, 26, 19, 12, 7, 21, 18, 17, 20, 28, 33, 37, 30, 21, 36, 16, 45, 36, 37, 5, 6, 26, 11, 27, 31, 34, 22, 19, 19, 24, 31, 19, 13, 6, 17, 11, 37, 37, 15, 0, 40, 24, 28, 29, 23, 2, 41, 36, 26, 30, 32, 28, 33, 28, 32
            |9, 31, 45, 48, 5, 33, 46, 36, 33, 29, 37, 40, 42, 41, 35, 23, 34, 16, 22, 25, 27, 47, 36, 4, 11, 45, 34, 50, 45, 55, 11, 11, 18, 21, 30, 45, 15, 23, 38, 46, 26, 40, 7, 16, 31, 40, 0, 55, 48, 44, 23, 38, 35, 10, 14, 10, 15, 48, 37, 12, 13
            |46, 39, 14, 17, 57, 23, 14, 23, 43, 34, 21, 45, 13, 15, 21, 35, 30, 45, 36, 43, 38, 9, 42, 51, 56, 25, 26, 9, 13, 6, 44, 52, 40, 37, 25, 14, 51, 40, 37, 23, 39, 16, 54, 45, 25, 24, 55, 0, 15, 18, 32, 24, 39, 54, 43, 47, 53, 14, 29, 46, 51
            |38, 40, 3, 26, 50, 21, 2, 11, 45, 34, 22, 49, 10, 11, 13, 25, 17, 34, 26, 42, 26, 14, 28, 44, 51, 32, 27, 5, 18, 10, 36, 47, 35, 34, 18, 4, 48, 38, 41, 30, 38, 17, 49, 34, 21, 28, 48, 15, 0, 4, 24, 28, 25, 49, 38, 42, 49, 1, 15, 41, 47
            |35, 39, 4, 28, 47, 20, 4, 8, 44, 33, 22, 48, 11, 11, 11, 21, 13, 31, 23, 40, 22, 16, 24, 41, 48, 33, 27, 9, 20, 14, 33, 45, 33, 32, 16, 5, 45, 36, 41, 32, 37, 18, 46, 31, 19, 29, 44, 18, 4, 0, 21, 28, 21, 47, 35, 39, 46, 5, 11, 38, 44
            |14, 24, 22, 29, 26, 12, 23, 14, 29, 18, 17, 35, 19, 17, 12, 5, 15, 14, 7, 22, 14, 25, 24, 20, 27, 28, 17, 27, 23, 31, 12, 23, 13, 13, 7, 21, 24, 18, 29, 29, 20, 18, 24, 14, 9, 23, 23, 32, 24, 21, 0, 21, 21, 25, 14, 17, 25, 25, 17, 17, 23
            |30, 14, 25, 11, 38, 10, 26, 25, 19, 11, 6, 21, 17, 17, 19, 26, 31, 35, 28, 19, 34, 16, 43, 34, 35, 7, 4, 26, 11, 27, 29, 32, 20, 17, 18, 24, 29, 17, 13, 8, 16, 10, 35, 35, 13, 2, 38, 24, 28, 28, 21, 0, 40, 34, 24, 28, 31, 27, 32, 27, 30
            |28, 45, 25, 44, 39, 30, 25, 17, 50, 39, 34, 56, 28, 28, 22, 17, 9, 18, 16, 43, 8, 35, 4, 33, 43, 47, 37, 30, 37, 35, 26, 40, 33, 34, 22, 25, 43, 39, 50, 46, 41, 33, 39, 18, 27, 41, 35, 39, 25, 21, 21, 40, 0, 41, 33, 34, 43, 26, 10, 35, 40
            |13, 24, 47, 45, 5, 31, 48, 39, 25, 24, 34, 31, 42, 41, 36, 27, 39, 23, 26, 17, 33, 46, 43, 9, 2, 40, 31, 51, 43, 55, 15, 2, 15, 18, 31, 46, 6, 17, 31, 41, 20, 38, 3, 23, 30, 36, 10, 54, 49, 47, 25, 34, 41, 0, 11, 8, 5, 50, 41, 9, 4
            |8, 18, 35, 35, 14, 20, 36, 28, 21, 15, 23, 28, 31, 29, 25, 17, 29, 18, 17, 12, 25, 35, 36, 10, 13, 30, 20, 40, 32, 43, 8, 9, 4, 7, 20, 34, 10, 9, 25, 32, 13, 27, 11, 18, 18, 26, 14, 43, 38, 35, 14, 24, 33, 11, 0, 4, 11, 38, 31, 3, 9
            |7, 21, 39, 39, 9, 24, 40, 31, 24, 19, 28, 30, 35, 33, 29, 19, 31, 17, 19, 15, 26, 39, 37, 6, 9, 35, 25, 44, 36, 48, 8, 6, 9, 12, 24, 38, 9, 13, 28, 36, 16, 31, 7, 17, 23, 30, 10, 47, 42, 39, 17, 28, 34, 8, 4, 0, 9, 42, 34, 2, 6
            |16, 20, 46, 42, 11, 29, 47, 39, 20, 20, 32, 26, 41, 39, 36, 28, 40, 27, 28, 13, 35, 44, 46, 13, 5, 36, 28, 50, 40, 54, 17, 4, 13, 16, 31, 45, 1, 14, 26, 38, 16, 36, 8, 27, 29, 32, 15, 53, 49, 46, 25, 31, 43, 5, 11, 9, 0, 49, 42, 9, 3
            |39, 40, 3, 25, 51, 21, 2, 12, 45, 34, 22, 48, 10, 11, 13, 25, 18, 35, 27, 42, 27, 14, 29, 45, 51, 31, 27, 4, 18, 9, 37, 48, 36, 34, 18, 4, 48, 38, 40, 30, 38, 17, 49, 35, 21, 28, 48, 14, 1, 5, 25, 27, 26, 50, 38, 42, 49, 0, 16, 41, 47
            |28, 40, 15, 35, 40, 22, 15, 7, 45, 34, 26, 50, 18, 18, 13, 14, 2, 21, 15, 39, 11, 25, 13, 34, 43, 38, 29, 20, 27, 25, 26, 40, 30, 29, 15, 15, 41, 35, 43, 38, 36, 24, 40, 21, 20, 33, 37, 29, 15, 11, 17, 32, 10, 41, 31, 34, 42, 16, 0, 33, 39
            |8, 19, 38, 37, 11, 23, 39, 31, 22, 17, 26, 29, 33, 32, 28, 19, 31, 18, 19, 13, 26, 38, 37, 8, 10, 33, 23, 42, 34, 46, 9, 7, 7, 10, 23, 37, 8, 11, 26, 34, 14, 30, 9, 18, 21, 28, 12, 46, 41, 38, 17, 27, 35, 9, 3, 2, 9, 41, 33, 0, 6
            |13, 20, 44, 41, 9, 28, 45, 37, 21, 20, 30, 28, 39, 37, 34, 25, 37, 23, 25, 13, 32, 42, 43, 10, 5, 35, 27, 48, 39, 52, 14, 2, 11, 14, 29, 43, 3, 13, 27, 37, 16, 35, 6, 23, 27, 32, 13, 51, 47, 44, 23, 30, 40, 4, 9, 6, 3, 47, 39, 6, 0|];