% n60w200.004    93.48 673
n = 61;
duration = [|0, 33, 20, 21, 30, 48, 10, 6, 39, 30, 4, 31, 7, 14, 17, 14, 24, 6, 14, 31, 45, 18, 48, 31, 13, 35, 38, 35, 34, 9, 26, 26, 27, 22, 32, 52, 43, 25, 36, 41, 30, 12, 38, 34, 25, 29, 38, 19, 32, 28, 43, 18, 43, 33, 27, 3, 44, 34, 12, 40, 17
            |33, 0, 34, 18, 11, 17, 33, 28, 21, 29, 29, 20, 38, 33, 39, 30, 17, 40, 26, 16, 32, 27, 16, 27, 21, 2, 11, 18, 11, 25, 26, 14, 32, 30, 37, 19, 12, 21, 11, 34, 35, 42, 15, 7, 30, 22, 7, 16, 21, 13, 12, 15, 11, 28, 33, 32, 22, 20, 21, 21, 35
            |20, 34, 0, 16, 25, 43, 10, 23, 28, 13, 18, 42, 17, 6, 9, 6, 35, 22, 30, 40, 29, 7, 43, 45, 25, 35, 32, 44, 41, 17, 41, 36, 8, 4, 12, 48, 46, 14, 30, 23, 10, 16, 45, 31, 8, 16, 41, 28, 20, 36, 38, 23, 45, 17, 8, 17, 33, 23, 22, 28, 4
            |21, 18, 16, 0, 10, 29, 16, 19, 18, 14, 17, 30, 24, 15, 22, 13, 23, 27, 23, 27, 25, 9, 29, 34, 17, 20, 18, 31, 26, 13, 31, 22, 15, 12, 20, 33, 31, 5, 16, 22, 18, 26, 30, 16, 12, 9, 25, 16, 11, 23, 23, 11, 29, 15, 16, 19, 23, 13, 14, 18, 17
            |30, 11, 25, 10, 0, 19, 26, 26, 12, 18, 26, 28, 33, 25, 31, 23, 23, 36, 28, 25, 22, 18, 19, 34, 22, 12, 8, 28, 22, 21, 33, 21, 21, 21, 26, 23, 23, 10, 6, 22, 24, 35, 26, 6, 19, 11, 18, 19, 10, 21, 13, 14, 21, 17, 22, 28, 15, 9, 20, 12, 27
            |48, 17, 43, 29, 19, 0, 45, 44, 18, 34, 44, 36, 52, 44, 50, 42, 34, 54, 43, 31, 27, 37, 1, 43, 38, 15, 11, 32, 26, 39, 43, 31, 38, 39, 41, 5, 18, 29, 13, 32, 40, 55, 28, 14, 37, 27, 18, 33, 24, 30, 6, 30, 15, 30, 39, 46, 14, 22, 37, 17, 45
            |10, 33, 10, 16, 26, 45, 0, 13, 33, 21, 9, 36, 8, 4, 8, 5, 29, 12, 22, 35, 37, 10, 45, 38, 18, 35, 34, 39, 37, 10, 33, 30, 17, 12, 22, 49, 44, 18, 32, 32, 20, 9, 41, 32, 16, 22, 39, 22, 25, 31, 40, 19, 43, 25, 18, 7, 38, 28, 15, 34, 7
            |6, 28, 23, 19, 26, 44, 13, 0, 37, 30, 4, 25, 13, 17, 21, 16, 18, 13, 8, 25, 44, 19, 43, 25, 7, 30, 34, 28, 28, 6, 20, 20, 28, 23, 33, 47, 38, 24, 32, 40, 31, 18, 31, 30, 26, 28, 33, 13, 30, 21, 38, 13, 37, 33, 29, 7, 41, 32, 7, 37, 20
            |39, 21, 28, 18, 12, 18, 33, 37, 0, 16, 35, 40, 41, 30, 36, 29, 35, 44, 40, 36, 11, 23, 19, 46, 34, 21, 11, 39, 33, 31, 45, 33, 21, 24, 24, 23, 30, 15, 10, 14, 22, 42, 36, 14, 21, 12, 27, 31, 8, 33, 15, 26, 28, 13, 22, 37, 6, 5, 31, 1, 31
            |30, 29, 13, 14, 18, 34, 21, 30, 16, 0, 27, 43, 29, 17, 21, 16, 37, 33, 36, 40, 16, 11, 34, 48, 30, 30, 24, 44, 39, 24, 45, 36, 5, 9, 8, 39, 41, 9, 21, 11, 6, 28, 43, 24, 5, 7, 36, 30, 9, 36, 29, 24, 39, 4, 6, 27, 22, 12, 26, 17, 16
            |4, 29, 18, 17, 26, 44, 9, 4, 35, 27, 0, 28, 10, 13, 17, 12, 21, 11, 13, 28, 41, 15, 44, 29, 10, 31, 33, 32, 31, 4, 25, 23, 24, 19, 29, 47, 39, 21, 31, 37, 27, 14, 34, 30, 22, 25, 34, 15, 28, 24, 38, 14, 39, 30, 25, 3, 40, 30, 8, 35, 16
            |31, 20, 42, 30, 28, 36, 36, 25, 40, 43, 28, 0, 38, 38, 44, 36, 7, 37, 17, 4, 50, 36, 34, 7, 18, 21, 30, 5, 10, 26, 9, 7, 44, 40, 50, 36, 20, 34, 31, 50, 47, 42, 10, 26, 42, 37, 18, 14, 38, 7, 31, 19, 22, 44, 45, 31, 41, 37, 21, 39, 41
            |7, 38, 17, 24, 33, 52, 8, 13, 41, 29, 10, 38, 0, 12, 11, 13, 31, 4, 21, 38, 45, 18, 52, 38, 20, 40, 41, 41, 41, 14, 33, 33, 25, 20, 29, 56, 49, 26, 39, 40, 28, 5, 44, 38, 24, 30, 44, 25, 33, 34, 46, 24, 49, 33, 25, 7, 46, 36, 18, 41, 14
            |14, 33, 6, 15, 25, 44, 4, 17, 30, 17, 13, 38, 12, 0, 7, 2, 31, 16, 25, 37, 33, 7, 44, 41, 21, 34, 33, 41, 38, 13, 36, 32, 13, 8, 17, 48, 45, 16, 30, 28, 16, 12, 42, 31, 12, 19, 39, 24, 22, 33, 38, 20, 43, 21, 13, 11, 36, 25, 17, 31, 3
            |17, 39, 9, 22, 31, 50, 8, 21, 36, 21, 17, 44, 11, 7, 0, 9, 37, 16, 29, 43, 38, 13, 50, 46, 26, 41, 39, 47, 45, 18, 41, 38, 16, 13, 19, 55, 51, 22, 37, 32, 18, 8, 49, 37, 16, 24, 46, 30, 28, 39, 45, 26, 50, 26, 16, 14, 42, 31, 23, 37, 5
            |14, 30, 6, 13, 23, 42, 5, 16, 29, 16, 12, 36, 13, 2, 9, 0, 29, 17, 24, 35, 32, 5, 42, 39, 19, 32, 30, 39, 36, 11, 35, 30, 13, 7, 17, 46, 42, 14, 28, 27, 16, 13, 40, 29, 11, 17, 37, 22, 21, 31, 36, 18, 41, 20, 13, 11, 34, 23, 16, 29, 5
            |24, 17, 35, 23, 23, 34, 29, 18, 35, 37, 21, 7, 31, 31, 37, 29, 0, 30, 12, 7, 45, 29, 33, 11, 11, 19, 27, 10, 11, 19, 9, 3, 37, 33, 43, 36, 22, 28, 27, 45, 41, 36, 14, 23, 35, 31, 18, 7, 32, 4, 29, 13, 23, 38, 38, 25, 37, 32, 14, 35, 34
            |6, 40, 22, 27, 36, 54, 12, 13, 44, 33, 11, 37, 4, 16, 16, 17, 30, 0, 19, 37, 49, 22, 54, 36, 20, 42, 43, 41, 41, 15, 31, 33, 29, 24, 34, 58, 50, 30, 42, 44, 32, 9, 44, 40, 28, 33, 45, 25, 37, 34, 49, 25, 50, 37, 30, 8, 49, 39, 18, 45, 18
            |14, 26, 30, 23, 28, 43, 22, 8, 40, 36, 13, 17, 21, 25, 29, 24, 12, 19, 0, 19, 48, 25, 42, 17, 6, 28, 34, 22, 23, 13, 12, 15, 35, 30, 40, 46, 34, 28, 33, 46, 38, 26, 26, 30, 33, 32, 29, 10, 34, 16, 38, 14, 34, 38, 35, 15, 43, 35, 9, 40, 28
            |31, 16, 40, 27, 25, 31, 35, 25, 36, 40, 28, 4, 38, 37, 43, 35, 7, 37, 19, 0, 47, 34, 30, 11, 18, 17, 26, 4, 6, 25, 12, 5, 41, 38, 47, 32, 17, 31, 27, 47, 45, 42, 7, 22, 39, 34, 14, 13, 34, 4, 27, 17, 18, 40, 42, 31, 37, 34, 20, 36, 40
            |45, 32, 29, 25, 22, 27, 37, 44, 11, 16, 41, 50, 45, 33, 38, 32, 45, 49, 48, 47, 0, 27, 28, 56, 42, 32, 22, 50, 43, 38, 54, 43, 21, 25, 21, 32, 41, 20, 21, 7, 21, 45, 47, 25, 22, 16, 38, 40, 14, 43, 25, 34, 38, 12, 22, 42, 13, 13, 39, 12, 33
            |18, 27, 7, 9, 18, 37, 10, 19, 23, 11, 15, 36, 18, 7, 13, 5, 29, 22, 25, 34, 27, 0, 37, 39, 20, 28, 26, 38, 34, 13, 36, 29, 9, 4, 15, 41, 39, 9, 23, 22, 13, 19, 38, 24, 7, 12, 34, 22, 15, 30, 31, 16, 38, 15, 10, 15, 29, 18, 16, 24, 9
            |48, 16, 43, 29, 19, 1, 45, 43, 19, 34, 44, 34, 52, 44, 50, 42, 33, 54, 42, 30, 28, 37, 0, 41, 37, 14, 11, 31, 25, 39, 42, 30, 38, 39, 42, 4, 17, 29, 14, 33, 40, 54, 27, 14, 37, 28, 16, 32, 25, 29, 6, 30, 14, 31, 39, 46, 15, 22, 37, 18, 46
            |31, 27, 45, 34, 34, 43, 38, 25, 46, 48, 29, 7, 38, 41, 46, 39, 11, 36, 17, 11, 56, 39, 41, 0, 20, 28, 37, 11, 17, 28, 5, 13, 48, 44, 54, 43, 27, 39, 37, 56, 52, 43, 16, 33, 46, 42, 25, 18, 43, 13, 38, 24, 29, 49, 49, 32, 48, 43, 23, 46, 44
            |13, 21, 25, 17, 22, 38, 18, 7, 34, 30, 10, 18, 20, 21, 26, 19, 11, 20, 6, 18, 42, 20, 37, 20, 0, 24, 28, 22, 21, 8, 16, 13, 29, 24, 35, 41, 30, 22, 27, 39, 33, 25, 24, 25, 27, 26, 25, 6, 28, 14, 32, 8, 30, 32, 30, 13, 37, 29, 4, 33, 24
            |35, 2, 35, 20, 12, 15, 35, 30, 21, 30, 31, 21, 40, 34, 41, 32, 19, 42, 28, 17, 32, 28, 14, 28, 24, 0, 10, 19, 12, 27, 28, 16, 33, 32, 38, 17, 11, 22, 11, 34, 36, 44, 16, 7, 31, 23, 6, 18, 22, 15, 10, 17, 9, 29, 34, 34, 21, 20, 24, 20, 37
            |38, 11, 32, 18, 8, 11, 34, 34, 11, 24, 33, 30, 41, 33, 39, 30, 27, 43, 34, 26, 22, 26, 11, 37, 28, 10, 0, 29, 22, 29, 36, 24, 28, 28, 32, 16, 19, 17, 2, 25, 30, 43, 25, 4, 26, 17, 16, 24, 14, 24, 6, 20, 17, 21, 28, 35, 11, 12, 27, 10, 34
            |35, 18, 44, 31, 28, 32, 39, 28, 39, 44, 32, 5, 41, 41, 47, 39, 10, 41, 22, 4, 50, 38, 31, 11, 22, 19, 29, 0, 7, 29, 14, 9, 45, 42, 51, 32, 16, 35, 29, 50, 49, 46, 5, 25, 43, 38, 15, 17, 37, 8, 29, 21, 18, 44, 46, 35, 39, 37, 24, 38, 44
            |34, 11, 41, 26, 22, 26, 37, 28, 33, 39, 31, 10, 41, 38, 45, 36, 11, 41, 23, 6, 43, 34, 25, 17, 21, 12, 22, 7, 0, 28, 18, 8, 41, 38, 46, 26, 11, 30, 23, 44, 44, 45, 4, 18, 39, 32, 8, 16, 32, 7, 22, 18, 12, 38, 42, 34, 33, 31, 23, 32, 41
            |9, 25, 17, 13, 21, 39, 10, 6, 31, 24, 4, 26, 14, 13, 18, 11, 19, 15, 13, 25, 38, 13, 39, 28, 8, 27, 29, 29, 28, 0, 24, 20, 22, 17, 28, 43, 36, 17, 27, 34, 25, 17, 31, 26, 20, 21, 30, 12, 24, 21, 34, 10, 35, 27, 23, 7, 36, 26, 5, 31, 16
            |26, 26, 41, 31, 33, 43, 33, 20, 45, 45, 25, 9, 33, 36, 41, 35, 9, 31, 12, 12, 54, 36, 42, 5, 16, 28, 36, 14, 18, 24, 0, 12, 44, 40, 50, 44, 29, 36, 36, 53, 48, 38, 19, 32, 42, 40, 26, 15, 41, 13, 38, 21, 31, 46, 45, 27, 47, 41, 19, 44, 40
            |26, 14, 36, 22, 21, 31, 30, 20, 33, 36, 23, 7, 33, 32, 38, 30, 3, 33, 15, 5, 43, 29, 30, 13, 13, 16, 24, 9, 8, 20, 12, 0, 37, 33, 43, 32, 19, 27, 24, 43, 40, 37, 11, 20, 35, 30, 15, 8, 30, 1, 26, 12, 20, 36, 38, 26, 35, 30, 15, 33, 35
            |27, 32, 8, 15, 21, 38, 17, 28, 21, 5, 24, 44, 25, 13, 16, 13, 37, 29, 35, 41, 21, 9, 38, 48, 29, 33, 28, 45, 41, 22, 44, 37, 0, 5, 6, 43, 44, 11, 25, 15, 4, 24, 45, 27, 2, 11, 39, 30, 14, 37, 33, 25, 42, 9, 1, 24, 27, 17, 25, 22, 12
            |22, 30, 4, 12, 21, 39, 12, 23, 24, 9, 19, 40, 20, 8, 13, 7, 33, 24, 30, 38, 25, 4, 39, 44, 24, 32, 28, 42, 38, 17, 40, 33, 5, 0, 11, 44, 43, 10, 26, 20, 9, 19, 42, 27, 4, 12, 37, 26, 16, 34, 34, 21, 41, 13, 6, 18, 29, 18, 21, 24, 8
            |32, 37, 12, 20, 26, 41, 22, 33, 24, 8, 29, 50, 29, 17, 19, 17, 43, 34, 40, 47, 21, 15, 42, 54, 35, 38, 32, 51, 46, 28, 50, 43, 6, 11, 0, 46, 49, 16, 29, 14, 2, 27, 50, 32, 8, 15, 44, 36, 17, 43, 37, 30, 47, 11, 5, 29, 29, 20, 31, 25, 16
            |52, 19, 48, 33, 23, 5, 49, 47, 23, 39, 47, 36, 56, 48, 55, 46, 36, 58, 46, 32, 32, 41, 4, 43, 41, 17, 16, 32, 26, 43, 44, 32, 43, 44, 46, 0, 17, 33, 18, 37, 45, 59, 27, 18, 42, 32, 18, 35, 29, 31, 10, 34, 14, 35, 44, 50, 19, 27, 40, 22, 50
            |43, 12, 46, 31, 23, 18, 44, 38, 30, 41, 39, 20, 49, 45, 51, 42, 22, 50, 34, 17, 41, 39, 17, 27, 30, 11, 19, 16, 11, 36, 29, 19, 44, 43, 49, 17, 0, 33, 21, 44, 47, 53, 11, 17, 42, 34, 5, 25, 32, 17, 16, 26, 3, 39, 45, 42, 29, 31, 31, 30, 47
            |25, 21, 14, 5, 10, 29, 18, 24, 15, 9, 21, 34, 26, 16, 22, 14, 28, 30, 28, 31, 20, 9, 29, 39, 22, 22, 17, 35, 30, 17, 36, 27, 11, 10, 16, 33, 33, 0, 15, 17, 14, 27, 34, 17, 9, 4, 28, 21, 7, 27, 23, 16, 31, 10, 12, 22, 20, 9, 19, 15, 17
            |36, 11, 30, 16, 6, 13, 32, 32, 10, 21, 31, 31, 39, 30, 37, 28, 27, 42, 33, 27, 21, 23, 14, 37, 27, 11, 2, 29, 23, 27, 36, 24, 25, 26, 29, 18, 21, 15, 0, 23, 28, 41, 26, 4, 24, 15, 17, 23, 12, 24, 8, 19, 18, 19, 26, 34, 11, 10, 25, 9, 32
            |41, 34, 23, 22, 22, 32, 32, 40, 14, 11, 37, 50, 40, 28, 32, 27, 45, 44, 46, 47, 7, 22, 33, 56, 39, 34, 25, 50, 44, 34, 53, 43, 15, 20, 14, 37, 44, 17, 23, 0, 14, 39, 48, 27, 16, 14, 40, 38, 13, 43, 29, 33, 41, 8, 15, 38, 18, 13, 36, 15, 27
            |30, 35, 10, 18, 24, 40, 20, 31, 22, 6, 27, 47, 28, 16, 18, 16, 41, 32, 38, 45, 21, 13, 40, 52, 33, 36, 30, 49, 44, 25, 48, 40, 4, 9, 2, 45, 47, 14, 28, 14, 0, 26, 48, 30, 6, 13, 42, 34, 16, 41, 35, 28, 45, 10, 3, 27, 28, 18, 29, 23, 14
            |12, 42, 16, 26, 35, 55, 9, 18, 42, 28, 14, 42, 5, 12, 8, 13, 36, 9, 26, 42, 45, 19, 54, 43, 25, 44, 43, 46, 45, 17, 38, 37, 24, 19, 27, 59, 53, 27, 41, 39, 26, 0, 48, 41, 23, 30, 48, 29, 34, 39, 49, 27, 52, 33, 24, 11, 47, 37, 22, 42, 12
            |38, 15, 45, 30, 26, 28, 41, 31, 36, 43, 34, 10, 44, 42, 49, 40, 14, 44, 26, 7, 47, 38, 27, 16, 24, 16, 25, 5, 4, 31, 19, 11, 45, 42, 50, 27, 11, 34, 26, 48, 48, 48, 0, 22, 43, 36, 10, 19, 36, 10, 25, 22, 13, 43, 46, 37, 36, 35, 26, 35, 45
            |34, 7, 31, 16, 6, 14, 32, 30, 14, 24, 30, 26, 38, 31, 37, 29, 23, 40, 30, 22, 25, 24, 14, 33, 25, 7, 4, 25, 18, 26, 32, 20, 27, 27, 32, 18, 17, 17, 4, 27, 30, 41, 22, 0, 26, 17, 13, 20, 15, 20, 8, 17, 15, 22, 28, 32, 15, 14, 23, 13, 33
            |25, 30, 8, 12, 19, 37, 16, 26, 21, 5, 22, 42, 24, 12, 16, 11, 35, 28, 33, 39, 22, 7, 37, 46, 27, 31, 26, 43, 39, 20, 42, 35, 2, 4, 8, 42, 42, 9, 24, 16, 6, 23, 43, 26, 0, 9, 37, 28, 13, 35, 32, 22, 40, 9, 3, 22, 26, 16, 23, 21, 11
            |29, 22, 16, 9, 11, 27, 22, 28, 12, 7, 25, 37, 30, 19, 24, 17, 31, 33, 32, 34, 16, 12, 28, 42, 26, 23, 17, 38, 32, 21, 40, 30, 11, 12, 15, 32, 34, 4, 15, 14, 13, 30, 36, 17, 9, 0, 29, 25, 4, 30, 22, 19, 32, 6, 12, 26, 17, 6, 23, 12, 19
            |38, 7, 41, 25, 18, 18, 39, 33, 27, 36, 34, 18, 44, 39, 46, 37, 18, 45, 29, 14, 38, 34, 16, 25, 25, 6, 16, 15, 8, 30, 26, 15, 39, 37, 44, 18, 5, 28, 17, 40, 42, 48, 10, 13, 37, 29, 0, 20, 28, 14, 14, 20, 5, 35, 40, 37, 26, 27, 26, 26, 42
            |19, 16, 28, 16, 19, 33, 22, 13, 31, 30, 15, 14, 25, 24, 30, 22, 7, 25, 10, 13, 40, 22, 32, 18, 6, 18, 24, 17, 16, 12, 15, 8, 30, 26, 36, 35, 25, 21, 23, 38, 34, 29, 19, 20, 28, 25, 20, 0, 26, 9, 27, 6, 25, 31, 31, 18, 34, 27, 7, 30, 27
            |32, 21, 20, 11, 10, 24, 25, 30, 8, 9, 28, 38, 33, 22, 28, 21, 32, 37, 34, 34, 14, 15, 25, 43, 28, 22, 14, 37, 32, 24, 41, 30, 14, 16, 17, 29, 32, 7, 12, 13, 16, 34, 36, 15, 13, 4, 28, 26, 0, 30, 20, 21, 30, 7, 15, 29, 14, 3, 25, 9, 23
            |28, 13, 36, 23, 21, 30, 31, 21, 33, 36, 24, 7, 34, 33, 39, 31, 4, 34, 16, 4, 43, 30, 29, 13, 14, 15, 24, 8, 7, 21, 13, 1, 37, 34, 43, 31, 17, 27, 24, 43, 41, 39, 10, 20, 35, 30, 14, 9, 30, 0, 25, 13, 18, 37, 38, 28, 34, 30, 16, 32, 36
            |43, 12, 38, 23, 13, 6, 40, 38, 15, 29, 38, 31, 46, 38, 45, 36, 29, 49, 38, 27, 25, 31, 6, 38, 32, 10, 6, 29, 22, 34, 38, 26, 33, 34, 37, 10, 16, 23, 8, 29, 35, 49, 25, 8, 32, 22, 14, 27, 20, 25, 0, 25, 14, 26, 34, 40, 13, 17, 31, 14, 40
            |18, 15, 23, 11, 14, 30, 19, 13, 26, 24, 14, 19, 24, 20, 26, 18, 13, 25, 14, 17, 34, 16, 30, 24, 8, 17, 20, 21, 18, 10, 21, 12, 25, 21, 30, 34, 26, 16, 19, 33, 28, 27, 22, 17, 22, 19, 20, 6, 21, 13, 25, 0, 25, 25, 25, 17, 29, 22, 7, 25, 23
            |43, 11, 45, 29, 21, 15, 43, 37, 28, 39, 39, 22, 49, 43, 50, 41, 23, 50, 34, 18, 38, 38, 14, 29, 30, 9, 17, 18, 12, 35, 31, 20, 42, 41, 47, 14, 3, 31, 18, 41, 45, 52, 13, 15, 40, 32, 5, 25, 30, 18, 14, 25, 0, 37, 43, 42, 26, 28, 31, 27, 46
            |33, 28, 17, 15, 17, 30, 25, 33, 13, 4, 30, 44, 33, 21, 26, 20, 38, 37, 38, 40, 12, 15, 31, 49, 32, 29, 21, 44, 38, 27, 46, 36, 9, 13, 11, 35, 39, 10, 19, 8, 10, 33, 43, 22, 9, 6, 35, 31, 7, 37, 26, 25, 37, 0, 10, 30, 18, 9, 29, 13, 21
            |27, 33, 8, 16, 22, 39, 18, 29, 22, 6, 25, 45, 25, 13, 16, 13, 38, 30, 35, 42, 22, 10, 39, 49, 30, 34, 28, 46, 42, 23, 45, 38, 1, 6, 5, 44, 45, 12, 26, 15, 3, 24, 46, 28, 3, 12, 40, 31, 15, 38, 34, 25, 43, 10, 0, 24, 28, 17, 26, 23, 12
            |3, 32, 17, 19, 28, 46, 7, 7, 37, 27, 3, 31, 7, 11, 14, 11, 25, 8, 15, 31, 42, 15, 46, 32, 13, 34, 35, 35, 34, 7, 27, 26, 24, 18, 29, 50, 42, 22, 34, 38, 27, 11, 37, 32, 22, 26, 37, 18, 29, 28, 40, 17, 42, 30, 24, 0, 41, 31, 11, 37, 14
            |44, 22, 33, 23, 15, 14, 38, 41, 6, 22, 40, 41, 46, 36, 42, 34, 37, 49, 43, 37, 13, 29, 15, 48, 37, 21, 11, 39, 33, 36, 47, 35, 27, 29, 29, 19, 29, 20, 11, 18, 28, 47, 36, 15, 26, 17, 26, 34, 14, 34, 13, 29, 26, 18, 28, 41, 0, 11, 35, 5, 37
            |34, 20, 23, 13, 9, 22, 28, 32, 5, 12, 30, 37, 36, 25, 31, 23, 32, 39, 35, 34, 13, 18, 22, 43, 29, 20, 12, 37, 31, 26, 41, 30, 17, 18, 20, 27, 31, 9, 10, 13, 18, 37, 35, 14, 16, 6, 27, 27, 3, 30, 17, 22, 28, 9, 17, 31, 11, 0, 26, 6, 26
            |12, 21, 22, 14, 20, 37, 15, 7, 31, 26, 8, 21, 18, 17, 23, 16, 14, 18, 9, 20, 39, 16, 37, 23, 4, 24, 27, 24, 23, 5, 19, 15, 25, 21, 31, 40, 31, 19, 25, 36, 29, 22, 26, 23, 23, 23, 26, 7, 25, 16, 31, 7, 31, 29, 26, 11, 35, 26, 0, 31, 21
            |40, 21, 28, 18, 12, 17, 34, 37, 1, 17, 35, 39, 41, 31, 37, 29, 35, 45, 40, 36, 12, 24, 18, 46, 33, 20, 10, 38, 32, 31, 44, 33, 22, 24, 25, 22, 30, 15, 9, 15, 23, 42, 35, 13, 21, 12, 26, 30, 9, 32, 14, 25, 27, 13, 23, 37, 5, 6, 31, 0, 32
            |17, 35, 4, 17, 27, 45, 7, 20, 31, 16, 16, 41, 14, 3, 5, 5, 34, 18, 28, 40, 33, 9, 46, 44, 24, 37, 34, 44, 41, 16, 40, 35, 12, 8, 16, 50, 47, 17, 32, 27, 14, 12, 45, 33, 11, 19, 42, 27, 23, 36, 40, 23, 46, 21, 12, 14, 37, 26, 21, 32, 0|];
early = [0, 340, 116, 232, 54, 439, 181, 0, 43, 106, 0, 0, 256, 203, 269, 183, 0, 499, 0, 0, 45, 198, 292, 358, 0, 2, 58, 0, 28, 211, 0, 0, 94, 212, 180, 321, 29, 250, 82, 525, 140, 220, 1, 0, 163, 155, 61, 0, 127, 0, 363, 219, 381, 151, 167, 184, 99, 11, 328, 80, 465];
late = [802, 494, 344, 360, 218, 622, 391, 90, 239, 282, 134, 153, 457, 380, 451, 358, 90, 699, 80, 180, 336, 384, 531, 618, 110, 189, 300, 174, 172, 381, 149, 161, 376, 465, 395, 498, 200, 511, 275, 762, 319, 421, 185, 267, 374, 337, 218, 180, 281, 182, 539, 401, 539, 330, 357, 383, 234, 206, 470, 282, 650];