% n60w180.001    79.93 646
n = 61;
duration = [|0, 60, 35, 47, 14, 20, 32, 45, 6, 35, 32, 51, 4, 46, 21, 41, 66, 46, 27, 1, 45, 39, 24, 23, 53, 43, 48, 59, 48, 51, 56, 48, 44, 39, 50, 47, 50, 48, 27, 14, 55, 13, 22, 53, 36, 33, 32, 35, 55, 21, 47, 5, 50, 30, 49, 15, 50, 35, 18, 47, 41
            |60, 0, 27, 22, 48, 44, 36, 29, 54, 30, 28, 16, 57, 16, 47, 30, 6, 41, 38, 59, 43, 26, 39, 43, 21, 34, 42, 2, 22, 21, 7, 14, 18, 42, 25, 43, 20, 25, 38, 52, 10, 47, 41, 14, 28, 28, 28, 39, 7, 48, 16, 55, 11, 32, 36, 45, 26, 25, 45, 43, 33
            |35, 27, 0, 25, 25, 24, 11, 29, 30, 21, 6, 16, 32, 11, 21, 12, 32, 39, 23, 34, 40, 19, 20, 25, 30, 16, 41, 26, 14, 28, 21, 13, 9, 36, 17, 41, 16, 15, 11, 31, 26, 22, 14, 18, 18, 11, 10, 30, 24, 30, 12, 31, 16, 16, 38, 21, 31, 5, 24, 41, 29
            |47, 22, 25, 0, 33, 28, 36, 7, 41, 12, 21, 28, 46, 23, 42, 35, 28, 19, 21, 47, 21, 8, 23, 25, 6, 40, 21, 23, 32, 4, 24, 21, 23, 20, 35, 21, 31, 35, 34, 35, 12, 35, 35, 28, 11, 17, 18, 18, 15, 30, 24, 42, 21, 18, 15, 33, 6, 20, 30, 21, 11
            |14, 48, 25, 33, 0, 6, 26, 31, 8, 22, 20, 41, 13, 35, 20, 34, 53, 33, 13, 14, 33, 25, 10, 10, 39, 37, 36, 47, 39, 37, 44, 36, 33, 27, 42, 35, 41, 39, 20, 6, 42, 6, 17, 43, 22, 20, 19, 22, 42, 10, 36, 9, 39, 16, 36, 5, 36, 24, 4, 35, 27
            |20, 44, 24, 28, 6, 0, 28, 25, 13, 16, 18, 39, 19, 33, 24, 34, 50, 27, 7, 19, 27, 20, 5, 4, 34, 38, 30, 44, 38, 32, 41, 33, 31, 21, 41, 29, 39, 39, 22, 8, 37, 11, 19, 41, 17, 17, 16, 16, 38, 6, 34, 14, 36, 11, 30, 9, 31, 22, 2, 29, 21
            |32, 36, 11, 36, 26, 28, 0, 39, 29, 30, 15, 22, 28, 20, 13, 9, 40, 48, 29, 31, 49, 30, 26, 30, 41, 11, 50, 35, 18, 40, 30, 23, 18, 44, 19, 50, 20, 16, 6, 32, 37, 21, 10, 25, 27, 20, 19, 38, 34, 34, 20, 29, 25, 24, 48, 21, 42, 16, 27, 50, 39
            |45, 29, 29, 7, 31, 25, 39, 0, 38, 10, 24, 34, 44, 29, 43, 40, 35, 12, 18, 44, 14, 9, 21, 22, 11, 45, 14, 30, 37, 9, 31, 27, 28, 14, 41, 15, 37, 40, 35, 32, 19, 34, 36, 35, 12, 19, 20, 12, 22, 26, 30, 39, 28, 17, 9, 32, 6, 24, 27, 15, 5
            |6, 54, 30, 41, 8, 13, 29, 38, 0, 29, 26, 47, 6, 41, 20, 38, 60, 40, 21, 6, 39, 33, 17, 17, 47, 40, 42, 54, 44, 45, 51, 42, 39, 33, 46, 41, 46, 44, 23, 9, 49, 9, 19, 48, 30, 27, 26, 29, 49, 15, 42, 1, 45, 23, 43, 9, 44, 30, 11, 41, 35
            |35, 30, 21, 12, 22, 16, 30, 10, 29, 0, 15, 30, 34, 25, 33, 32, 36, 18, 9, 35, 19, 4, 12, 13, 18, 37, 21, 30, 32, 16, 29, 23, 23, 15, 35, 21, 32, 34, 26, 24, 22, 24, 26, 31, 3, 10, 11, 10, 23, 18, 25, 30, 25, 7, 18, 22, 15, 16, 18, 21, 9
            |32, 28, 6, 21, 20, 18, 15, 24, 26, 15, 0, 21, 29, 15, 21, 18, 34, 33, 16, 31, 34, 14, 14, 19, 27, 22, 35, 28, 20, 25, 24, 16, 13, 29, 23, 35, 21, 21, 12, 25, 25, 18, 14, 22, 12, 5, 4, 24, 24, 24, 16, 27, 19, 10, 32, 17, 27, 4, 19, 35, 23
            |51, 16, 16, 28, 41, 39, 22, 34, 47, 30, 21, 0, 48, 6, 35, 15, 18, 47, 36, 50, 48, 27, 35, 39, 30, 18, 48, 14, 6, 30, 9, 8, 8, 45, 9, 49, 4, 9, 25, 46, 22, 38, 30, 2, 27, 23, 23, 41, 17, 45, 5, 47, 7, 29, 43, 37, 34, 17, 40, 49, 37
            |4, 57, 32, 46, 13, 19, 28, 44, 6, 34, 29, 48, 0, 43, 17, 38, 63, 46, 26, 3, 45, 37, 23, 23, 52, 39, 48, 57, 45, 50, 53, 45, 41, 39, 47, 47, 47, 44, 23, 15, 53, 11, 19, 50, 34, 31, 30, 35, 52, 22, 44, 5, 47, 28, 49, 13, 49, 33, 17, 47, 40
            |46, 16, 11, 23, 35, 33, 20, 29, 41, 25, 15, 6, 43, 0, 31, 14, 21, 41, 30, 46, 43, 21, 29, 33, 26, 19, 43, 15, 8, 25, 10, 3, 2, 40, 12, 43, 8, 11, 22, 40, 19, 33, 26, 7, 21, 17, 17, 35, 15, 39, 1, 42, 5, 23, 38, 32, 30, 12, 34, 43, 31
            |21, 47, 21, 42, 20, 24, 13, 43, 20, 33, 21, 35, 17, 31, 0, 22, 52, 50, 29, 20, 50, 34, 24, 28, 48, 23, 52, 46, 30, 46, 42, 34, 30, 44, 31, 51, 33, 29, 10, 26, 46, 14, 7, 37, 31, 25, 24, 38, 44, 30, 32, 19, 36, 26, 51, 15, 47, 24, 23, 51, 41
            |41, 30, 12, 35, 34, 34, 9, 40, 38, 32, 18, 15, 38, 14, 22, 0, 33, 50, 34, 40, 51, 30, 31, 36, 39, 5, 52, 28, 9, 38, 23, 17, 14, 47, 9, 53, 11, 7, 15, 40, 33, 29, 19, 17, 29, 22, 22, 42, 29, 41, 14, 38, 19, 28, 49, 29, 42, 16, 34, 53, 40
            |66, 6, 32, 28, 53, 50, 40, 35, 60, 36, 34, 18, 63, 21, 52, 33, 0, 47, 45, 65, 49, 32, 45, 49, 26, 36, 48, 6, 24, 27, 10, 19, 22, 49, 26, 49, 22, 27, 42, 58, 16, 52, 46, 16, 34, 34, 34, 45, 13, 54, 20, 61, 16, 39, 42, 51, 32, 30, 51, 49, 39
            |46, 41, 39, 19, 33, 27, 48, 12, 40, 18, 33, 47, 46, 41, 50, 50, 47, 0, 21, 46, 2, 20, 26, 23, 21, 55, 2, 42, 49, 20, 43, 39, 40, 7, 53, 2, 49, 52, 44, 32, 31, 38, 43, 47, 21, 28, 29, 11, 34, 25, 42, 41, 40, 24, 6, 36, 15, 34, 29, 2, 10
            |27, 38, 23, 21, 13, 7, 29, 18, 21, 9, 16, 36, 26, 30, 29, 34, 45, 21, 0, 27, 21, 13, 4, 4, 27, 38, 23, 38, 36, 25, 37, 29, 28, 15, 39, 23, 37, 38, 24, 14, 31, 17, 23, 37, 11, 13, 13, 10, 32, 9, 31, 22, 32, 7, 23, 15, 23, 19, 9, 23, 14
            |1, 59, 34, 47, 14, 19, 31, 44, 6, 35, 31, 50, 3, 46, 20, 40, 65, 46, 27, 0, 45, 38, 23, 23, 53, 42, 48, 59, 47, 51, 55, 47, 43, 39, 49, 47, 49, 47, 26, 14, 55, 13, 22, 52, 35, 32, 31, 35, 54, 21, 46, 5, 50, 29, 49, 14, 50, 35, 17, 47, 41
            |45, 43, 40, 21, 33, 27, 49, 14, 39, 19, 34, 48, 45, 43, 50, 51, 49, 2, 21, 45, 0, 21, 25, 23, 23, 56, 3, 44, 51, 22, 45, 40, 41, 6, 54, 2, 51, 53, 44, 31, 33, 38, 44, 48, 22, 29, 30, 11, 36, 24, 43, 40, 42, 25, 8, 36, 17, 35, 29, 2, 11
            |39, 26, 19, 8, 25, 20, 30, 9, 33, 4, 14, 27, 37, 21, 34, 30, 32, 20, 13, 38, 21, 0, 15, 18, 15, 35, 22, 26, 29, 12, 25, 19, 20, 18, 33, 22, 29, 31, 26, 28, 18, 27, 27, 27, 3, 9, 10, 14, 19, 23, 22, 34, 21, 9, 18, 25, 13, 14, 22, 22, 10
            |24, 39, 20, 23, 10, 5, 26, 21, 17, 12, 14, 35, 23, 29, 24, 31, 45, 26, 4, 23, 25, 15, 0, 5, 30, 35, 28, 39, 34, 27, 36, 28, 26, 20, 37, 27, 35, 35, 20, 13, 33, 13, 18, 36, 12, 12, 11, 14, 33, 10, 30, 18, 31, 6, 27, 11, 27, 17, 6, 27, 18
            |23, 43, 25, 25, 10, 4, 30, 22, 17, 13, 19, 39, 23, 33, 28, 36, 49, 23, 4, 23, 23, 18, 5, 0, 31, 40, 25, 42, 39, 29, 40, 33, 31, 17, 42, 25, 40, 40, 25, 10, 35, 15, 23, 41, 15, 16, 16, 12, 36, 5, 34, 18, 35, 10, 26, 13, 27, 22, 6, 25, 17
            |53, 21, 30, 6, 39, 34, 41, 11, 47, 18, 27, 30, 52, 26, 48, 39, 26, 21, 27, 53, 23, 15, 30, 31, 0, 44, 22, 22, 35, 2, 24, 23, 26, 24, 38, 23, 34, 38, 39, 41, 10, 41, 41, 30, 18, 23, 24, 23, 14, 36, 27, 48, 23, 24, 16, 40, 6, 25, 36, 23, 16
            |43, 34, 16, 40, 37, 38, 11, 45, 40, 37, 22, 18, 39, 19, 23, 5, 36, 55, 38, 42, 56, 35, 35, 40, 44, 0, 57, 32, 12, 43, 27, 22, 18, 52, 11, 57, 14, 9, 17, 43, 38, 32, 21, 20, 34, 27, 27, 46, 34, 44, 18, 40, 23, 32, 54, 32, 47, 21, 38, 57, 45
            |48, 42, 41, 21, 36, 30, 50, 14, 42, 21, 35, 48, 48, 43, 52, 52, 48, 2, 23, 48, 3, 22, 28, 25, 22, 57, 0, 43, 51, 21, 44, 41, 42, 9, 55, 1, 51, 54, 46, 34, 32, 41, 46, 48, 23, 30, 31, 14, 35, 27, 44, 43, 42, 27, 6, 39, 16, 36, 32, 1, 12
            |59, 2, 26, 23, 47, 44, 35, 30, 54, 30, 28, 14, 57, 15, 46, 28, 6, 42, 38, 59, 44, 26, 39, 42, 22, 32, 43, 0, 20, 23, 5, 13, 17, 43, 22, 44, 18, 23, 36, 51, 12, 46, 40, 12, 28, 27, 28, 40, 8, 48, 15, 54, 10, 32, 38, 45, 28, 24, 45, 44, 34
            |48, 22, 14, 32, 39, 38, 18, 37, 44, 32, 20, 6, 45, 8, 30, 9, 24, 49, 36, 47, 51, 29, 34, 39, 35, 12, 51, 20, 0, 34, 15, 11, 9, 47, 4, 51, 2, 3, 22, 45, 27, 35, 26, 8, 29, 23, 23, 42, 23, 44, 8, 44, 12, 29, 47, 35, 38, 17, 38, 51, 39
            |51, 21, 28, 4, 37, 32, 40, 9, 45, 16, 25, 30, 50, 25, 46, 38, 27, 20, 25, 51, 22, 12, 27, 29, 2, 43, 21, 23, 34, 0, 24, 23, 25, 22, 37, 22, 33, 37, 37, 39, 11, 39, 39, 29, 16, 21, 22, 21, 15, 33, 26, 46, 23, 22, 15, 37, 5, 24, 34, 22, 14
            |56, 7, 21, 24, 44, 41, 30, 31, 51, 29, 24, 9, 53, 10, 42, 23, 10, 43, 37, 55, 45, 25, 36, 40, 24, 27, 44, 5, 15, 24, 0, 8, 12, 43, 17, 45, 13, 18, 32, 49, 14, 43, 36, 7, 26, 25, 25, 39, 10, 46, 10, 51, 6, 30, 39, 41, 29, 21, 42, 45, 34
            |48, 14, 13, 21, 36, 33, 23, 27, 42, 23, 16, 8, 45, 3, 34, 17, 19, 39, 29, 47, 40, 19, 28, 33, 23, 22, 41, 13, 11, 23, 8, 0, 4, 38, 15, 41, 11, 14, 24, 41, 16, 34, 27, 8, 20, 17, 17, 33, 12, 38, 4, 43, 3, 23, 36, 33, 27, 12, 34, 41, 29
            |44, 18, 9, 23, 33, 31, 18, 28, 39, 23, 13, 8, 41, 2, 30, 14, 22, 40, 28, 43, 41, 20, 26, 31, 26, 18, 42, 17, 9, 25, 12, 4, 0, 38, 13, 42, 9, 12, 20, 38, 19, 31, 24, 9, 20, 15, 15, 33, 16, 36, 3, 40, 7, 21, 37, 30, 29, 9, 32, 42, 30
            |39, 42, 36, 20, 27, 21, 44, 14, 33, 15, 29, 45, 39, 40, 44, 47, 49, 7, 15, 39, 6, 18, 20, 17, 24, 52, 9, 43, 47, 22, 43, 38, 38, 0, 51, 8, 47, 49, 39, 25, 33, 32, 38, 46, 18, 25, 25, 6, 35, 18, 41, 34, 39, 20, 12, 30, 18, 31, 23, 8, 9
            |50, 25, 17, 35, 42, 41, 19, 41, 46, 35, 23, 9, 47, 12, 31, 9, 26, 53, 39, 49, 54, 33, 37, 42, 38, 11, 55, 22, 4, 37, 17, 15, 13, 51, 0, 55, 4, 2, 23, 47, 30, 38, 28, 10, 32, 27, 26, 46, 26, 47, 11, 46, 15, 33, 50, 37, 42, 20, 41, 55, 43
            |47, 43, 41, 21, 35, 29, 50, 15, 41, 21, 35, 49, 47, 43, 51, 53, 49, 2, 23, 47, 2, 22, 27, 25, 23, 57, 1, 44, 51, 22, 45, 41, 42, 8, 55, 0, 51, 54, 46, 33, 33, 40, 45, 49, 23, 30, 31, 13, 36, 26, 44, 42, 42, 26, 7, 38, 17, 36, 31, 0, 12
            |50, 20, 16, 31, 41, 39, 20, 37, 46, 32, 21, 4, 47, 8, 33, 11, 22, 49, 37, 49, 51, 29, 35, 40, 34, 14, 51, 18, 2, 33, 13, 11, 9, 47, 4, 51, 0, 5, 24, 46, 26, 37, 28, 6, 29, 24, 24, 42, 21, 45, 7, 46, 11, 30, 46, 36, 38, 18, 40, 51, 39
            |48, 25, 15, 35, 39, 39, 16, 40, 44, 34, 21, 9, 44, 11, 29, 7, 27, 52, 38, 47, 53, 31, 35, 40, 38, 9, 54, 23, 3, 37, 18, 14, 12, 49, 2, 54, 5, 0, 21, 45, 30, 35, 25, 11, 31, 25, 25, 44, 26, 45, 11, 44, 15, 31, 49, 35, 41, 19, 39, 54, 42
            |27, 38, 11, 34, 20, 22, 6, 35, 23, 26, 12, 25, 23, 22, 10, 15, 42, 44, 24, 26, 44, 26, 20, 25, 39, 17, 46, 36, 22, 37, 32, 24, 20, 39, 23, 46, 24, 21, 0, 26, 36, 15, 4, 28, 24, 17, 16, 33, 34, 28, 22, 24, 26, 19, 44, 15, 39, 14, 21, 46, 34
            |14, 52, 31, 35, 6, 8, 32, 32, 9, 24, 25, 46, 15, 40, 26, 40, 58, 32, 14, 14, 31, 28, 13, 10, 41, 43, 34, 51, 45, 39, 49, 41, 38, 25, 47, 33, 46, 45, 26, 0, 45, 12, 23, 48, 25, 24, 24, 21, 45, 7, 41, 9, 43, 19, 36, 11, 38, 29, 7, 33, 28
            |55, 10, 26, 12, 42, 37, 37, 19, 49, 22, 25, 22, 53, 19, 46, 33, 16, 31, 31, 55, 33, 18, 33, 35, 10, 38, 32, 12, 27, 11, 14, 16, 19, 33, 30, 33, 26, 30, 36, 45, 0, 43, 39, 21, 21, 23, 24, 30, 4, 41, 19, 50, 15, 26, 26, 41, 16, 23, 39, 33, 24
            |13, 47, 22, 35, 6, 11, 21, 34, 9, 24, 18, 38, 11, 33, 14, 29, 52, 38, 17, 13, 38, 27, 13, 15, 41, 32, 41, 46, 35, 39, 43, 34, 31, 32, 38, 40, 37, 35, 15, 12, 43, 0, 11, 40, 24, 20, 19, 27, 42, 16, 34, 9, 37, 17, 40, 2, 39, 22, 9, 40, 31
            |22, 41, 14, 35, 17, 19, 10, 36, 19, 26, 14, 30, 19, 26, 7, 19, 46, 43, 23, 22, 44, 27, 18, 23, 41, 21, 46, 40, 26, 39, 36, 27, 24, 38, 28, 45, 28, 25, 4, 23, 39, 11, 0, 32, 25, 18, 17, 32, 37, 26, 26, 19, 30, 19, 44, 11, 40, 17, 18, 45, 35
            |53, 14, 18, 28, 43, 41, 25, 35, 48, 31, 22, 2, 50, 7, 37, 17, 16, 47, 37, 52, 48, 27, 36, 41, 30, 20, 48, 12, 8, 29, 7, 8, 9, 46, 10, 49, 6, 11, 28, 48, 21, 40, 32, 0, 28, 24, 25, 41, 16, 46, 6, 49, 7, 30, 43, 39, 34, 19, 41, 49, 37
            |36, 28, 18, 11, 22, 17, 27, 12, 30, 3, 12, 27, 34, 21, 31, 29, 34, 21, 11, 35, 22, 3, 12, 15, 18, 34, 23, 28, 29, 16, 26, 20, 20, 18, 32, 23, 29, 31, 24, 25, 21, 24, 25, 28, 0, 7, 8, 13, 21, 20, 22, 30, 22, 6, 20, 22, 16, 13, 19, 23, 11
            |33, 28, 11, 17, 20, 17, 20, 19, 27, 10, 5, 23, 31, 17, 25, 22, 34, 28, 13, 32, 29, 9, 12, 16, 23, 27, 30, 27, 23, 21, 25, 17, 15, 25, 27, 30, 24, 25, 17, 24, 23, 20, 18, 24, 7, 0, 1, 19, 22, 22, 18, 28, 19, 6, 27, 18, 23, 6, 17, 30, 18
            |32, 28, 10, 18, 19, 16, 19, 20, 26, 11, 4, 23, 30, 17, 24, 22, 34, 29, 13, 31, 30, 10, 11, 16, 24, 27, 31, 28, 23, 22, 25, 17, 15, 25, 26, 31, 24, 25, 16, 24, 24, 19, 17, 25, 8, 1, 0, 20, 23, 21, 18, 27, 20, 6, 28, 17, 24, 6, 17, 31, 19
            |35, 39, 30, 18, 22, 16, 38, 12, 29, 10, 24, 41, 35, 35, 38, 42, 45, 11, 10, 35, 11, 14, 14, 12, 23, 46, 14, 40, 42, 21, 39, 33, 33, 6, 46, 13, 42, 44, 33, 21, 30, 27, 32, 41, 13, 19, 20, 0, 32, 15, 36, 30, 35, 14, 14, 25, 18, 25, 18, 13, 7
            |55, 7, 24, 15, 42, 38, 34, 22, 49, 23, 24, 17, 52, 15, 44, 29, 13, 34, 32, 54, 36, 19, 33, 36, 14, 34, 35, 8, 23, 15, 10, 12, 16, 35, 26, 36, 21, 26, 34, 45, 4, 42, 37, 16, 21, 22, 23, 32, 0, 41, 16, 50, 11, 26, 30, 40, 20, 21, 39, 36, 26
            |21, 48, 30, 30, 10, 6, 34, 26, 15, 18, 24, 45, 22, 39, 30, 41, 54, 25, 9, 21, 24, 23, 10, 5, 36, 44, 27, 48, 44, 33, 46, 38, 36, 18, 47, 26, 45, 45, 28, 7, 41, 16, 26, 46, 20, 22, 21, 15, 41, 0, 40, 16, 41, 16, 29, 15, 31, 27, 7, 26, 21
            |47, 16, 12, 24, 36, 34, 20, 30, 42, 25, 16, 5, 44, 1, 32, 14, 20, 42, 31, 46, 43, 22, 30, 34, 27, 18, 44, 15, 8, 26, 10, 4, 3, 41, 11, 44, 7, 11, 22, 41, 19, 34, 26, 6, 22, 18, 18, 36, 16, 40, 0, 43, 5, 24, 39, 33, 30, 13, 35, 44, 32
            |5, 55, 31, 42, 9, 14, 29, 39, 1, 30, 27, 47, 5, 42, 19, 38, 61, 41, 22, 5, 40, 34, 18, 18, 48, 40, 43, 54, 44, 46, 51, 43, 40, 34, 46, 42, 46, 44, 24, 9, 50, 9, 19, 49, 30, 28, 27, 30, 50, 16, 43, 0, 46, 24, 44, 10, 45, 31, 12, 42, 36
            |50, 11, 16, 21, 39, 36, 25, 28, 45, 25, 19, 7, 47, 5, 36, 19, 16, 40, 32, 50, 42, 21, 31, 35, 23, 23, 42, 10, 12, 23, 6, 3, 7, 39, 15, 42, 11, 15, 26, 43, 15, 37, 30, 7, 22, 19, 20, 35, 11, 41, 5, 46, 0, 25, 37, 36, 27, 15, 37, 42, 31
            |30, 32, 16, 18, 16, 11, 24, 17, 23, 7, 10, 29, 28, 23, 26, 28, 39, 24, 7, 29, 25, 9, 6, 10, 24, 32, 27, 32, 29, 22, 30, 23, 21, 20, 33, 26, 30, 31, 19, 19, 26, 17, 19, 30, 6, 6, 6, 14, 26, 16, 24, 24, 25, 0, 25, 16, 22, 12, 13, 26, 15
            |49, 36, 38, 15, 36, 30, 48, 9, 43, 18, 32, 43, 49, 38, 51, 49, 42, 6, 23, 49, 8, 18, 27, 26, 16, 54, 6, 38, 47, 15, 39, 36, 37, 12, 50, 7, 46, 49, 44, 36, 26, 40, 44, 43, 20, 27, 28, 14, 30, 29, 39, 44, 37, 25, 0, 38, 10, 33, 32, 7, 9
            |15, 45, 21, 33, 5, 9, 21, 32, 9, 22, 17, 37, 13, 32, 15, 29, 51, 36, 15, 14, 36, 25, 11, 13, 40, 32, 39, 45, 35, 37, 41, 33, 30, 30, 37, 38, 36, 35, 15, 11, 41, 2, 11, 39, 22, 18, 17, 25, 40, 15, 33, 10, 36, 16, 38, 0, 37, 21, 8, 38, 29
            |50, 26, 31, 6, 36, 31, 42, 6, 44, 15, 27, 34, 49, 30, 47, 42, 32, 15, 23, 50, 17, 13, 27, 27, 6, 47, 16, 28, 38, 5, 29, 27, 29, 18, 42, 17, 38, 41, 39, 38, 16, 39, 40, 34, 16, 23, 24, 18, 20, 31, 30, 45, 27, 22, 10, 37, 0, 26, 33, 17, 11
            |35, 25, 5, 20, 24, 22, 16, 24, 30, 16, 4, 17, 33, 12, 24, 16, 30, 34, 19, 35, 35, 14, 17, 22, 25, 21, 36, 24, 17, 24, 21, 12, 9, 31, 20, 36, 18, 19, 14, 29, 23, 22, 17, 19, 13, 6, 6, 25, 21, 27, 13, 31, 15, 12, 33, 21, 26, 0, 22, 36, 24
            |18, 45, 24, 30, 4, 2, 27, 27, 11, 18, 19, 40, 17, 34, 23, 34, 51, 29, 9, 17, 29, 22, 6, 6, 36, 38, 32, 45, 38, 34, 42, 34, 32, 23, 41, 31, 40, 39, 21, 7, 39, 9, 18, 41, 19, 17, 17, 18, 39, 7, 35, 12, 37, 13, 32, 8, 33, 22, 0, 31, 23
            |47, 43, 41, 21, 35, 29, 50, 15, 41, 21, 35, 49, 47, 43, 51, 53, 49, 2, 23, 47, 2, 22, 27, 25, 23, 57, 1, 44, 51, 22, 45, 41, 42, 8, 55, 0, 51, 54, 46, 33, 33, 40, 45, 49, 23, 30, 31, 13, 36, 26, 44, 42, 42, 26, 7, 38, 17, 36, 31, 0, 12
            |41, 33, 29, 11, 27, 21, 39, 5, 35, 9, 23, 37, 40, 31, 41, 40, 39, 10, 14, 41, 11, 10, 18, 17, 16, 45, 12, 34, 39, 14, 34, 29, 30, 9, 43, 12, 39, 42, 34, 28, 24, 31, 35, 37, 11, 18, 19, 7, 26, 21, 32, 36, 31, 15, 9, 29, 11, 24, 23, 12, 0|];
early = [0, 272, 145, 38, 0, 0, 160, 27, 0, 35, 114, 286, 0, 369, 535, 391, 260, 15, 0, 0, 53, 39, 0, 0, 28, 360, 22, 358, 294, 78, 298, 309, 252, 17, 265, 47, 315, 300, 165, 433, 200, 0, 180, 299, 115, 73, 153, 243, 402, 211, 274, 0, 311, 159, 0, 0, 0, 153, 0, 76, 481];
late = [744, 450, 283, 202, 85, 177, 295, 194, 115, 141, 323, 473, 80, 563, 706, 560, 415, 264, 131, 124, 204, 159, 160, 168, 233, 520, 233, 564, 457, 304, 466, 463, 446, 228, 452, 253, 484, 501, 315, 647, 445, 148, 330, 513, 311, 260, 306, 398, 608, 412, 429, 137, 471, 392, 206, 149, 233, 281, 123, 278, 704];