% n60w180.004	   75.58 708
n = 61;
duration = [|0, 5, 24, 21, 25, 33, 16, 21, 46, 28, 26, 28, 8, 21, 23, 12, 24, 22, 7, 34, 4, 39, 19, 38, 28, 26, 26, 13, 9, 27, 9, 15, 6, 15, 27, 12, 32, 33, 13, 16, 23, 35, 8, 26, 13, 29, 17, 14, 18, 39, 12, 27, 10, 27, 6, 32, 25, 13, 24, 16, 23
            |5, 0, 20, 15, 20, 28, 19, 16, 42, 25, 31, 30, 4, 24, 26, 12, 19, 27, 2, 35, 7, 37, 13, 34, 31, 25, 23, 15, 11, 30, 7, 9, 10, 10, 23, 17, 29, 36, 8, 21, 18, 34, 8, 22, 17, 24, 14, 12, 15, 38, 16, 23, 5, 30, 5, 32, 27, 15, 23, 22, 19
            |24, 20, 0, 19, 12, 31, 39, 18, 48, 38, 46, 50, 16, 44, 46, 15, 12, 45, 18, 54, 27, 53, 15, 42, 51, 43, 37, 35, 19, 50, 16, 15, 30, 11, 33, 35, 40, 56, 22, 36, 24, 52, 16, 32, 36, 25, 6, 11, 31, 54, 36, 33, 16, 50, 25, 51, 48, 36, 41, 38, 5
            |21, 15, 19, 0, 10, 13, 28, 1, 30, 19, 46, 36, 15, 34, 34, 23, 9, 41, 14, 38, 21, 35, 5, 23, 41, 26, 19, 25, 24, 39, 19, 7, 24, 10, 13, 32, 21, 43, 9, 36, 5, 35, 20, 13, 31, 8, 17, 19, 15, 35, 29, 14, 11, 39, 16, 34, 37, 26, 25, 36, 15
            |25, 20, 12, 10, 0, 19, 36, 8, 36, 29, 50, 46, 17, 42, 43, 22, 1, 47, 18, 48, 27, 44, 7, 31, 50, 36, 28, 33, 25, 47, 20, 11, 30, 10, 22, 37, 30, 52, 17, 40, 14, 45, 21, 22, 37, 13, 13, 18, 24, 45, 36, 23, 15, 47, 23, 44, 45, 34, 35, 41, 7
            |33, 28, 31, 13, 19, 0, 35, 14, 17, 16, 57, 40, 28, 41, 39, 36, 19, 51, 27, 39, 32, 30, 18, 12, 47, 27, 17, 33, 37, 44, 32, 21, 35, 24, 9, 42, 14, 47, 20, 48, 9, 33, 33, 11, 40, 6, 30, 33, 20, 31, 39, 10, 24, 44, 27, 34, 42, 34, 27, 47, 26
            |16, 19, 39, 28, 36, 35, 0, 29, 43, 24, 26, 12, 23, 6, 7, 29, 35, 18, 21, 18, 13, 28, 29, 35, 13, 15, 21, 4, 26, 11, 25, 26, 11, 28, 27, 13, 28, 17, 19, 20, 28, 21, 25, 25, 9, 34, 33, 30, 16, 27, 8, 26, 23, 11, 14, 18, 9, 4, 13, 17, 37
            |21, 16, 18, 1, 8, 14, 29, 0, 30, 21, 47, 38, 15, 35, 35, 22, 8, 42, 14, 40, 22, 36, 4, 24, 43, 28, 20, 26, 24, 40, 18, 7, 25, 10, 15, 32, 22, 45, 10, 37, 6, 36, 20, 14, 31, 9, 16, 19, 16, 37, 30, 15, 11, 40, 17, 36, 38, 27, 27, 37, 14
            |46, 42, 48, 30, 36, 17, 43, 30, 0, 19, 68, 43, 43, 47, 44, 52, 36, 60, 42, 39, 44, 25, 35, 8, 52, 30, 22, 42, 52, 49, 47, 36, 46, 40, 18, 53, 15, 49, 34, 60, 25, 31, 48, 20, 50, 23, 47, 49, 29, 26, 49, 19, 40, 49, 40, 34, 47, 43, 31, 58, 43
            |28, 25, 38, 19, 29, 16, 24, 21, 19, 0, 49, 25, 28, 28, 26, 37, 28, 41, 26, 23, 26, 16, 24, 12, 34, 12, 3, 23, 36, 30, 32, 24, 28, 28, 7, 34, 4, 32, 18, 41, 15, 17, 33, 6, 31, 19, 35, 35, 11, 16, 30, 6, 25, 30, 22, 18, 29, 24, 12, 39, 34
            |26, 31, 46, 46, 50, 57, 26, 47, 68, 49, 0, 33, 33, 24, 28, 31, 49, 9, 33, 41, 25, 53, 44, 60, 25, 41, 46, 26, 27, 27, 31, 40, 22, 40, 50, 15, 53, 33, 38, 10, 48, 46, 30, 48, 18, 54, 40, 35, 39, 53, 19, 50, 36, 27, 30, 43, 27, 25, 39, 10, 47
            |28, 30, 50, 36, 46, 40, 12, 38, 43, 25, 33, 0, 34, 9, 5, 40, 45, 24, 32, 8, 24, 22, 38, 36, 10, 13, 23, 15, 37, 6, 36, 36, 23, 39, 31, 23, 29, 7, 29, 30, 35, 14, 36, 29, 19, 41, 44, 41, 22, 21, 19, 30, 33, 6, 25, 11, 6, 15, 13, 26, 47
            |8, 4, 16, 15, 17, 28, 23, 15, 43, 28, 33, 34, 0, 28, 30, 9, 16, 30, 2, 39, 11, 41, 12, 36, 35, 29, 26, 19, 9, 34, 4, 8, 14, 7, 25, 20, 31, 40, 10, 23, 19, 38, 5, 24, 21, 23, 10, 8, 18, 41, 20, 25, 4, 34, 9, 36, 32, 19, 27, 24, 15
            |21, 24, 44, 34, 42, 41, 6, 35, 47, 28, 24, 9, 28, 0, 4, 33, 41, 15, 26, 17, 18, 29, 35, 40, 7, 18, 25, 9, 30, 6, 30, 32, 16, 34, 32, 15, 32, 12, 25, 21, 34, 22, 30, 30, 11, 40, 38, 35, 21, 29, 10, 31, 29, 6, 20, 18, 4, 9, 16, 17, 43
            |23, 26, 46, 34, 43, 39, 7, 35, 44, 26, 28, 5, 30, 4, 0, 36, 42, 19, 28, 13, 20, 25, 35, 37, 8, 14, 23, 11, 32, 5, 32, 32, 18, 35, 30, 18, 30, 10, 26, 25, 33, 18, 32, 28, 14, 39, 40, 37, 20, 25, 14, 29, 30, 5, 21, 14, 3, 11, 13, 21, 44
            |12, 12, 15, 23, 22, 36, 29, 22, 52, 37, 31, 40, 9, 33, 36, 0, 21, 31, 11, 46, 16, 50, 19, 45, 40, 37, 35, 25, 4, 39, 5, 16, 18, 13, 34, 21, 40, 45, 19, 21, 27, 46, 4, 33, 24, 31, 9, 4, 27, 50, 23, 34, 12, 39, 17, 44, 37, 25, 35, 24, 17
            |24, 19, 12, 9, 1, 19, 35, 8, 36, 28, 49, 45, 16, 41, 42, 21, 0, 46, 17, 47, 26, 44, 6, 30, 49, 35, 28, 32, 24, 46, 19, 10, 29, 9, 22, 36, 30, 51, 16, 39, 13, 44, 20, 22, 36, 13, 13, 17, 24, 44, 35, 22, 14, 46, 22, 43, 44, 33, 34, 40, 7
            |22, 27, 45, 41, 47, 51, 18, 42, 60, 41, 9, 24, 30, 15, 19, 31, 46, 0, 29, 32, 20, 44, 40, 53, 16, 32, 38, 19, 27, 18, 29, 36, 17, 37, 44, 10, 45, 24, 32, 11, 43, 37, 29, 41, 11, 49, 39, 34, 32, 44, 12, 43, 32, 18, 25, 34, 17, 17, 31, 7, 45
            |7, 2, 18, 14, 18, 27, 21, 14, 42, 26, 33, 32, 2, 26, 28, 11, 17, 29, 0, 37, 9, 39, 12, 34, 34, 27, 24, 17, 11, 32, 6, 8, 12, 8, 23, 19, 29, 38, 8, 22, 18, 36, 7, 22, 19, 23, 12, 10, 16, 39, 18, 23, 3, 32, 7, 34, 30, 17, 25, 23, 17
            |34, 35, 54, 38, 48, 39, 18, 40, 39, 23, 41, 8, 39, 17, 13, 46, 47, 32, 37, 0, 30, 15, 41, 33, 17, 12, 22, 21, 43, 14, 42, 39, 29, 42, 30, 31, 26, 11, 32, 38, 36, 8, 42, 28, 27, 41, 48, 46, 24, 14, 26, 29, 38, 14, 30, 5, 15, 22, 13, 34, 51
            |4, 7, 27, 21, 27, 32, 13, 22, 44, 26, 25, 24, 11, 18, 20, 16, 26, 20, 9, 30, 0, 36, 20, 37, 25, 23, 24, 9, 13, 23, 12, 16, 3, 17, 26, 10, 30, 30, 13, 16, 23, 31, 12, 24, 10, 29, 21, 17, 16, 36, 9, 26, 12, 23, 5, 29, 21, 9, 21, 15, 26
            |39, 37, 53, 35, 44, 30, 28, 36, 25, 16, 53, 22, 41, 29, 25, 50, 44, 44, 39, 15, 36, 0, 39, 21, 32, 13, 16, 29, 48, 28, 45, 38, 36, 42, 23, 41, 16, 27, 32, 48, 31, 8, 46, 22, 37, 34, 49, 49, 23, 1, 35, 22, 39, 28, 33, 11, 28, 30, 15, 45, 49
            |19, 13, 15, 5, 7, 18, 29, 4, 35, 24, 44, 38, 12, 35, 35, 19, 6, 40, 12, 41, 20, 39, 0, 28, 42, 30, 23, 26, 21, 40, 15, 4, 23, 6, 18, 30, 26, 45, 10, 34, 10, 38, 16, 18, 30, 13, 12, 15, 18, 39, 29, 18, 9, 40, 16, 37, 38, 26, 28, 35, 10
            |38, 34, 42, 23, 31, 12, 35, 24, 8, 12, 60, 36, 36, 40, 37, 45, 30, 53, 34, 33, 37, 21, 28, 0, 45, 23, 14, 34, 45, 42, 40, 29, 38, 33, 11, 45, 8, 43, 26, 52, 18, 26, 41, 13, 42, 18, 40, 42, 21, 22, 41, 11, 32, 42, 32, 28, 40, 35, 24, 50, 37
            |28, 31, 51, 41, 50, 47, 13, 43, 52, 34, 25, 10, 35, 7, 8, 40, 49, 16, 34, 17, 25, 32, 42, 45, 0, 22, 31, 17, 36, 4, 37, 39, 22, 41, 39, 19, 38, 8, 33, 25, 41, 24, 36, 36, 16, 47, 45, 42, 28, 31, 16, 38, 36, 4, 27, 21, 5, 16, 22, 20, 50
            |26, 25, 43, 26, 36, 27, 15, 28, 30, 12, 41, 13, 29, 18, 14, 37, 35, 32, 27, 12, 23, 13, 30, 23, 22, 0, 10, 16, 36, 19, 33, 28, 23, 32, 18, 28, 16, 20, 21, 35, 24, 9, 33, 16, 24, 29, 38, 37, 12, 13, 22, 17, 27, 19, 21, 8, 17, 17, 2, 32, 40
            |26, 23, 37, 19, 28, 17, 21, 20, 22, 3, 46, 23, 26, 25, 23, 35, 28, 38, 24, 22, 24, 16, 23, 14, 31, 10, 0, 20, 34, 28, 30, 22, 25, 26, 8, 31, 7, 30, 16, 38, 15, 17, 31, 7, 28, 19, 33, 33, 8, 17, 27, 7, 23, 28, 20, 17, 26, 21, 10, 36, 33
            |13, 15, 35, 25, 33, 33, 4, 26, 42, 23, 26, 15, 19, 9, 11, 25, 32, 19, 17, 21, 9, 29, 26, 34, 17, 16, 20, 0, 22, 15, 21, 22, 8, 25, 25, 12, 27, 21, 16, 19, 25, 23, 21, 23, 9, 31, 29, 26, 13, 28, 7, 24, 19, 15, 10, 20, 13, 1, 14, 17, 34
            |9, 11, 19, 24, 25, 37, 26, 24, 52, 36, 27, 37, 9, 30, 32, 4, 24, 27, 11, 43, 13, 48, 21, 45, 36, 36, 34, 22, 0, 35, 6, 17, 14, 15, 34, 17, 40, 42, 19, 17, 28, 44, 4, 33, 20, 33, 13, 8, 26, 48, 20, 34, 13, 35, 15, 42, 33, 22, 34, 20, 21
            |27, 30, 50, 39, 47, 44, 11, 40, 49, 30, 27, 6, 34, 6, 5, 39, 46, 18, 32, 14, 23, 28, 40, 42, 4, 19, 28, 15, 35, 0, 35, 37, 21, 39, 35, 20, 34, 7, 30, 26, 38, 21, 35, 33, 16, 44, 44, 40, 25, 28, 16, 34, 34, 0, 25, 17, 2, 14, 18, 21, 48
            |9, 7, 16, 19, 20, 32, 25, 18, 47, 32, 31, 36, 4, 30, 32, 5, 19, 29, 6, 42, 12, 45, 15, 40, 37, 33, 30, 21, 6, 35, 0, 11, 14, 9, 29, 20, 35, 42, 14, 21, 23, 41, 1, 28, 21, 27, 9, 5, 22, 45, 21, 29, 8, 35, 12, 39, 33, 21, 31, 23, 16
            |15, 9, 15, 7, 11, 21, 26, 7, 36, 24, 40, 36, 8, 32, 32, 16, 10, 36, 8, 39, 16, 38, 4, 29, 39, 28, 22, 22, 17, 37, 11, 0, 19, 4, 19, 26, 26, 42, 7, 30, 12, 37, 13, 18, 26, 16, 11, 12, 16, 38, 25, 19, 4, 37, 12, 35, 35, 23, 26, 31, 12
            |6, 10, 30, 24, 30, 35, 11, 25, 46, 28, 22, 23, 14, 16, 18, 18, 29, 17, 12, 29, 3, 36, 23, 38, 22, 23, 25, 8, 14, 21, 14, 19, 0, 20, 28, 8, 32, 28, 15, 13, 26, 31, 14, 26, 7, 32, 23, 19, 17, 36, 6, 28, 15, 21, 8, 28, 19, 8, 21, 13, 29
            |15, 10, 11, 10, 10, 24, 28, 10, 40, 28, 40, 39, 7, 34, 35, 13, 9, 37, 8, 42, 17, 42, 6, 33, 41, 32, 26, 25, 15, 39, 9, 4, 20, 0, 23, 27, 30, 45, 11, 30, 15, 40, 11, 22, 27, 18, 7, 9, 20, 43, 26, 23, 5, 39, 14, 39, 37, 25, 30, 31, 9
            |27, 23, 33, 13, 22, 9, 27, 15, 18, 7, 50, 31, 25, 32, 30, 34, 22, 44, 23, 30, 26, 23, 18, 11, 39, 18, 8, 25, 34, 35, 29, 19, 28, 23, 0, 35, 8, 38, 15, 42, 9, 25, 30, 2, 33, 11, 30, 31, 12, 23, 32, 1, 22, 35, 21, 25, 34, 26, 18, 40, 28
            |12, 17, 35, 32, 37, 42, 13, 32, 53, 34, 15, 23, 20, 15, 18, 21, 36, 10, 19, 31, 10, 41, 30, 45, 19, 28, 31, 12, 17, 20, 20, 26, 8, 27, 35, 0, 38, 26, 23, 7, 34, 34, 19, 33, 4, 39, 29, 24, 24, 40, 5, 35, 22, 20, 15, 31, 18, 11, 26, 5, 35
            |32, 29, 40, 21, 30, 14, 28, 22, 15, 4, 53, 29, 31, 32, 30, 40, 30, 45, 29, 26, 30, 16, 26, 8, 38, 16, 7, 27, 40, 34, 35, 26, 32, 30, 8, 38, 0, 36, 21, 45, 16, 19, 36, 8, 35, 18, 37, 38, 15, 17, 34, 7, 28, 34, 26, 21, 33, 28, 16, 43, 36
            |33, 36, 56, 43, 52, 47, 17, 45, 49, 32, 33, 7, 40, 12, 10, 45, 51, 24, 38, 11, 30, 27, 45, 43, 8, 20, 30, 21, 42, 7, 42, 42, 28, 45, 38, 26, 36, 0, 35, 32, 42, 19, 42, 36, 23, 48, 50, 47, 29, 26, 22, 37, 40, 7, 31, 16, 9, 21, 20, 28, 54
            |13, 8, 22, 9, 17, 20, 19, 10, 34, 18, 38, 29, 10, 25, 26, 19, 16, 32, 8, 32, 13, 32, 10, 26, 33, 21, 16, 16, 19, 30, 14, 7, 15, 11, 15, 23, 21, 35, 0, 28, 11, 30, 15, 14, 22, 17, 17, 17, 9, 32, 20, 15, 7, 30, 8, 28, 28, 17, 19, 28, 19
            |16, 21, 36, 36, 40, 48, 20, 37, 60, 41, 10, 30, 23, 21, 25, 21, 39, 11, 22, 38, 16, 48, 34, 52, 25, 35, 38, 19, 17, 26, 21, 30, 13, 30, 42, 7, 45, 32, 28, 0, 39, 42, 20, 40, 11, 44, 30, 25, 31, 48, 12, 41, 26, 26, 21, 38, 24, 18, 33, 4, 37
            |23, 18, 24, 5, 14, 9, 28, 6, 25, 15, 48, 35, 19, 34, 33, 27, 13, 43, 18, 36, 23, 31, 10, 18, 41, 24, 15, 25, 28, 38, 23, 12, 26, 15, 9, 34, 16, 42, 11, 39, 0, 31, 24, 9, 32, 6, 22, 24, 13, 31, 31, 9, 15, 38, 18, 31, 36, 26, 23, 38, 20
            |35, 34, 52, 35, 45, 33, 21, 36, 31, 17, 46, 14, 38, 22, 18, 46, 44, 37, 36, 8, 31, 8, 38, 26, 24, 9, 17, 23, 44, 21, 41, 37, 31, 40, 25, 34, 19, 19, 30, 42, 31, 0, 42, 23, 30, 36, 47, 46, 21, 7, 29, 24, 36, 21, 29, 4, 20, 24, 11, 38, 48
            |8, 8, 16, 20, 21, 33, 25, 20, 48, 33, 30, 36, 5, 30, 32, 4, 20, 29, 7, 42, 12, 46, 16, 41, 36, 33, 31, 21, 4, 35, 1, 13, 14, 11, 30, 19, 36, 42, 15, 20, 24, 42, 0, 29, 21, 28, 10, 5, 23, 46, 20, 30, 9, 35, 13, 40, 33, 21, 31, 22, 17
            |26, 22, 32, 13, 22, 11, 25, 14, 20, 6, 48, 29, 24, 30, 28, 33, 22, 41, 22, 28, 24, 22, 18, 13, 36, 16, 7, 23, 33, 33, 28, 18, 26, 22, 2, 33, 8, 36, 14, 40, 9, 23, 29, 0, 31, 13, 29, 30, 9, 23, 29, 1, 20, 33, 19, 24, 31, 24, 16, 38, 28
            |13, 17, 36, 31, 37, 40, 9, 31, 50, 31, 18, 19, 21, 11, 14, 24, 36, 11, 19, 27, 10, 37, 30, 42, 16, 24, 28, 9, 20, 16, 21, 26, 7, 27, 33, 4, 35, 23, 22, 11, 32, 30, 21, 31, 0, 38, 30, 26, 21, 36, 1, 32, 22, 16, 14, 27, 14, 7, 22, 8, 36
            |29, 24, 25, 8, 13, 6, 34, 9, 23, 19, 54, 41, 23, 40, 39, 31, 13, 49, 23, 41, 29, 34, 13, 18, 47, 29, 19, 31, 33, 44, 27, 16, 32, 18, 11, 39, 18, 48, 17, 44, 6, 36, 28, 13, 38, 0, 24, 27, 19, 35, 37, 12, 20, 44, 24, 36, 42, 33, 28, 44, 20
            |17, 14, 6, 17, 13, 30, 33, 16, 47, 35, 40, 44, 10, 38, 40, 9, 13, 39, 12, 48, 21, 49, 12, 40, 45, 38, 33, 29, 13, 44, 9, 11, 23, 7, 30, 29, 37, 50, 17, 30, 22, 47, 10, 29, 30, 24, 0, 5, 26, 49, 30, 30, 11, 44, 19, 45, 42, 29, 36, 32, 8
            |14, 12, 11, 19, 18, 33, 30, 19, 49, 35, 35, 41, 8, 35, 37, 4, 17, 34, 10, 46, 17, 49, 15, 42, 42, 37, 33, 26, 8, 40, 5, 12, 19, 9, 31, 24, 38, 47, 17, 25, 24, 46, 5, 30, 26, 27, 5, 0, 26, 49, 26, 31, 10, 40, 17, 44, 38, 26, 35, 27, 13
            |18, 15, 31, 15, 24, 20, 16, 16, 29, 11, 39, 22, 18, 21, 20, 27, 24, 32, 16, 24, 16, 23, 18, 21, 28, 12, 8, 13, 26, 25, 22, 16, 17, 20, 12, 24, 15, 29, 9, 31, 13, 21, 23, 9, 21, 19, 26, 26, 0, 23, 20, 11, 16, 25, 11, 20, 23, 15, 11, 29, 28
            |39, 38, 54, 35, 45, 31, 27, 37, 26, 16, 53, 21, 41, 29, 25, 50, 44, 44, 39, 14, 36, 1, 39, 22, 31, 13, 17, 28, 48, 28, 45, 38, 36, 43, 23, 40, 17, 26, 32, 48, 31, 7, 46, 23, 36, 35, 49, 49, 23, 0, 35, 23, 39, 28, 33, 11, 27, 30, 15, 44, 50
            |12, 16, 36, 29, 36, 39, 8, 30, 49, 30, 19, 19, 20, 10, 14, 23, 35, 12, 18, 26, 9, 35, 29, 41, 16, 22, 27, 7, 20, 16, 21, 25, 6, 26, 32, 5, 34, 22, 20, 12, 31, 29, 20, 29, 1, 37, 30, 26, 20, 35, 0, 31, 21, 16, 13, 26, 14, 6, 21, 9, 35
            |27, 23, 33, 14, 23, 10, 26, 15, 19, 6, 50, 30, 25, 31, 29, 34, 22, 43, 23, 29, 26, 22, 18, 11, 38, 17, 7, 24, 34, 34, 29, 19, 28, 23, 1, 35, 7, 37, 15, 41, 9, 24, 30, 1, 32, 12, 30, 31, 11, 23, 31, 0, 21, 34, 21, 24, 33, 26, 17, 40, 28
            |10, 5, 16, 11, 15, 24, 23, 11, 40, 25, 36, 33, 4, 29, 30, 12, 14, 32, 3, 38, 12, 39, 9, 32, 36, 27, 23, 19, 13, 34, 8, 4, 15, 5, 22, 22, 28, 40, 7, 26, 15, 36, 9, 20, 22, 20, 11, 10, 16, 39, 21, 21, 0, 34, 9, 35, 32, 20, 26, 26, 14
            |27, 30, 50, 39, 47, 44, 11, 40, 49, 30, 27, 6, 34, 6, 5, 39, 46, 18, 32, 14, 23, 28, 40, 42, 4, 19, 28, 15, 35, 0, 35, 37, 21, 39, 35, 20, 34, 7, 30, 26, 38, 21, 35, 33, 16, 44, 44, 40, 25, 28, 16, 34, 34, 0, 25, 17, 2, 14, 18, 21, 48
            |6, 5, 25, 16, 23, 27, 14, 17, 40, 22, 30, 25, 9, 20, 21, 17, 22, 25, 7, 30, 5, 33, 16, 32, 27, 21, 20, 10, 15, 25, 12, 12, 8, 14, 21, 15, 26, 31, 8, 21, 18, 29, 13, 19, 14, 24, 19, 17, 11, 33, 13, 21, 9, 25, 0, 27, 23, 11, 19, 20, 23
            |32, 32, 51, 34, 44, 34, 18, 36, 34, 18, 43, 11, 36, 18, 14, 44, 43, 34, 34, 5, 29, 11, 37, 28, 21, 8, 17, 20, 42, 17, 39, 35, 28, 39, 25, 31, 21, 16, 28, 38, 31, 4, 40, 24, 27, 36, 45, 44, 20, 11, 26, 24, 35, 17, 27, 0, 17, 21, 9, 35, 47
            |25, 27, 48, 37, 45, 42, 9, 38, 47, 29, 27, 6, 32, 4, 3, 37, 44, 17, 30, 15, 21, 28, 38, 40, 5, 17, 26, 13, 33, 2, 33, 35, 19, 37, 34, 18, 33, 9, 28, 24, 36, 20, 33, 31, 14, 42, 42, 38, 23, 27, 14, 33, 32, 2, 23, 17, 0, 12, 17, 20, 46
            |13, 15, 36, 26, 34, 34, 4, 27, 43, 24, 25, 15, 19, 9, 11, 25, 33, 17, 17, 22, 9, 30, 26, 35, 16, 17, 21, 1, 22, 14, 21, 23, 8, 25, 26, 11, 28, 21, 17, 18, 26, 24, 21, 24, 7, 33, 29, 26, 15, 30, 6, 26, 20, 14, 11, 21, 12, 0, 15, 15, 34
            |24, 23, 41, 25, 35, 27, 13, 27, 31, 12, 39, 13, 27, 16, 13, 35, 34, 31, 25, 13, 21, 15, 28, 24, 22, 2, 10, 14, 34, 18, 31, 26, 21, 30, 18, 26, 16, 20, 19, 33, 23, 11, 31, 16, 22, 28, 36, 35, 11, 15, 21, 17, 26, 18, 19, 9, 17, 15, 0, 30, 38
            |16, 22, 38, 36, 41, 47, 17, 37, 58, 39, 10, 26, 24, 17, 21, 24, 40, 7, 23, 34, 15, 45, 35, 50, 20, 32, 36, 17, 20, 21, 23, 31, 13, 31, 40, 5, 43, 28, 28, 4, 38, 38, 22, 38, 8, 44, 32, 27, 29, 44, 9, 40, 26, 21, 20, 35, 20, 15, 30, 0, 39
            |23, 19, 5, 15, 7, 26, 37, 14, 43, 34, 47, 47, 15, 43, 44, 17, 7, 45, 17, 51, 26, 49, 10, 37, 50, 40, 33, 34, 21, 48, 16, 12, 29, 9, 28, 35, 36, 54, 19, 37, 20, 48, 17, 28, 36, 20, 8, 13, 28, 50, 35, 28, 14, 48, 23, 47, 46, 34, 38, 39, 0|];