% n60w140.001    36.13 669
n = 61;
duration = [|0, 56, 36, 3, 26, 33, 19, 9, 26, 28, 31, 7, 27, 43, 38, 13, 34, 6, 0, 15, 24, 28, 38, 40, 17, 36, 38, 44, 30, 11, 43, 38, 4, 5, 40, 23, 53, 41, 3, 24, 7, 43, 29, 37, 10, 54, 27, 40, 26, 18, 33, 14, 43, 27, 40, 7, 21, 48, 22, 49, 44
            |56, 0, 29, 59, 41, 44, 37, 64, 34, 38, 42, 50, 45, 26, 26, 48, 22, 52, 56, 44, 35, 29, 22, 44, 40, 31, 42, 13, 30, 55, 46, 18, 60, 61, 39, 34, 5, 29, 53, 44, 63, 33, 30, 19, 46, 3, 31, 16, 47, 50, 29, 48, 22, 39, 17, 57, 39, 8, 34, 10, 19
            |36, 29, 0, 39, 13, 44, 25, 42, 10, 36, 14, 32, 16, 7, 3, 24, 14, 31, 36, 21, 28, 12, 27, 16, 19, 2, 45, 17, 7, 31, 19, 16, 41, 40, 45, 22, 24, 37, 34, 16, 42, 9, 8, 14, 30, 28, 25, 19, 43, 40, 30, 24, 8, 36, 13, 34, 15, 21, 20, 19, 30
            |3, 59, 39, 0, 28, 35, 22, 6, 28, 31, 33, 9, 29, 46, 40, 15, 37, 8, 3, 17, 27, 31, 41, 41, 20, 38, 40, 47, 32, 12, 45, 41, 2, 2, 42, 25, 56, 44, 6, 26, 4, 45, 32, 40, 13, 57, 30, 43, 28, 20, 36, 16, 45, 30, 43, 7, 24, 51, 25, 52, 46
            |26, 41, 13, 28, 0, 44, 23, 30, 8, 36, 6, 24, 4, 20, 16, 13, 22, 20, 26, 11, 28, 15, 33, 14, 13, 12, 47, 29, 11, 18, 18, 25, 30, 29, 47, 21, 37, 42, 24, 3, 31, 18, 12, 23, 23, 40, 27, 28, 40, 36, 33, 12, 21, 36, 24, 23, 7, 33, 19, 32, 38
            |33, 44, 44, 35, 44, 0, 21, 41, 37, 9, 50, 27, 48, 49, 43, 37, 31, 35, 33, 35, 16, 32, 23, 57, 32, 45, 5, 39, 38, 41, 61, 33, 35, 37, 9, 23, 44, 16, 31, 44, 38, 54, 36, 34, 25, 41, 19, 33, 7, 15, 16, 38, 46, 8, 38, 39, 37, 40, 25, 43, 25
            |19, 37, 25, 22, 23, 21, 0, 28, 17, 13, 28, 13, 26, 31, 25, 17, 17, 18, 19, 15, 6, 13, 19, 36, 10, 26, 25, 27, 18, 23, 40, 21, 23, 24, 25, 4, 35, 23, 17, 23, 26, 34, 17, 20, 9, 35, 8, 22, 18, 15, 14, 18, 29, 13, 24, 23, 16, 30, 5, 32, 24
            |9, 64, 42, 6, 30, 41, 28, 0, 32, 37, 34, 15, 30, 49, 44, 17, 42, 11, 9, 21, 33, 35, 47, 42, 24, 41, 46, 52, 36, 12, 45, 46, 6, 4, 48, 31, 60, 50, 11, 27, 4, 48, 36, 45, 19, 62, 35, 48, 34, 26, 42, 18, 49, 36, 48, 7, 27, 56, 30, 56, 52
            |26, 34, 10, 28, 8, 37, 17, 32, 0, 29, 13, 22, 12, 17, 12, 14, 14, 21, 26, 11, 21, 7, 25, 20, 9, 10, 40, 22, 4, 21, 23, 18, 30, 30, 40, 14, 30, 34, 24, 10, 32, 18, 4, 16, 20, 33, 19, 21, 35, 31, 25, 14, 17, 29, 17, 25, 5, 26, 12, 26, 30
            |28, 38, 36, 31, 36, 9, 13, 37, 29, 0, 41, 22, 40, 41, 35, 30, 23, 29, 28, 28, 8, 24, 16, 49, 24, 37, 11, 31, 29, 35, 52, 25, 31, 33, 12, 15, 37, 14, 26, 36, 34, 45, 28, 26, 19, 35, 10, 25, 9, 13, 9, 31, 37, 1, 30, 34, 29, 33, 17, 36, 20
            |31, 42, 14, 33, 6, 50, 28, 34, 13, 41, 0, 30, 4, 19, 17, 18, 25, 25, 31, 17, 33, 19, 37, 9, 19, 12, 52, 30, 14, 22, 12, 28, 35, 34, 52, 26, 38, 47, 30, 7, 36, 14, 16, 26, 29, 42, 32, 31, 46, 41, 38, 17, 21, 41, 26, 27, 13, 35, 24, 33, 42
            |7, 50, 32, 9, 24, 27, 13, 15, 22, 22, 30, 0, 26, 39, 34, 12, 28, 8, 7, 13, 17, 22, 32, 38, 13, 32, 32, 39, 25, 14, 42, 32, 11, 12, 34, 16, 47, 34, 4, 23, 14, 40, 25, 31, 4, 48, 20, 34, 21, 14, 26, 14, 38, 21, 35, 12, 18, 42, 16, 43, 37
            |27, 45, 16, 29, 4, 48, 26, 30, 12, 40, 4, 26, 0, 22, 19, 15, 26, 21, 27, 14, 32, 19, 37, 12, 16, 14, 51, 32, 15, 18, 16, 29, 31, 30, 51, 25, 40, 46, 26, 4, 32, 18, 16, 27, 26, 44, 31, 32, 44, 39, 37, 13, 24, 39, 28, 23, 11, 37, 23, 35, 42
            |43, 26, 7, 46, 20, 49, 31, 49, 17, 41, 19, 39, 22, 0, 6, 31, 18, 38, 43, 28, 34, 18, 30, 18, 26, 8, 50, 16, 14, 38, 20, 18, 48, 47, 49, 28, 21, 40, 41, 23, 50, 7, 15, 16, 37, 26, 30, 20, 48, 47, 34, 31, 4, 41, 14, 42, 22, 19, 26, 16, 32
            |38, 26, 3, 40, 16, 43, 25, 44, 12, 35, 17, 34, 19, 6, 0, 26, 13, 33, 38, 23, 28, 12, 25, 19, 21, 5, 44, 14, 8, 33, 22, 13, 42, 42, 43, 22, 21, 35, 35, 19, 44, 11, 9, 12, 31, 25, 25, 16, 42, 40, 28, 26, 5, 35, 10, 37, 17, 18, 20, 16, 28
            |13, 48, 24, 15, 13, 37, 17, 17, 14, 30, 18, 12, 15, 31, 26, 0, 26, 7, 13, 4, 23, 19, 34, 27, 9, 23, 41, 35, 19, 7, 30, 30, 17, 16, 42, 18, 44, 40, 11, 11, 18, 30, 18, 29, 13, 46, 24, 33, 32, 25, 31, 1, 31, 29, 31, 10, 9, 40, 16, 40, 39
            |34, 22, 14, 37, 22, 31, 17, 42, 14, 23, 25, 28, 26, 18, 13, 26, 0, 30, 34, 22, 17, 8, 13, 30, 18, 16, 32, 10, 11, 33, 34, 4, 39, 39, 31, 13, 19, 23, 31, 24, 41, 23, 10, 3, 25, 20, 13, 7, 31, 31, 16, 26, 14, 24, 7, 35, 18, 14, 13, 15, 16
            |6, 52, 31, 8, 20, 35, 18, 11, 21, 29, 25, 8, 21, 38, 33, 7, 30, 0, 6, 9, 23, 23, 36, 34, 13, 30, 39, 40, 25, 7, 37, 35, 10, 9, 41, 20, 49, 41, 5, 18, 12, 37, 24, 33, 10, 50, 25, 37, 29, 21, 32, 8, 38, 28, 36, 5, 16, 45, 19, 45, 42
            |0, 56, 36, 3, 26, 33, 19, 9, 26, 28, 31, 7, 27, 43, 38, 13, 34, 6, 0, 15, 24, 28, 38, 40, 17, 36, 38, 44, 30, 11, 43, 38, 4, 5, 40, 23, 53, 41, 3, 24, 7, 43, 29, 37, 10, 54, 27, 40, 26, 18, 33, 14, 43, 27, 40, 7, 21, 48, 22, 49, 44
            |15, 44, 21, 17, 11, 35, 15, 21, 11, 28, 17, 13, 14, 28, 23, 4, 22, 9, 15, 0, 21, 15, 31, 26, 5, 21, 39, 32, 15, 11, 29, 27, 19, 19, 40, 15, 40, 37, 13, 10, 21, 28, 15, 25, 12, 42, 21, 29, 31, 25, 28, 4, 28, 27, 28, 14, 6, 36, 13, 36, 36
            |24, 35, 28, 27, 28, 16, 6, 33, 21, 8, 33, 17, 32, 34, 28, 23, 17, 23, 24, 21, 0, 16, 15, 41, 16, 29, 19, 26, 22, 29, 45, 20, 28, 29, 19, 7, 34, 17, 22, 29, 31, 38, 20, 20, 14, 33, 4, 21, 15, 15, 9, 24, 31, 8, 24, 29, 21, 29, 9, 31, 20
            |28, 29, 12, 31, 15, 32, 13, 35, 7, 24, 19, 22, 19, 18, 12, 19, 8, 23, 28, 15, 16, 0, 18, 26, 11, 13, 34, 17, 6, 26, 29, 12, 32, 32, 33, 9, 25, 27, 25, 17, 35, 21, 4, 10, 20, 27, 13, 14, 30, 28, 19, 19, 16, 24, 13, 28, 10, 21, 8, 21, 23
            |38, 22, 27, 41, 33, 23, 19, 47, 25, 16, 37, 32, 37, 30, 25, 34, 13, 36, 38, 31, 15, 18, 0, 43, 25, 29, 22, 16, 23, 41, 46, 12, 42, 43, 20, 16, 21, 11, 36, 35, 45, 36, 22, 13, 28, 19, 11, 10, 26, 29, 7, 35, 25, 18, 16, 42, 28, 17, 18, 21, 5
            |40, 44, 16, 41, 14, 57, 36, 42, 20, 49, 9, 38, 12, 18, 19, 27, 30, 34, 40, 26, 41, 26, 43, 0, 27, 15, 60, 33, 20, 30, 4, 32, 43, 42, 59, 34, 39, 53, 38, 16, 44, 12, 22, 30, 38, 44, 39, 35, 54, 50, 45, 25, 22, 49, 29, 35, 21, 37, 32, 34, 47
            |17, 40, 19, 20, 13, 32, 10, 24, 9, 24, 19, 13, 16, 26, 21, 9, 18, 13, 17, 5, 16, 11, 25, 27, 0, 19, 35, 28, 12, 16, 31, 22, 22, 22, 35, 10, 36, 32, 15, 13, 24, 27, 12, 21, 11, 38, 16, 24, 28, 23, 23, 9, 25, 23, 23, 18, 6, 32, 8, 32, 31
            |36, 31, 2, 38, 12, 45, 26, 41, 10, 37, 12, 32, 14, 8, 5, 23, 16, 30, 36, 21, 29, 13, 29, 15, 19, 0, 47, 19, 8, 30, 17, 18, 40, 40, 46, 22, 26, 39, 33, 15, 42, 9, 9, 16, 30, 30, 26, 21, 43, 41, 31, 23, 9, 37, 15, 34, 14, 23, 21, 21, 32
            |38, 42, 45, 40, 47, 5, 25, 46, 40, 11, 52, 32, 51, 50, 44, 41, 32, 39, 38, 39, 19, 34, 22, 60, 35, 47, 0, 38, 40, 46, 63, 33, 40, 42, 4, 26, 42, 13, 36, 48, 43, 55, 38, 34, 29, 39, 21, 32, 13, 20, 16, 42, 46, 12, 38, 44, 40, 39, 28, 42, 23
            |44, 13, 17, 47, 29, 39, 27, 52, 22, 31, 30, 39, 32, 16, 14, 35, 10, 40, 44, 32, 26, 17, 16, 33, 28, 19, 38, 0, 18, 43, 36, 6, 49, 49, 36, 23, 8, 26, 42, 31, 51, 23, 17, 7, 35, 11, 22, 6, 40, 41, 22, 36, 12, 32, 4, 45, 27, 4, 23, 5, 17
            |30, 30, 7, 32, 11, 38, 18, 36, 4, 29, 14, 25, 15, 14, 8, 19, 11, 25, 30, 15, 22, 6, 23, 20, 12, 8, 40, 18, 0, 25, 24, 14, 34, 34, 39, 15, 26, 33, 27, 14, 36, 16, 1, 12, 23, 29, 19, 17, 36, 33, 24, 18, 13, 29, 13, 29, 9, 22, 13, 21, 27
            |11, 55, 31, 12, 18, 41, 23, 12, 21, 35, 22, 14, 18, 38, 33, 7, 33, 7, 11, 11, 29, 26, 41, 30, 16, 30, 46, 43, 25, 0, 33, 37, 14, 12, 47, 25, 51, 46, 11, 16, 14, 36, 25, 36, 16, 53, 30, 40, 35, 28, 37, 7, 38, 34, 38, 5, 16, 47, 23, 47, 46
            |43, 46, 19, 45, 18, 61, 40, 45, 23, 52, 12, 42, 16, 20, 22, 30, 34, 37, 43, 29, 45, 29, 46, 4, 31, 17, 63, 36, 24, 33, 0, 35, 47, 45, 63, 37, 41, 56, 41, 19, 47, 13, 25, 33, 41, 46, 43, 38, 58, 53, 48, 29, 24, 52, 32, 38, 25, 39, 35, 36, 50
            |38, 18, 16, 41, 25, 33, 21, 46, 18, 25, 28, 32, 29, 18, 13, 30, 4, 35, 38, 27, 20, 12, 12, 32, 22, 18, 33, 6, 14, 37, 35, 0, 43, 43, 31, 17, 14, 23, 36, 28, 45, 24, 13, 2, 29, 16, 16, 3, 34, 35, 17, 31, 13, 26, 4, 40, 22, 10, 17, 11, 15
            |4, 60, 41, 2, 30, 35, 23, 6, 30, 31, 35, 11, 31, 48, 42, 17, 39, 10, 4, 19, 28, 32, 42, 43, 22, 40, 40, 49, 34, 14, 47, 43, 0, 2, 43, 27, 57, 44, 7, 28, 3, 47, 34, 42, 14, 58, 31, 45, 28, 20, 37, 18, 47, 30, 45, 9, 26, 53, 26, 54, 47
            |5, 61, 40, 2, 29, 37, 24, 4, 30, 33, 34, 12, 30, 47, 42, 16, 39, 9, 5, 19, 29, 32, 43, 42, 22, 40, 42, 49, 34, 12, 45, 43, 2, 0, 44, 28, 58, 46, 8, 27, 2, 47, 34, 42, 15, 59, 32, 45, 30, 22, 38, 17, 47, 32, 45, 7, 25, 53, 27, 54, 49
            |40, 39, 45, 42, 47, 9, 25, 48, 40, 12, 52, 34, 51, 49, 43, 42, 31, 41, 40, 40, 19, 33, 20, 59, 35, 46, 4, 36, 39, 47, 63, 31, 43, 44, 0, 26, 40, 10, 38, 48, 46, 54, 38, 32, 31, 36, 20, 30, 16, 23, 15, 43, 45, 13, 36, 46, 40, 36, 28, 40, 20
            |23, 34, 22, 25, 21, 23, 4, 31, 14, 15, 26, 16, 25, 28, 22, 18, 13, 20, 23, 15, 7, 9, 16, 34, 10, 22, 26, 23, 15, 25, 37, 17, 27, 28, 26, 0, 31, 22, 20, 22, 30, 31, 13, 16, 13, 31, 6, 18, 21, 19, 13, 19, 25, 15, 20, 25, 14, 26, 2, 28, 22
            |53, 5, 24, 56, 37, 44, 35, 60, 30, 37, 38, 47, 40, 21, 21, 44, 19, 49, 53, 40, 34, 25, 21, 39, 36, 26, 42, 8, 26, 51, 41, 14, 57, 58, 40, 31, 0, 30, 50, 39, 60, 28, 26, 16, 44, 6, 29, 13, 46, 48, 28, 44, 17, 38, 13, 54, 35, 4, 31, 5, 20
            |41, 29, 37, 44, 42, 16, 23, 50, 34, 14, 47, 34, 46, 40, 35, 40, 23, 41, 41, 37, 17, 27, 11, 53, 32, 39, 13, 26, 33, 46, 56, 23, 44, 46, 10, 22, 30, 0, 39, 43, 48, 46, 31, 24, 31, 26, 16, 21, 21, 27, 9, 41, 36, 15, 27, 46, 36, 27, 24, 30, 10
            |3, 53, 34, 6, 24, 31, 17, 11, 24, 26, 30, 4, 26, 41, 35, 11, 31, 5, 3, 13, 22, 25, 36, 38, 15, 33, 36, 42, 27, 11, 41, 36, 7, 8, 38, 20, 50, 39, 0, 23, 10, 41, 27, 34, 8, 51, 24, 38, 25, 17, 30, 13, 40, 25, 38, 8, 19, 46, 19, 46, 41
            |24, 44, 16, 26, 3, 44, 23, 27, 10, 36, 7, 23, 4, 23, 19, 11, 24, 18, 24, 10, 29, 17, 35, 16, 13, 15, 48, 31, 14, 16, 19, 28, 28, 27, 48, 22, 39, 43, 23, 0, 29, 20, 14, 26, 22, 43, 28, 31, 40, 35, 34, 10, 24, 36, 27, 20, 8, 36, 20, 34, 40
            |7, 63, 42, 4, 31, 38, 26, 4, 32, 34, 36, 14, 32, 50, 44, 18, 41, 12, 7, 21, 31, 35, 45, 44, 24, 42, 43, 51, 36, 14, 47, 45, 3, 2, 46, 30, 60, 48, 10, 29, 0, 49, 36, 44, 17, 61, 34, 47, 31, 23, 40, 19, 49, 33, 47, 9, 28, 55, 29, 56, 50
            |43, 33, 9, 45, 18, 54, 34, 48, 18, 45, 14, 40, 18, 7, 11, 30, 23, 37, 43, 28, 38, 21, 36, 12, 27, 9, 55, 23, 16, 36, 13, 24, 47, 47, 54, 31, 28, 46, 41, 20, 49, 0, 17, 22, 38, 33, 35, 26, 52, 49, 39, 30, 11, 45, 20, 40, 22, 26, 29, 23, 39
            |29, 30, 8, 32, 12, 36, 17, 36, 4, 28, 16, 25, 16, 15, 9, 18, 10, 24, 29, 15, 20, 4, 22, 22, 12, 9, 38, 17, 1, 25, 25, 13, 34, 34, 38, 13, 26, 31, 27, 14, 36, 17, 0, 11, 22, 29, 18, 16, 34, 32, 23, 18, 14, 28, 13, 29, 9, 22, 12, 21, 26
            |37, 19, 14, 40, 23, 34, 20, 45, 16, 26, 26, 31, 27, 16, 12, 29, 3, 33, 37, 25, 20, 10, 13, 30, 21, 16, 34, 7, 12, 36, 33, 2, 42, 42, 32, 16, 16, 24, 34, 26, 44, 22, 11, 0, 28, 17, 16, 5, 34, 34, 18, 29, 12, 26, 4, 38, 20, 11, 16, 12, 17
            |10, 46, 30, 13, 23, 25, 9, 19, 20, 19, 29, 4, 26, 37, 31, 13, 25, 10, 10, 12, 14, 20, 28, 38, 11, 30, 29, 35, 23, 16, 41, 29, 14, 15, 31, 13, 44, 31, 8, 22, 17, 38, 22, 28, 0, 44, 17, 31, 19, 13, 23, 14, 36, 18, 32, 15, 17, 39, 13, 40, 33
            |54, 3, 28, 57, 40, 41, 35, 62, 33, 35, 42, 48, 44, 26, 25, 46, 20, 50, 54, 42, 33, 27, 19, 44, 38, 30, 39, 11, 29, 53, 46, 16, 58, 59, 36, 31, 6, 26, 51, 43, 61, 33, 29, 17, 44, 0, 29, 13, 44, 47, 26, 46, 22, 36, 16, 55, 38, 7, 32, 10, 16
            |27, 31, 25, 30, 27, 19, 8, 35, 19, 10, 32, 20, 31, 30, 25, 24, 13, 25, 27, 21, 4, 13, 11, 39, 16, 26, 21, 22, 19, 30, 43, 16, 31, 32, 20, 6, 29, 16, 24, 28, 34, 35, 18, 16, 17, 29, 0, 16, 18, 19, 7, 25, 27, 11, 20, 31, 20, 25, 8, 27, 17
            |40, 16, 19, 43, 28, 33, 22, 48, 21, 25, 31, 34, 32, 20, 16, 33, 7, 37, 40, 29, 21, 14, 10, 35, 24, 21, 32, 6, 17, 40, 38, 3, 45, 45, 30, 18, 13, 21, 38, 31, 47, 26, 16, 5, 31, 13, 16, 0, 34, 35, 16, 33, 16, 26, 6, 42, 25, 9, 18, 11, 12
            |26, 47, 43, 28, 40, 7, 18, 34, 35, 9, 46, 21, 44, 48, 42, 32, 31, 29, 26, 31, 15, 30, 26, 54, 28, 43, 13, 40, 36, 35, 58, 34, 28, 30, 16, 21, 46, 21, 25, 40, 31, 52, 34, 34, 19, 44, 18, 34, 0, 8, 18, 33, 45, 8, 38, 33, 33, 42, 23, 45, 29
            |18, 50, 40, 20, 36, 15, 15, 26, 31, 13, 41, 14, 39, 47, 40, 25, 31, 21, 18, 25, 15, 28, 29, 50, 23, 41, 20, 41, 33, 28, 53, 35, 20, 22, 23, 19, 48, 27, 17, 35, 23, 49, 32, 34, 13, 47, 19, 35, 8, 0, 22, 27, 44, 12, 38, 25, 29, 44, 20, 46, 33
            |33, 29, 30, 36, 33, 16, 14, 42, 25, 9, 38, 26, 37, 34, 28, 31, 16, 32, 33, 28, 9, 19, 7, 45, 23, 31, 16, 22, 24, 37, 48, 17, 37, 38, 15, 13, 28, 9, 30, 34, 40, 39, 23, 18, 23, 26, 7, 16, 18, 22, 0, 32, 30, 10, 22, 37, 27, 24, 15, 27, 11
            |14, 48, 24, 16, 12, 38, 18, 18, 14, 31, 17, 14, 13, 31, 26, 1, 26, 8, 14, 4, 24, 19, 35, 25, 9, 23, 42, 36, 18, 7, 29, 31, 18, 17, 43, 19, 44, 41, 13, 10, 19, 30, 18, 29, 14, 46, 25, 33, 33, 27, 32, 0, 31, 31, 31, 11, 9, 40, 17, 40, 40
            |43, 22, 8, 45, 21, 46, 29, 49, 17, 37, 21, 38, 24, 4, 5, 31, 14, 38, 43, 28, 31, 16, 25, 22, 25, 9, 46, 12, 13, 38, 24, 13, 47, 47, 45, 25, 17, 36, 40, 24, 49, 11, 14, 12, 36, 22, 27, 16, 45, 44, 30, 31, 0, 38, 9, 42, 22, 15, 24, 12, 28
            |27, 39, 36, 30, 36, 8, 13, 36, 29, 1, 41, 21, 39, 41, 35, 29, 24, 28, 27, 27, 8, 24, 18, 49, 23, 37, 12, 32, 29, 34, 52, 26, 30, 32, 13, 15, 38, 15, 25, 36, 33, 45, 28, 26, 18, 36, 11, 26, 8, 12, 10, 31, 38, 0, 30, 33, 29, 34, 17, 37, 21
            |40, 17, 13, 43, 24, 38, 24, 48, 17, 30, 26, 35, 28, 14, 10, 31, 7, 36, 40, 28, 24, 13, 16, 29, 23, 15, 38, 4, 13, 38, 32, 4, 45, 45, 36, 20, 13, 27, 38, 27, 47, 20, 13, 4, 32, 16, 20, 6, 38, 38, 22, 31, 9, 30, 0, 41, 22, 9, 19, 9, 19
            |7, 57, 34, 7, 23, 39, 23, 7, 25, 34, 27, 12, 23, 42, 37, 10, 35, 5, 7, 14, 29, 28, 42, 35, 18, 34, 44, 45, 29, 5, 38, 40, 9, 7, 46, 25, 54, 46, 8, 20, 9, 40, 29, 38, 15, 55, 31, 42, 33, 25, 37, 11, 42, 33, 41, 0, 20, 50, 24, 50, 47
            |21, 39, 15, 24, 7, 37, 16, 27, 5, 29, 13, 18, 11, 22, 17, 9, 18, 16, 21, 6, 21, 10, 28, 21, 6, 14, 40, 27, 9, 16, 25, 22, 26, 25, 40, 14, 35, 36, 19, 8, 28, 22, 9, 20, 17, 38, 20, 25, 33, 29, 27, 9, 22, 29, 22, 20, 0, 31, 12, 30, 33
            |48, 8, 21, 51, 33, 40, 30, 56, 26, 33, 35, 42, 37, 19, 18, 40, 14, 45, 48, 36, 29, 21, 17, 37, 32, 23, 39, 4, 22, 47, 39, 10, 53, 53, 36, 26, 4, 27, 46, 36, 55, 26, 22, 11, 39, 7, 25, 9, 42, 44, 24, 40, 15, 34, 9, 50, 31, 0, 27, 4, 17
            |22, 34, 20, 25, 19, 25, 5, 30, 12, 17, 24, 16, 23, 26, 20, 16, 13, 19, 22, 13, 9, 8, 18, 32, 8, 21, 28, 23, 13, 23, 35, 17, 26, 27, 28, 2, 31, 24, 19, 20, 29, 29, 12, 16, 13, 32, 8, 18, 23, 20, 15, 17, 24, 17, 19, 24, 12, 27, 0, 28, 23
            |49, 10, 19, 52, 32, 43, 32, 56, 26, 36, 33, 43, 35, 16, 16, 40, 15, 45, 49, 36, 31, 21, 21, 34, 32, 21, 42, 5, 21, 47, 36, 11, 54, 54, 40, 28, 5, 30, 46, 34, 56, 23, 21, 12, 40, 10, 27, 11, 45, 46, 27, 40, 12, 37, 9, 50, 30, 4, 28, 0, 21
            |44, 19, 30, 46, 38, 25, 24, 52, 30, 20, 42, 37, 42, 32, 28, 39, 16, 42, 44, 36, 20, 23, 5, 47, 31, 32, 23, 17, 27, 46, 50, 15, 47, 49, 20, 22, 20, 10, 41, 40, 50, 39, 26, 17, 33, 16, 17, 12, 29, 33, 11, 40, 28, 21, 19, 47, 33, 17, 23, 21, 0|];
early = [0, 536, 98, 0, 68, 242, 0, 0, 27, 244, 386, 0, 38, 509, 66, 18, 113, 0, 0, 37, 209, 0, 466, 387, 25, 75, 290, 104, 6, 0, 393, 190, 0, 0, 264, 208, 162, 307, 348, 69, 0, 390, 88, 127, 0, 174, 184, 130, 239, 235, 205, 412, 69, 281, 131, 0, 22, 146, 0, 152, 530];
late = [735, 679, 209, 61, 206, 382, 130, 91, 158, 347, 505, 123, 219, 617, 234, 186, 230, 105, 91, 161, 363, 145, 586, 541, 159, 200, 432, 247, 142, 47, 539, 332, 109, 79, 408, 319, 283, 447, 497, 187, 68, 522, 245, 231, 131, 313, 333, 260, 386, 366, 341, 588, 211, 401, 263, 112, 160, 272, 144, 258, 653];