% n60w180.002	   82.20 621
n = 61;
duration = [|0, 16, 29, 19, 32, 25, 5, 45, 38, 46, 21, 26, 44, 47, 44, 14, 42, 27, 40, 24, 22, 33, 24, 45, 5, 25, 34, 34, 39, 48, 28, 27, 40, 45, 31, 16, 33, 28, 4, 7, 46, 13, 40, 16, 21, 24, 28, 45, 40, 28, 39, 13, 37, 42, 34, 54, 26, 26, 37, 9, 20
            |16, 0, 13, 15, 30, 8, 13, 31, 37, 49, 17, 11, 32, 42, 45, 19, 42, 23, 42, 31, 33, 16, 19, 32, 21, 10, 25, 17, 35, 41, 16, 34, 29, 47, 39, 1, 32, 13, 21, 10, 35, 22, 45, 24, 9, 15, 31, 37, 45, 32, 23, 29, 20, 35, 39, 44, 21, 34, 36, 19, 18
            |29, 13, 0, 25, 38, 6, 24, 29, 45, 59, 27, 10, 31, 48, 53, 31, 50, 32, 52, 43, 46, 8, 28, 31, 34, 4, 29, 11, 41, 44, 20, 47, 30, 57, 51, 14, 40, 3, 33, 22, 35, 34, 56, 36, 17, 23, 42, 41, 55, 43, 18, 42, 11, 39, 50, 45, 30, 46, 44, 33, 29
            |19, 15, 25, 0, 16, 19, 19, 27, 22, 34, 2, 16, 26, 29, 30, 9, 27, 9, 28, 19, 23, 23, 5, 26, 22, 23, 15, 22, 21, 29, 11, 22, 21, 32, 26, 13, 17, 26, 22, 18, 27, 14, 31, 14, 8, 5, 17, 26, 30, 18, 25, 28, 27, 23, 25, 35, 7, 21, 21, 15, 4
            |32, 30, 38, 16, 0, 32, 34, 27, 7, 21, 13, 28, 24, 15, 15, 19, 12, 7, 15, 17, 24, 34, 11, 25, 34, 38, 13, 32, 8, 18, 19, 19, 19, 18, 21, 29, 2, 40, 34, 33, 23, 22, 21, 20, 22, 16, 10, 16, 19, 12, 32, 37, 37, 13, 15, 27, 9, 18, 6, 25, 13
            |25, 8, 6, 19, 32, 0, 21, 26, 39, 52, 21, 5, 27, 42, 47, 25, 44, 26, 46, 37, 40, 8, 21, 28, 30, 6, 24, 10, 35, 39, 15, 40, 26, 50, 44, 9, 34, 8, 29, 18, 31, 29, 50, 30, 11, 16, 36, 36, 49, 37, 16, 37, 12, 34, 43, 41, 23, 39, 38, 27, 22
            |5, 13, 24, 19, 34, 21, 0, 43, 40, 49, 21, 23, 42, 48, 47, 17, 44, 28, 43, 28, 27, 29, 25, 43, 10, 20, 34, 30, 40, 49, 27, 31, 39, 48, 35, 12, 35, 23, 9, 2, 45, 17, 44, 20, 19, 23, 31, 45, 44, 31, 36, 18, 33, 42, 38, 54, 26, 31, 39, 13, 21
            |45, 31, 29, 27, 27, 26, 43, 0, 31, 46, 27, 22, 4, 26, 38, 36, 35, 25, 41, 42, 48, 21, 24, 3, 48, 32, 14, 18, 23, 20, 16, 45, 8, 43, 47, 31, 29, 32, 48, 41, 8, 41, 47, 40, 24, 22, 36, 17, 46, 38, 12, 55, 20, 18, 42, 17, 24, 44, 31, 42, 29
            |38, 37, 45, 22, 7, 39, 40, 31, 0, 15, 20, 35, 27, 12, 8, 24, 5, 13, 10, 19, 26, 40, 18, 28, 39, 44, 18, 38, 8, 17, 25, 20, 23, 13, 20, 35, 5, 47, 39, 39, 25, 27, 17, 24, 29, 22, 12, 16, 15, 14, 37, 41, 43, 14, 13, 27, 16, 19, 1, 30, 19
            |46, 49, 59, 34, 21, 52, 49, 46, 15, 0, 32, 49, 42, 23, 8, 32, 11, 27, 6, 22, 27, 55, 31, 43, 45, 57, 34, 53, 23, 30, 40, 20, 38, 3, 17, 47, 19, 60, 46, 49, 40, 33, 8, 30, 42, 36, 18, 30, 6, 18, 52, 44, 57, 28, 11, 39, 29, 20, 16, 37, 31
            |21, 17, 27, 2, 13, 21, 21, 27, 20, 32, 0, 18, 25, 27, 28, 9, 25, 7, 26, 17, 22, 25, 4, 26, 23, 25, 14, 24, 19, 28, 12, 21, 21, 30, 24, 16, 15, 28, 23, 20, 26, 14, 29, 14, 10, 6, 15, 24, 28, 16, 26, 28, 28, 22, 23, 34, 5, 20, 19, 16, 2
            |26, 11, 10, 16, 28, 5, 23, 22, 35, 49, 18, 0, 23, 37, 43, 24, 40, 22, 43, 35, 38, 7, 18, 23, 31, 11, 19, 7, 30, 35, 10, 38, 21, 47, 42, 11, 30, 13, 30, 21, 26, 28, 47, 29, 8, 13, 33, 31, 46, 34, 13, 39, 11, 29, 40, 36, 20, 37, 34, 27, 20
            |44, 32, 31, 26, 24, 27, 42, 4, 27, 42, 25, 23, 0, 22, 35, 35, 31, 22, 37, 40, 46, 23, 22, 1, 47, 33, 12, 20, 20, 16, 16, 42, 5, 40, 44, 31, 26, 34, 47, 40, 4, 39, 44, 38, 24, 21, 33, 14, 42, 36, 15, 53, 23, 14, 39, 14, 22, 41, 27, 41, 27
            |47, 42, 48, 29, 15, 42, 48, 26, 12, 23, 27, 37, 22, 0, 15, 34, 13, 20, 20, 31, 38, 41, 24, 23, 49, 48, 18, 39, 8, 7, 28, 32, 19, 20, 32, 41, 15, 50, 49, 47, 18, 37, 28, 35, 33, 27, 23, 9, 25, 25, 35, 52, 42, 9, 25, 16, 22, 31, 13, 40, 27
            |44, 45, 53, 30, 15, 47, 47, 38, 8, 8, 28, 43, 35, 15, 0, 30, 4, 22, 6, 23, 29, 49, 26, 36, 44, 53, 27, 47, 15, 22, 34, 22, 30, 5, 20, 43, 13, 55, 45, 46, 32, 32, 13, 29, 37, 31, 16, 22, 11, 17, 45, 45, 51, 21, 13, 31, 24, 21, 9, 36, 27
            |14, 19, 31, 9, 19, 25, 17, 36, 24, 32, 9, 24, 35, 34, 30, 0, 28, 14, 26, 12, 14, 31, 13, 36, 15, 29, 23, 31, 26, 36, 21, 16, 30, 31, 20, 17, 19, 32, 16, 17, 35, 4, 27, 5, 16, 15, 15, 32, 27, 14, 34, 19, 35, 30, 21, 43, 13, 15, 23, 7, 8
            |42, 42, 50, 27, 12, 44, 44, 35, 5, 11, 25, 40, 31, 13, 4, 28, 0, 18, 8, 22, 28, 45, 23, 32, 42, 49, 23, 43, 12, 19, 30, 21, 27, 8, 21, 40, 10, 52, 43, 44, 28, 30, 15, 27, 34, 27, 14, 19, 13, 16, 42, 44, 48, 17, 13, 28, 21, 21, 6, 34, 24
            |27, 23, 32, 9, 7, 26, 28, 25, 13, 27, 7, 22, 22, 20, 22, 14, 18, 0, 21, 17, 24, 28, 4, 23, 29, 31, 10, 26, 12, 21, 13, 20, 17, 25, 23, 22, 9, 34, 30, 27, 22, 18, 25, 17, 15, 9, 12, 18, 24, 14, 27, 33, 31, 15, 19, 28, 2, 19, 13, 21, 7
            |40, 42, 52, 28, 15, 46, 43, 41, 10, 6, 26, 43, 37, 20, 6, 26, 8, 21, 0, 17, 23, 49, 25, 38, 39, 51, 28, 47, 18, 27, 34, 16, 33, 5, 14, 41, 13, 54, 40, 43, 35, 27, 7, 24, 35, 30, 12, 26, 5, 12, 47, 39, 51, 24, 6, 36, 23, 15, 10, 31, 24
            |24, 31, 43, 19, 17, 37, 28, 42, 19, 22, 17, 35, 40, 31, 23, 12, 22, 17, 17, 0, 7, 42, 19, 41, 22, 40, 28, 41, 25, 35, 29, 4, 34, 22, 8, 29, 16, 44, 24, 28, 39, 11, 16, 8, 27, 23, 8, 33, 16, 6, 43, 22, 45, 30, 11, 44, 18, 3, 19, 15, 15
            |22, 33, 46, 23, 24, 40, 27, 48, 26, 27, 22, 38, 46, 38, 29, 14, 28, 24, 23, 7, 0, 46, 25, 47, 19, 43, 34, 45, 32, 43, 34, 7, 41, 27, 10, 31, 23, 46, 21, 28, 46, 11, 20, 9, 30, 28, 15, 40, 21, 13, 48, 17, 49, 37, 16, 51, 24, 8, 26, 14, 20
            |33, 16, 8, 23, 34, 8, 29, 21, 40, 55, 25, 7, 23, 41, 49, 31, 45, 28, 49, 42, 46, 0, 24, 23, 37, 12, 23, 3, 35, 37, 15, 45, 23, 52, 49, 17, 36, 11, 37, 26, 27, 35, 53, 36, 15, 19, 39, 34, 52, 41, 9, 45, 4, 33, 47, 37, 26, 44, 40, 34, 27
            |24, 19, 28, 5, 11, 21, 25, 24, 18, 31, 4, 18, 22, 24, 26, 13, 23, 4, 25, 19, 25, 24, 0, 23, 27, 27, 11, 23, 16, 24, 10, 22, 17, 29, 25, 18, 13, 29, 27, 23, 23, 17, 29, 17, 11, 5, 15, 21, 28, 17, 24, 32, 27, 18, 23, 30, 2, 21, 17, 19, 5
            |45, 32, 31, 26, 25, 28, 43, 3, 28, 43, 26, 23, 1, 23, 36, 36, 32, 23, 38, 41, 47, 23, 23, 0, 48, 33, 13, 20, 21, 17, 16, 43, 6, 41, 45, 32, 27, 34, 48, 41, 5, 40, 45, 39, 24, 21, 34, 14, 43, 36, 15, 54, 23, 15, 40, 14, 23, 42, 28, 41, 28
            |5, 21, 34, 22, 34, 30, 10, 48, 39, 45, 23, 31, 47, 49, 44, 15, 42, 29, 39, 22, 19, 37, 27, 48, 0, 30, 37, 38, 41, 51, 32, 25, 43, 44, 29, 21, 34, 33, 1, 12, 49, 12, 38, 15, 25, 27, 28, 47, 39, 27, 43, 8, 41, 44, 33, 57, 28, 25, 38, 8, 22
            |25, 10, 4, 23, 38, 6, 20, 32, 44, 57, 25, 11, 33, 48, 53, 29, 49, 31, 51, 40, 43, 12, 27, 33, 30, 0, 30, 14, 41, 46, 21, 44, 32, 56, 48, 11, 40, 3, 29, 18, 37, 31, 54, 34, 16, 22, 40, 42, 54, 41, 21, 38, 15, 40, 48, 47, 29, 43, 44, 29, 27
            |34, 25, 29, 15, 13, 24, 34, 14, 18, 34, 14, 19, 12, 18, 27, 23, 23, 10, 28, 28, 34, 23, 11, 13, 37, 30, 0, 21, 12, 16, 9, 30, 7, 31, 33, 24, 16, 32, 37, 32, 12, 28, 34, 27, 16, 11, 22, 12, 32, 24, 19, 42, 25, 10, 28, 20, 10, 29, 18, 30, 16
            |34, 17, 11, 22, 32, 10, 30, 18, 38, 53, 24, 7, 20, 39, 47, 31, 43, 26, 47, 41, 45, 3, 23, 20, 38, 14, 21, 0, 33, 35, 13, 44, 20, 51, 48, 18, 34, 14, 38, 28, 24, 35, 52, 36, 15, 18, 38, 31, 51, 40, 7, 46, 4, 30, 46, 34, 25, 43, 38, 34, 26
            |39, 35, 41, 21, 8, 35, 40, 23, 8, 23, 19, 30, 20, 8, 15, 26, 12, 12, 18, 25, 32, 35, 16, 21, 41, 41, 12, 33, 0, 11, 21, 26, 15, 20, 27, 33, 9, 43, 41, 39, 17, 30, 25, 27, 26, 19, 17, 9, 23, 19, 31, 44, 37, 6, 21, 19, 14, 25, 8, 33, 19
            |48, 41, 44, 29, 18, 39, 49, 20, 17, 30, 28, 35, 16, 7, 22, 36, 19, 21, 27, 35, 43, 37, 24, 17, 51, 46, 16, 35, 11, 0, 25, 37, 14, 27, 38, 40, 19, 47, 51, 47, 12, 40, 34, 38, 32, 26, 28, 4, 32, 30, 31, 55, 38, 6, 30, 9, 23, 36, 18, 43, 29
            |28, 16, 20, 11, 19, 15, 27, 16, 25, 40, 12, 10, 16, 28, 34, 21, 30, 13, 34, 29, 34, 15, 10, 16, 32, 21, 9, 13, 21, 25, 0, 32, 13, 38, 36, 16, 21, 22, 32, 25, 18, 25, 39, 25, 8, 6, 25, 21, 38, 27, 14, 39, 17, 19, 33, 28, 12, 31, 25, 26, 14
            |27, 34, 47, 22, 19, 40, 31, 45, 20, 20, 21, 38, 42, 32, 22, 16, 21, 20, 16, 4, 7, 45, 22, 43, 25, 44, 30, 44, 26, 37, 32, 0, 37, 20, 4, 33, 17, 47, 26, 31, 41, 14, 13, 11, 30, 26, 9, 34, 14, 7, 46, 24, 49, 32, 9, 45, 21, 1, 19, 18, 19
            |40, 29, 30, 21, 19, 26, 39, 8, 23, 38, 21, 21, 5, 19, 30, 30, 27, 17, 33, 34, 41, 23, 17, 6, 43, 32, 7, 20, 15, 14, 13, 37, 0, 35, 39, 28, 21, 33, 43, 37, 6, 34, 39, 34, 21, 16, 28, 11, 37, 30, 16, 49, 24, 11, 34, 15, 17, 36, 23, 36, 22
            |45, 47, 57, 32, 18, 50, 48, 43, 13, 3, 30, 47, 40, 20, 5, 31, 8, 25, 5, 22, 27, 52, 29, 41, 44, 56, 31, 51, 20, 27, 38, 20, 35, 0, 18, 46, 16, 58, 45, 48, 37, 32, 9, 29, 40, 34, 17, 27, 7, 17, 50, 44, 55, 25, 11, 36, 27, 20, 13, 36, 29
            |31, 39, 51, 26, 21, 44, 35, 47, 20, 17, 24, 42, 44, 32, 20, 20, 21, 23, 14, 8, 10, 49, 25, 45, 29, 48, 33, 48, 27, 38, 36, 4, 39, 18, 0, 37, 19, 51, 30, 36, 43, 19, 10, 16, 34, 30, 11, 36, 11, 9, 50, 27, 52, 33, 8, 47, 24, 5, 20, 22, 22
            |16, 1, 14, 13, 29, 9, 12, 31, 35, 47, 16, 11, 31, 41, 43, 17, 40, 22, 41, 29, 31, 17, 18, 32, 21, 11, 24, 18, 33, 40, 16, 33, 28, 46, 37, 0, 30, 14, 20, 10, 34, 20, 44, 22, 8, 14, 30, 36, 43, 30, 24, 28, 21, 34, 38, 44, 20, 32, 35, 18, 17
            |33, 32, 40, 17, 2, 34, 35, 29, 5, 19, 15, 30, 26, 15, 13, 19, 10, 9, 13, 16, 23, 36, 13, 27, 34, 40, 16, 34, 9, 19, 21, 17, 21, 16, 19, 30, 0, 42, 35, 34, 24, 22, 18, 20, 24, 18, 9, 17, 17, 11, 34, 37, 39, 14, 13, 28, 11, 17, 4, 26, 14
            |28, 13, 3, 26, 40, 8, 23, 32, 47, 60, 28, 13, 34, 50, 55, 32, 52, 34, 54, 44, 46, 11, 29, 34, 33, 3, 32, 14, 43, 47, 22, 47, 33, 58, 51, 14, 42, 0, 32, 21, 38, 35, 57, 37, 18, 24, 43, 43, 57, 44, 21, 41, 14, 42, 51, 48, 31, 46, 46, 32, 30
            |4, 21, 33, 22, 34, 29, 9, 48, 39, 46, 23, 30, 47, 49, 45, 16, 43, 30, 40, 24, 21, 37, 27, 48, 1, 29, 37, 38, 41, 51, 32, 26, 43, 45, 30, 20, 35, 32, 0, 11, 49, 13, 40, 16, 24, 27, 29, 47, 40, 28, 43, 9, 41, 45, 35, 57, 28, 26, 38, 9, 22
            |7, 10, 22, 18, 33, 18, 2, 41, 39, 49, 20, 21, 40, 47, 46, 17, 44, 27, 43, 28, 28, 26, 23, 41, 12, 18, 32, 28, 39, 47, 25, 31, 37, 48, 36, 10, 34, 21, 11, 0, 43, 17, 44, 20, 17, 21, 31, 43, 44, 31, 34, 20, 30, 41, 38, 52, 25, 31, 38, 13, 20
            |46, 35, 35, 27, 23, 31, 45, 8, 25, 40, 26, 26, 4, 18, 32, 35, 28, 22, 35, 39, 46, 27, 23, 5, 49, 37, 12, 24, 17, 12, 18, 41, 6, 37, 43, 34, 24, 38, 49, 43, 0, 40, 42, 39, 26, 22, 32, 10, 40, 34, 19, 54, 27, 11, 37, 10, 22, 40, 25, 42, 28
            |13, 22, 34, 14, 22, 29, 17, 41, 27, 33, 14, 28, 39, 37, 32, 4, 30, 18, 27, 11, 11, 35, 17, 40, 12, 31, 28, 35, 30, 40, 25, 14, 34, 32, 19, 20, 22, 35, 13, 17, 40, 0, 27, 3, 20, 19, 16, 36, 28, 15, 39, 15, 39, 34, 22, 47, 18, 14, 26, 4, 12
            |40, 45, 56, 31, 21, 50, 44, 47, 17, 8, 29, 47, 44, 28, 13, 27, 15, 25, 7, 16, 20, 53, 29, 45, 38, 54, 34, 52, 25, 34, 39, 13, 39, 9, 10, 44, 18, 57, 40, 44, 42, 27, 0, 24, 39, 34, 14, 33, 2, 13, 52, 37, 56, 31, 6, 43, 27, 14, 17, 31, 28
            |16, 24, 36, 14, 20, 30, 20, 40, 24, 30, 14, 29, 38, 35, 29, 5, 27, 17, 24, 8, 9, 36, 17, 39, 15, 34, 27, 36, 27, 38, 25, 11, 34, 29, 16, 22, 20, 37, 16, 20, 39, 3, 24, 0, 21, 19, 13, 35, 24, 12, 39, 17, 40, 32, 19, 45, 17, 11, 23, 7, 12
            |21, 9, 17, 8, 22, 11, 19, 24, 29, 42, 10, 8, 24, 33, 37, 16, 34, 15, 35, 27, 30, 15, 11, 24, 25, 16, 16, 15, 26, 32, 8, 30, 21, 40, 34, 8, 24, 18, 24, 17, 26, 20, 39, 21, 0, 6, 25, 28, 38, 26, 19, 32, 19, 26, 33, 36, 13, 29, 28, 20, 12
            |24, 15, 23, 5, 16, 16, 23, 22, 22, 36, 6, 13, 21, 27, 31, 15, 27, 9, 30, 23, 28, 19, 5, 21, 27, 22, 11, 18, 19, 26, 6, 26, 16, 34, 30, 14, 18, 24, 27, 21, 22, 19, 34, 19, 6, 0, 20, 22, 33, 22, 20, 33, 22, 20, 28, 31, 7, 25, 22, 20, 8
            |28, 31, 42, 17, 10, 36, 31, 36, 12, 18, 15, 33, 33, 23, 16, 15, 14, 12, 12, 8, 15, 39, 15, 34, 28, 40, 22, 38, 17, 28, 25, 9, 28, 17, 11, 30, 9, 43, 29, 31, 32, 16, 14, 13, 25, 20, 0, 26, 13, 2, 39, 29, 43, 23, 8, 36, 14, 8, 11, 20, 13
            |45, 37, 41, 26, 16, 36, 45, 17, 16, 30, 24, 31, 14, 9, 22, 32, 19, 18, 26, 33, 40, 34, 21, 14, 47, 42, 12, 31, 9, 4, 21, 34, 11, 27, 36, 36, 17, 43, 47, 43, 10, 36, 33, 35, 28, 22, 26, 0, 31, 28, 27, 51, 34, 3, 29, 11, 19, 34, 16, 39, 25
            |40, 45, 55, 30, 19, 49, 44, 46, 15, 6, 28, 46, 42, 25, 11, 27, 13, 24, 5, 16, 21, 52, 28, 43, 39, 54, 32, 51, 23, 32, 38, 14, 37, 7, 11, 43, 17, 57, 40, 44, 40, 28, 2, 24, 38, 33, 13, 31, 0, 13, 51, 38, 55, 29, 6, 41, 26, 14, 15, 32, 27
            |28, 32, 43, 18, 12, 37, 31, 38, 14, 18, 16, 34, 36, 25, 17, 14, 16, 14, 12, 6, 13, 41, 17, 36, 27, 41, 24, 40, 19, 30, 27, 7, 30, 17, 9, 30, 11, 44, 28, 31, 34, 15, 13, 12, 26, 22, 2, 28, 13, 0, 41, 28, 44, 25, 7, 39, 15, 6, 13, 19, 14
            |39, 23, 18, 25, 32, 16, 36, 12, 37, 52, 26, 13, 15, 35, 45, 34, 42, 27, 47, 43, 48, 9, 24, 15, 43, 21, 19, 7, 31, 31, 14, 46, 16, 50, 50, 24, 34, 21, 43, 34, 19, 39, 52, 39, 19, 20, 39, 27, 51, 41, 0, 51, 8, 27, 46, 29, 25, 45, 37, 39, 28
            |13, 29, 42, 28, 37, 37, 18, 55, 41, 44, 28, 39, 53, 52, 45, 19, 44, 33, 39, 22, 17, 45, 32, 54, 8, 38, 42, 46, 44, 55, 39, 24, 49, 44, 27, 28, 37, 41, 9, 20, 54, 15, 37, 17, 32, 33, 29, 51, 38, 28, 51, 0, 49, 49, 33, 62, 33, 24, 40, 13, 27
            |37, 20, 11, 27, 37, 12, 33, 20, 43, 57, 28, 11, 23, 42, 51, 35, 48, 31, 51, 45, 49, 4, 27, 23, 41, 15, 25, 4, 37, 38, 17, 49, 24, 55, 52, 21, 39, 14, 41, 30, 27, 39, 56, 40, 19, 22, 43, 34, 55, 44, 8, 49, 0, 34, 50, 37, 29, 48, 42, 38, 30
            |42, 35, 39, 23, 13, 34, 42, 18, 14, 28, 22, 29, 14, 9, 21, 30, 17, 15, 24, 30, 37, 33, 18, 15, 44, 40, 10, 30, 6, 6, 19, 32, 11, 25, 33, 34, 14, 42, 45, 41, 11, 34, 31, 32, 26, 20, 23, 3, 29, 25, 27, 49, 34, 0, 27, 14, 17, 31, 14, 36, 22
            |34, 39, 50, 25, 15, 43, 38, 42, 13, 11, 23, 40, 39, 25, 13, 21, 13, 19, 6, 11, 16, 47, 23, 40, 33, 48, 28, 46, 21, 30, 33, 9, 34, 11, 8, 38, 13, 51, 35, 38, 37, 22, 6, 19, 33, 28, 8, 29, 6, 7, 46, 33, 50, 27, 0, 40, 21, 9, 13, 26, 21
            |54, 44, 45, 35, 27, 41, 54, 17, 27, 39, 34, 36, 14, 16, 31, 43, 28, 28, 36, 44, 51, 37, 30, 14, 57, 47, 20, 34, 19, 9, 28, 45, 15, 36, 47, 44, 28, 48, 57, 52, 10, 47, 43, 45, 36, 31, 36, 11, 41, 39, 29, 62, 37, 14, 40, 0, 29, 44, 27, 49, 35
            |26, 21, 30, 7, 9, 23, 26, 24, 16, 29, 5, 20, 22, 22, 24, 13, 21, 2, 23, 18, 24, 26, 2, 23, 28, 29, 10, 25, 14, 23, 12, 21, 17, 27, 24, 20, 11, 31, 28, 25, 22, 18, 27, 17, 13, 7, 14, 19, 26, 15, 25, 33, 29, 17, 21, 29, 0, 20, 15, 20, 6
            |26, 34, 46, 21, 18, 39, 31, 44, 19, 20, 20, 37, 41, 31, 21, 15, 21, 19, 15, 3, 8, 44, 21, 42, 25, 43, 29, 43, 25, 36, 31, 1, 36, 20, 5, 32, 17, 46, 26, 31, 40, 14, 14, 11, 29, 25, 8, 34, 14, 6, 45, 24, 48, 31, 9, 44, 20, 0, 18, 18, 18
            |37, 36, 44, 21, 6, 38, 39, 31, 1, 16, 19, 34, 27, 13, 9, 23, 6, 13, 10, 19, 26, 40, 17, 28, 38, 44, 18, 38, 8, 18, 25, 19, 23, 13, 20, 35, 4, 46, 38, 38, 25, 26, 17, 23, 28, 22, 11, 16, 15, 13, 37, 40, 42, 14, 13, 27, 15, 18, 0, 29, 18
            |9, 19, 33, 15, 25, 27, 13, 42, 30, 37, 16, 27, 41, 40, 36, 7, 34, 21, 31, 15, 14, 34, 19, 41, 8, 29, 30, 34, 33, 43, 26, 18, 36, 36, 22, 18, 26, 32, 9, 13, 42, 4, 31, 7, 20, 20, 20, 39, 32, 19, 39, 13, 38, 36, 26, 49, 20, 18, 29, 0, 14
            |20, 18, 29, 4, 13, 22, 21, 29, 19, 31, 2, 20, 27, 27, 27, 8, 24, 7, 24, 15, 20, 27, 5, 28, 22, 27, 16, 26, 19, 29, 14, 19, 22, 29, 22, 17, 14, 30, 22, 20, 28, 12, 28, 12, 12, 8, 13, 25, 27, 14, 28, 27, 30, 22, 21, 35, 6, 18, 18, 14, 0|];