% n60w120.005    19.28 638
n = 61;
duration = [|0, 28, 54, 36, 40, 27, 24, 31, 7, 14, 31, 12, 20, 7, 19, 25, 41, 28, 6, 45, 34, 43, 28, 39, 11, 40, 15, 17, 34, 33, 35, 19, 43, 29, 36, 7, 9, 43, 41, 16, 48, 21, 13, 28, 36, 41, 30, 31, 37, 39, 22, 17, 37, 28, 12, 37, 35, 18, 50, 39, 24
            |28, 0, 32, 30, 17, 41, 15, 26, 36, 29, 35, 40, 26, 34, 12, 13, 41, 10, 24, 25, 39, 20, 5, 47, 40, 18, 23, 12, 29, 27, 9, 34, 18, 26, 25, 33, 22, 33, 35, 21, 27, 28, 28, 42, 35, 24, 3, 32, 10, 20, 22, 29, 9, 1, 31, 44, 9, 13, 30, 11, 16
            |54, 32, 0, 26, 15, 49, 47, 28, 60, 46, 37, 66, 39, 61, 36, 45, 34, 42, 48, 8, 39, 13, 37, 46, 63, 14, 40, 39, 27, 26, 36, 47, 15, 30, 22, 60, 45, 21, 25, 53, 6, 39, 46, 49, 32, 13, 29, 33, 22, 15, 34, 44, 32, 33, 49, 44, 36, 45, 4, 24, 49
            |36, 30, 26, 0, 22, 24, 41, 5, 40, 24, 11, 47, 16, 43, 23, 40, 11, 39, 31, 19, 14, 22, 34, 21, 42, 20, 21, 27, 1, 3, 38, 23, 26, 6, 5, 43, 28, 7, 6, 42, 21, 16, 24, 23, 7, 14, 28, 8, 26, 16, 14, 21, 36, 29, 27, 19, 38, 36, 22, 31, 43
            |40, 17, 15, 22, 0, 42, 32, 21, 47, 35, 31, 52, 29, 47, 22, 31, 33, 27, 35, 8, 35, 2, 22, 43, 50, 1, 29, 25, 22, 20, 22, 38, 4, 22, 16, 47, 32, 21, 24, 38, 10, 29, 35, 42, 29, 9, 14, 27, 8, 6, 24, 33, 19, 18, 38, 40, 22, 30, 12, 11, 34
            |27, 41, 49, 24, 42, 0, 45, 21, 27, 14, 13, 33, 15, 32, 30, 46, 21, 47, 26, 42, 12, 43, 44, 13, 27, 41, 19, 32, 22, 24, 51, 9, 46, 20, 28, 33, 24, 30, 27, 41, 44, 14, 16, 1, 19, 37, 41, 16, 44, 37, 20, 13, 50, 40, 16, 11, 51, 39, 46, 48, 47
            |24, 15, 47, 41, 32, 45, 0, 36, 30, 31, 43, 32, 32, 27, 18, 2, 51, 6, 21, 40, 47, 34, 10, 54, 34, 33, 26, 14, 40, 38, 15, 37, 32, 36, 38, 25, 22, 46, 47, 9, 42, 33, 30, 46, 45, 38, 18, 41, 25, 34, 29, 33, 18, 14, 31, 51, 15, 6, 44, 25, 2
            |31, 26, 28, 5, 21, 21, 36, 0, 35, 19, 10, 42, 11, 38, 19, 36, 14, 35, 26, 21, 14, 22, 31, 22, 37, 20, 16, 23, 4, 3, 35, 19, 25, 1, 7, 38, 23, 12, 11, 37, 23, 11, 19, 21, 9, 16, 25, 6, 25, 16, 9, 16, 33, 26, 23, 19, 35, 31, 25, 29, 38
            |7, 36, 60, 40, 47, 27, 30, 35, 0, 17, 34, 6, 24, 5, 26, 32, 44, 35, 13, 52, 36, 49, 36, 40, 4, 47, 20, 24, 39, 38, 42, 20, 50, 34, 41, 7, 15, 47, 46, 22, 54, 25, 16, 28, 40, 47, 38, 35, 44, 45, 27, 20, 44, 35, 13, 38, 42, 25, 57, 47, 30
            |14, 29, 46, 24, 35, 14, 31, 19, 17, 0, 17, 23, 8, 20, 17, 32, 27, 34, 12, 38, 20, 37, 32, 25, 18, 35, 7, 18, 22, 22, 38, 6, 39, 18, 25, 21, 10, 31, 29, 27, 40, 8, 1, 15, 23, 33, 30, 18, 34, 32, 12, 3, 38, 28, 4, 23, 38, 25, 42, 38, 33
            |31, 35, 37, 11, 31, 13, 43, 10, 34, 17, 0, 40, 11, 37, 25, 43, 10, 43, 27, 30, 4, 32, 39, 12, 35, 30, 18, 28, 10, 12, 44, 14, 36, 9, 16, 38, 25, 17, 14, 41, 32, 10, 18, 12, 6, 25, 34, 4, 35, 26, 14, 14, 43, 34, 20, 9, 44, 37, 34, 39, 44
            |12, 40, 66, 47, 52, 33, 32, 42, 6, 23, 40, 0, 30, 5, 31, 34, 50, 38, 18, 57, 42, 55, 39, 46, 6, 52, 26, 28, 45, 44, 46, 26, 55, 40, 47, 7, 21, 54, 52, 23, 60, 31, 22, 34, 46, 53, 42, 41, 49, 51, 33, 26, 48, 39, 20, 44, 46, 28, 62, 51, 32
            |20, 26, 39, 16, 29, 15, 32, 11, 24, 8, 11, 30, 0, 27, 15, 33, 21, 33, 16, 30, 15, 30, 30, 22, 26, 28, 6, 18, 15, 14, 36, 9, 32, 10, 18, 27, 13, 23, 22, 30, 33, 1, 8, 15, 16, 26, 26, 11, 29, 25, 5, 5, 35, 25, 11, 19, 36, 26, 35, 33, 34
            |7, 34, 61, 43, 47, 32, 27, 38, 5, 20, 37, 5, 27, 0, 25, 29, 47, 32, 13, 52, 40, 50, 34, 44, 8, 47, 22, 23, 41, 40, 40, 24, 50, 36, 43, 2, 16, 50, 48, 18, 55, 28, 19, 33, 43, 49, 37, 38, 43, 46, 29, 23, 42, 34, 17, 42, 40, 23, 57, 46, 27
            |19, 12, 36, 23, 22, 30, 18, 19, 26, 17, 25, 31, 15, 25, 0, 18, 33, 18, 13, 27, 29, 24, 15, 37, 29, 22, 10, 4, 23, 20, 21, 22, 24, 18, 21, 25, 11, 29, 29, 19, 30, 16, 16, 30, 27, 24, 13, 23, 18, 21, 11, 17, 21, 11, 19, 34, 21, 12, 32, 22, 20
            |25, 13, 45, 40, 31, 46, 2, 36, 32, 32, 43, 34, 33, 29, 18, 0, 51, 4, 22, 38, 47, 33, 9, 55, 36, 31, 27, 15, 40, 37, 13, 38, 31, 36, 37, 27, 23, 45, 46, 12, 41, 34, 31, 47, 45, 37, 16, 41, 23, 33, 29, 33, 16, 13, 33, 52, 13, 8, 43, 23, 4
            |41, 41, 34, 11, 33, 21, 51, 14, 44, 27, 10, 50, 21, 47, 33, 51, 0, 49, 37, 29, 9, 33, 45, 12, 45, 31, 27, 36, 11, 14, 50, 24, 37, 15, 17, 48, 34, 13, 9, 50, 30, 20, 28, 20, 5, 24, 39, 10, 38, 27, 22, 24, 47, 40, 31, 11, 50, 45, 31, 42, 52
            |28, 10, 42, 39, 27, 47, 6, 35, 35, 34, 43, 38, 33, 32, 18, 4, 49, 0, 25, 35, 47, 29, 5, 54, 39, 28, 27, 15, 38, 36, 9, 39, 27, 35, 35, 31, 24, 43, 44, 16, 37, 34, 32, 47, 44, 34, 13, 40, 19, 30, 29, 34, 12, 10, 34, 52, 9, 10, 39, 19, 8
            |6, 24, 48, 31, 35, 26, 21, 26, 13, 12, 27, 18, 16, 13, 13, 22, 37, 25, 0, 40, 31, 37, 24, 37, 16, 35, 10, 11, 30, 28, 31, 17, 37, 25, 30, 13, 3, 38, 37, 16, 43, 17, 10, 27, 32, 36, 25, 27, 31, 33, 16, 14, 32, 23, 11, 34, 31, 15, 45, 34, 22
            |45, 25, 8, 19, 8, 42, 40, 21, 52, 38, 30, 57, 30, 52, 27, 38, 29, 35, 40, 0, 33, 6, 30, 40, 55, 7, 32, 31, 20, 18, 30, 39, 10, 22, 14, 52, 37, 16, 20, 45, 3, 31, 37, 42, 26, 5, 22, 26, 16, 6, 26, 35, 27, 25, 41, 38, 30, 37, 5, 19, 42
            |34, 39, 39, 14, 35, 12, 47, 14, 36, 20, 4, 42, 15, 40, 29, 47, 9, 47, 31, 33, 0, 36, 43, 8, 37, 34, 22, 32, 13, 15, 48, 16, 39, 13, 19, 41, 28, 19, 15, 45, 35, 14, 21, 11, 7, 28, 38, 8, 38, 29, 18, 17, 47, 38, 23, 5, 48, 41, 36, 43, 49
            |43, 20, 13, 22, 2, 43, 34, 22, 49, 37, 32, 55, 30, 50, 24, 33, 33, 29, 37, 6, 36, 0, 24, 43, 52, 2, 30, 27, 23, 20, 24, 39, 4, 23, 16, 49, 34, 21, 24, 40, 8, 31, 36, 43, 29, 9, 16, 28, 10, 6, 25, 35, 20, 20, 40, 41, 24, 32, 10, 13, 36
            |28, 5, 37, 34, 22, 44, 10, 31, 36, 32, 39, 39, 30, 34, 15, 9, 45, 5, 24, 30, 43, 24, 0, 51, 39, 23, 25, 13, 34, 31, 7, 37, 22, 31, 30, 32, 23, 38, 40, 18, 32, 31, 30, 45, 40, 29, 8, 36, 15, 25, 26, 32, 9, 5, 33, 48, 7, 11, 34, 14, 12
            |39, 47, 46, 21, 43, 13, 54, 22, 40, 25, 12, 46, 22, 44, 37, 55, 12, 54, 37, 40, 8, 43, 51, 0, 40, 41, 28, 40, 21, 23, 56, 20, 47, 21, 27, 46, 34, 25, 21, 52, 42, 21, 27, 12, 14, 35, 46, 16, 47, 37, 25, 23, 55, 46, 28, 3, 56, 48, 43, 51, 56
            |11, 40, 63, 42, 50, 27, 34, 37, 4, 18, 35, 6, 26, 8, 29, 36, 45, 39, 16, 55, 37, 52, 39, 40, 0, 50, 23, 28, 41, 40, 46, 21, 53, 36, 43, 10, 18, 49, 47, 26, 57, 26, 18, 28, 41, 50, 41, 36, 47, 48, 29, 21, 48, 39, 15, 38, 46, 29, 59, 50, 34
            |40, 18, 14, 20, 1, 41, 33, 20, 47, 35, 30, 52, 28, 47, 22, 31, 31, 28, 35, 7, 34, 2, 23, 41, 50, 0, 28, 25, 21, 18, 24, 37, 5, 21, 15, 47, 32, 20, 23, 38, 9, 29, 34, 41, 28, 8, 15, 26, 9, 4, 23, 33, 20, 18, 38, 39, 24, 30, 11, 13, 35
            |15, 23, 40, 21, 29, 19, 26, 16, 20, 7, 18, 26, 6, 22, 10, 27, 27, 27, 10, 32, 22, 30, 25, 28, 23, 28, 0, 12, 20, 18, 32, 12, 32, 15, 21, 22, 7, 28, 27, 24, 35, 8, 6, 20, 22, 28, 23, 17, 27, 26, 7, 7, 32, 22, 9, 26, 32, 20, 37, 31, 28
            |17, 12, 39, 27, 25, 32, 14, 23, 24, 18, 28, 28, 18, 23, 4, 15, 36, 15, 11, 31, 32, 27, 13, 40, 28, 25, 12, 0, 26, 24, 20, 24, 27, 22, 25, 22, 10, 33, 33, 15, 34, 19, 17, 32, 31, 28, 14, 26, 20, 25, 15, 19, 21, 11, 19, 37, 20, 9, 36, 23, 16
            |34, 29, 27, 1, 22, 22, 40, 4, 39, 22, 10, 45, 15, 41, 23, 40, 11, 38, 30, 20, 13, 23, 34, 21, 41, 21, 20, 26, 0, 3, 38, 22, 26, 5, 6, 42, 26, 9, 7, 41, 22, 14, 23, 22, 7, 15, 28, 6, 27, 16, 13, 19, 36, 29, 26, 18, 38, 35, 24, 31, 42
            |33, 27, 26, 3, 20, 24, 38, 3, 38, 22, 12, 44, 14, 40, 20, 37, 14, 36, 28, 18, 15, 20, 31, 23, 40, 18, 18, 24, 3, 0, 35, 22, 24, 4, 4, 40, 25, 9, 9, 39, 21, 14, 22, 24, 9, 13, 25, 8, 24, 14, 12, 19, 33, 26, 26, 21, 35, 33, 22, 28, 40
            |35, 9, 36, 38, 22, 51, 15, 35, 42, 38, 44, 46, 36, 40, 21, 13, 50, 9, 31, 30, 48, 24, 7, 56, 46, 24, 32, 20, 38, 35, 0, 43, 21, 35, 34, 39, 30, 41, 43, 24, 32, 37, 37, 51, 45, 31, 11, 41, 14, 27, 31, 38, 4, 10, 40, 54, 0, 18, 34, 12, 16
            |19, 34, 47, 23, 38, 9, 37, 19, 20, 6, 14, 26, 9, 24, 22, 38, 24, 39, 17, 39, 16, 39, 37, 20, 21, 37, 12, 24, 22, 22, 43, 0, 42, 18, 26, 25, 16, 30, 28, 33, 42, 9, 7, 9, 21, 34, 35, 16, 38, 34, 14, 5, 43, 33, 7, 18, 43, 31, 44, 42, 38
            |43, 18, 15, 26, 4, 46, 32, 25, 50, 39, 36, 55, 32, 50, 24, 31, 37, 27, 37, 10, 39, 4, 22, 47, 53, 5, 32, 27, 26, 24, 21, 42, 0, 26, 20, 49, 35, 25, 28, 39, 11, 33, 38, 46, 33, 13, 15, 32, 8, 10, 27, 37, 17, 18, 41, 44, 21, 31, 13, 9, 34
            |29, 26, 30, 6, 22, 20, 36, 1, 34, 18, 9, 40, 10, 36, 18, 36, 15, 35, 25, 22, 13, 23, 31, 21, 36, 21, 15, 22, 5, 4, 35, 18, 26, 0, 8, 37, 21, 13, 12, 36, 24, 10, 18, 20, 9, 17, 25, 6, 25, 17, 8, 15, 34, 25, 21, 19, 35, 30, 26, 30, 38
            |36, 25, 22, 5, 16, 28, 38, 7, 41, 25, 16, 47, 18, 43, 21, 37, 17, 35, 30, 14, 19, 16, 30, 27, 43, 15, 21, 25, 6, 4, 34, 26, 20, 8, 0, 43, 27, 8, 9, 40, 16, 18, 25, 28, 13, 9, 23, 12, 21, 10, 14, 23, 31, 25, 29, 24, 34, 33, 18, 26, 40
            |7, 33, 60, 43, 47, 33, 25, 38, 7, 21, 38, 7, 27, 2, 25, 27, 48, 31, 13, 52, 41, 49, 32, 46, 10, 47, 22, 22, 42, 40, 39, 25, 49, 37, 43, 0, 16, 50, 49, 16, 55, 28, 20, 34, 43, 48, 36, 38, 42, 46, 29, 24, 41, 32, 18, 43, 39, 21, 57, 44, 25
            |9, 22, 45, 28, 32, 24, 22, 23, 15, 10, 25, 21, 13, 16, 11, 23, 34, 24, 3, 37, 28, 34, 23, 34, 18, 32, 7, 10, 26, 25, 30, 16, 35, 21, 27, 16, 0, 34, 34, 17, 40, 14, 8, 25, 29, 33, 24, 24, 29, 30, 13, 12, 31, 21, 10, 32, 30, 15, 42, 32, 23
            |43, 33, 21, 7, 21, 30, 46, 12, 47, 31, 17, 54, 23, 50, 29, 45, 13, 43, 38, 16, 19, 21, 38, 25, 49, 20, 28, 33, 9, 9, 41, 30, 25, 13, 8, 50, 34, 0, 4, 48, 17, 23, 31, 30, 12, 12, 31, 14, 28, 16, 21, 28, 38, 33, 35, 23, 41, 41, 18, 32, 48
            |41, 35, 25, 6, 24, 27, 47, 11, 46, 29, 14, 52, 22, 48, 29, 46, 9, 44, 37, 20, 15, 24, 40, 21, 47, 23, 27, 33, 7, 9, 43, 28, 28, 12, 9, 49, 34, 4, 0, 48, 21, 21, 30, 26, 8, 16, 33, 11, 30, 19, 20, 26, 41, 34, 33, 19, 43, 42, 22, 35, 49
            |16, 21, 53, 42, 38, 41, 9, 37, 22, 27, 41, 23, 30, 18, 19, 12, 50, 16, 16, 45, 45, 40, 18, 52, 26, 38, 24, 15, 41, 39, 24, 33, 39, 36, 40, 16, 17, 48, 48, 0, 48, 31, 26, 42, 45, 42, 24, 40, 32, 39, 29, 29, 27, 21, 26, 49, 24, 8, 50, 33, 9
            |48, 27, 6, 21, 10, 44, 42, 23, 54, 40, 32, 60, 33, 55, 30, 41, 30, 37, 43, 3, 35, 8, 32, 42, 57, 9, 35, 34, 22, 21, 32, 42, 11, 24, 16, 55, 40, 17, 21, 48, 0, 34, 40, 44, 28, 8, 24, 28, 18, 9, 29, 38, 28, 28, 44, 40, 32, 40, 2, 20, 44
            |21, 28, 39, 16, 29, 14, 33, 11, 25, 8, 10, 31, 1, 28, 16, 34, 20, 34, 17, 31, 14, 31, 31, 21, 26, 29, 8, 19, 14, 14, 37, 9, 33, 10, 18, 28, 14, 23, 21, 31, 34, 0, 9, 14, 15, 26, 28, 10, 30, 25, 6, 5, 36, 27, 12, 18, 37, 27, 35, 34, 35
            |13, 28, 46, 24, 35, 16, 30, 19, 16, 1, 18, 22, 8, 19, 16, 31, 28, 32, 10, 37, 21, 36, 30, 27, 18, 34, 6, 17, 23, 22, 37, 7, 38, 18, 25, 20, 8, 31, 30, 26, 40, 9, 0, 16, 24, 33, 29, 19, 33, 31, 11, 4, 37, 27, 4, 24, 37, 24, 42, 37, 31
            |28, 42, 49, 23, 42, 1, 46, 21, 28, 15, 12, 34, 15, 33, 30, 47, 20, 47, 27, 42, 11, 43, 45, 12, 28, 41, 20, 32, 22, 24, 51, 9, 46, 20, 28, 34, 25, 30, 26, 42, 44, 14, 16, 0, 18, 37, 41, 16, 44, 37, 20, 13, 50, 41, 17, 10, 51, 40, 46, 48, 47
            |36, 35, 32, 7, 29, 19, 45, 9, 40, 23, 6, 46, 16, 43, 27, 45, 5, 44, 32, 26, 7, 29, 40, 14, 41, 28, 22, 31, 7, 9, 45, 21, 33, 9, 13, 43, 29, 12, 8, 45, 28, 15, 24, 18, 0, 21, 34, 5, 33, 23, 16, 20, 43, 35, 26, 12, 45, 40, 29, 38, 47
            |41, 24, 13, 14, 9, 37, 38, 16, 47, 33, 25, 53, 26, 49, 24, 37, 24, 34, 36, 5, 28, 9, 29, 35, 50, 8, 28, 28, 15, 13, 31, 34, 13, 17, 9, 48, 33, 12, 16, 42, 8, 26, 33, 37, 21, 0, 21, 21, 17, 4, 21, 31, 27, 24, 36, 33, 31, 35, 9, 20, 40
            |30, 3, 29, 28, 14, 41, 18, 25, 38, 30, 34, 42, 26, 37, 13, 16, 39, 13, 25, 22, 38, 16, 8, 46, 41, 15, 23, 14, 28, 25, 11, 35, 15, 25, 23, 36, 24, 31, 33, 24, 24, 28, 29, 41, 34, 21, 0, 31, 7, 17, 22, 29, 9, 4, 32, 43, 11, 16, 26, 9, 20
            |31, 32, 33, 8, 27, 16, 41, 6, 35, 18, 4, 41, 11, 38, 23, 41, 10, 40, 27, 26, 8, 28, 36, 16, 36, 26, 17, 26, 6, 8, 41, 16, 32, 6, 12, 38, 24, 14, 11, 40, 28, 10, 19, 16, 5, 21, 31, 0, 31, 22, 12, 15, 39, 31, 22, 13, 41, 35, 30, 35, 42
            |37, 10, 22, 26, 8, 44, 25, 25, 44, 34, 35, 49, 29, 43, 18, 23, 38, 19, 31, 16, 38, 10, 15, 47, 47, 9, 27, 20, 27, 24, 14, 38, 8, 25, 21, 42, 29, 28, 30, 32, 18, 30, 33, 44, 33, 17, 7, 31, 0, 13, 24, 33, 11, 11, 37, 44, 14, 24, 20, 4, 27
            |39, 20, 15, 16, 6, 37, 34, 16, 45, 32, 26, 51, 25, 46, 21, 33, 27, 30, 33, 6, 29, 6, 25, 37, 48, 4, 26, 25, 16, 14, 27, 34, 10, 17, 10, 46, 30, 16, 19, 39, 9, 25, 31, 37, 23, 4, 17, 22, 13, 0, 20, 30, 23, 20, 35, 35, 27, 31, 11, 16, 36
            |22, 22, 34, 14, 24, 20, 29, 9, 27, 12, 14, 33, 5, 29, 11, 29, 22, 29, 16, 26, 18, 25, 26, 25, 29, 23, 7, 15, 13, 12, 31, 14, 27, 8, 14, 29, 13, 21, 20, 29, 29, 6, 11, 20, 16, 21, 22, 12, 24, 20, 0, 9, 30, 21, 15, 23, 31, 23, 31, 28, 31
            |17, 29, 44, 21, 33, 13, 33, 16, 20, 3, 14, 26, 5, 23, 17, 33, 24, 34, 14, 35, 17, 35, 32, 23, 21, 33, 7, 19, 19, 19, 38, 5, 37, 15, 23, 24, 12, 28, 26, 29, 38, 5, 4, 13, 20, 31, 29, 15, 33, 30, 9, 0, 38, 28, 7, 20, 38, 26, 40, 37, 34
            |37, 9, 32, 36, 19, 50, 18, 33, 44, 38, 43, 48, 35, 42, 21, 16, 47, 12, 32, 27, 47, 20, 9, 55, 48, 20, 32, 21, 36, 33, 4, 43, 17, 34, 31, 41, 31, 38, 41, 27, 28, 36, 37, 50, 43, 27, 9, 39, 11, 23, 30, 38, 0, 10, 40, 52, 4, 20, 30, 8, 20
            |28, 1, 33, 29, 18, 40, 14, 26, 35, 28, 34, 39, 25, 34, 11, 13, 40, 10, 23, 25, 38, 20, 5, 46, 39, 18, 22, 11, 29, 26, 10, 33, 18, 25, 25, 32, 21, 33, 34, 21, 28, 27, 27, 41, 35, 24, 4, 31, 11, 20, 21, 28, 10, 0, 30, 43, 10, 13, 30, 12, 16
            |12, 31, 49, 27, 38, 16, 31, 23, 13, 4, 20, 20, 11, 17, 19, 33, 31, 34, 11, 41, 23, 40, 33, 28, 15, 38, 9, 19, 26, 26, 40, 7, 41, 21, 29, 18, 10, 35, 33, 26, 44, 12, 4, 17, 26, 36, 32, 22, 37, 35, 15, 7, 40, 30, 0, 25, 40, 25, 46, 40, 32
            |37, 44, 44, 19, 40, 11, 51, 19, 38, 23, 9, 44, 19, 42, 34, 52, 11, 52, 34, 38, 5, 41, 48, 3, 38, 39, 26, 37, 18, 21, 54, 18, 44, 19, 24, 43, 32, 23, 19, 49, 40, 18, 24, 10, 12, 33, 43, 13, 44, 35, 23, 20, 52, 43, 25, 0, 54, 45, 41, 48, 53
            |35, 9, 36, 38, 22, 51, 15, 35, 42, 38, 44, 46, 36, 40, 21, 13, 50, 9, 31, 30, 48, 24, 7, 56, 46, 24, 32, 20, 38, 35, 0, 43, 21, 35, 34, 39, 30, 41, 43, 24, 32, 37, 37, 51, 45, 31, 11, 41, 14, 27, 31, 38, 4, 10, 40, 54, 0, 18, 34, 12, 16
            |18, 13, 45, 36, 30, 39, 6, 31, 25, 25, 37, 28, 26, 23, 12, 8, 45, 10, 15, 37, 41, 32, 11, 48, 29, 30, 20, 9, 35, 33, 18, 31, 31, 30, 33, 21, 15, 41, 42, 8, 40, 27, 24, 40, 40, 35, 16, 35, 24, 31, 23, 26, 20, 13, 25, 45, 18, 0, 42, 25, 8
            |50, 30, 4, 22, 12, 46, 44, 25, 57, 42, 34, 62, 35, 57, 32, 43, 31, 39, 45, 5, 36, 10, 34, 43, 59, 11, 37, 36, 24, 22, 34, 44, 13, 26, 18, 57, 42, 18, 22, 50, 2, 35, 42, 46, 29, 9, 26, 30, 20, 11, 31, 40, 30, 30, 46, 41, 34, 42, 0, 22, 46
            |39, 11, 24, 31, 11, 48, 25, 29, 47, 38, 39, 51, 33, 46, 22, 23, 42, 19, 34, 19, 43, 13, 14, 51, 50, 13, 31, 23, 31, 28, 12, 42, 9, 30, 26, 44, 32, 32, 35, 33, 20, 34, 37, 48, 38, 20, 9, 35, 4, 16, 28, 37, 8, 12, 40, 48, 12, 25, 22, 0, 26
            |24, 16, 49, 43, 34, 47, 2, 38, 30, 33, 44, 32, 34, 27, 20, 4, 52, 8, 22, 42, 49, 36, 12, 56, 34, 35, 28, 16, 42, 40, 16, 38, 34, 38, 40, 25, 23, 48, 49, 9, 44, 35, 31, 47, 47, 40, 20, 42, 27, 36, 31, 34, 20, 16, 32, 53, 16, 8, 46, 26, 0|];