% n60w160.005    54.80 675
n = 61;
duration = [|0, 52, 15, 23, 15, 26, 25, 4, 46, 18, 9, 36, 6, 19, 30, 17, 49, 46, 25, 36, 39, 43, 49, 34, 21, 42, 2, 29, 37, 5, 49, 38, 14, 16, 23, 28, 42, 51, 17, 22, 11, 24, 34, 51, 48, 13, 48, 48, 26, 53, 23, 25, 25, 28, 18, 42, 44, 21, 39, 47, 36
            |52, 0, 48, 43, 48, 26, 56, 49, 15, 38, 43, 16, 50, 34, 35, 35, 4, 9, 34, 17, 41, 33, 29, 36, 52, 34, 52, 32, 54, 48, 22, 17, 38, 36, 57, 61, 20, 36, 59, 50, 48, 31, 52, 43, 39, 49, 37, 29, 57, 49, 63, 46, 27, 35, 39, 56, 25, 56, 43, 18, 23
            |15, 48, 0, 9, 0, 25, 12, 12, 38, 25, 14, 33, 9, 23, 17, 19, 44, 40, 15, 31, 25, 30, 37, 20, 8, 29, 16, 18, 23, 11, 39, 31, 14, 18, 11, 16, 33, 37, 11, 8, 23, 28, 20, 37, 34, 2, 34, 36, 13, 39, 16, 11, 21, 16, 9, 28, 33, 10, 25, 38, 27
            |23, 43, 9, 0, 9, 25, 13, 19, 32, 29, 19, 31, 17, 25, 9, 21, 40, 35, 9, 26, 16, 22, 29, 12, 9, 20, 24, 12, 17, 18, 32, 26, 16, 20, 14, 18, 26, 29, 17, 6, 30, 29, 14, 28, 26, 11, 26, 28, 13, 31, 20, 4, 19, 9, 9, 22, 25, 13, 16, 31, 21
            |15, 48, 0, 9, 0, 25, 12, 12, 38, 25, 14, 33, 9, 23, 17, 19, 44, 40, 15, 31, 25, 30, 37, 20, 8, 29, 16, 18, 23, 11, 39, 31, 14, 18, 11, 16, 33, 37, 11, 8, 23, 28, 20, 37, 34, 2, 34, 36, 13, 39, 16, 11, 21, 16, 9, 28, 33, 10, 25, 38, 27
            |26, 26, 25, 25, 25, 0, 36, 23, 24, 13, 17, 10, 24, 8, 22, 9, 24, 21, 17, 13, 33, 31, 33, 26, 32, 30, 25, 18, 41, 22, 30, 16, 13, 10, 36, 41, 22, 38, 35, 30, 22, 7, 38, 42, 38, 26, 36, 33, 37, 47, 41, 29, 6, 20, 17, 45, 27, 35, 35, 26, 18
            |25, 56, 12, 13, 12, 36, 0, 23, 44, 37, 26, 43, 20, 35, 21, 31, 52, 48, 22, 39, 23, 32, 39, 22, 4, 30, 27, 24, 14, 22, 43, 39, 25, 30, 2, 5, 39, 37, 10, 6, 35, 39, 12, 34, 33, 13, 34, 38, 1, 34, 9, 10, 31, 21, 20, 19, 37, 4, 22, 43, 34
            |4, 49, 12, 19, 12, 23, 23, 0, 42, 17, 6, 33, 3, 17, 25, 14, 46, 42, 21, 33, 35, 39, 45, 30, 19, 38, 5, 25, 34, 1, 45, 34, 10, 13, 21, 26, 38, 47, 16, 19, 12, 22, 31, 47, 44, 10, 44, 44, 24, 50, 22, 22, 22, 24, 14, 39, 40, 19, 35, 43, 32
            |46, 15, 38, 32, 38, 24, 44, 42, 0, 36, 37, 16, 42, 32, 23, 31, 11, 7, 23, 11, 27, 18, 15, 23, 41, 20, 46, 20, 41, 41, 9, 8, 32, 31, 45, 49, 6, 22, 48, 38, 45, 30, 39, 28, 24, 40, 22, 15, 45, 34, 52, 34, 21, 23, 30, 42, 10, 45, 29, 4, 11
            |18, 38, 25, 29, 25, 13, 37, 17, 36, 0, 11, 22, 20, 5, 30, 8, 36, 34, 24, 26, 41, 41, 45, 34, 33, 40, 17, 27, 46, 17, 43, 28, 12, 9, 36, 41, 34, 49, 33, 32, 10, 7, 43, 51, 48, 24, 47, 44, 38, 56, 39, 33, 16, 28, 20, 50, 39, 35, 42, 39, 29
            |9, 43, 14, 19, 14, 17, 26, 6, 37, 11, 0, 27, 9, 11, 23, 8, 40, 36, 18, 27, 34, 36, 42, 28, 22, 35, 9, 22, 36, 6, 41, 29, 5, 7, 25, 30, 34, 44, 22, 21, 11, 16, 33, 45, 42, 13, 42, 41, 27, 49, 28, 23, 16, 21, 11, 41, 36, 23, 35, 38, 28
            |36, 16, 33, 31, 33, 10, 43, 33, 16, 22, 27, 0, 34, 18, 25, 19, 14, 12, 21, 7, 34, 29, 29, 27, 39, 29, 35, 21, 45, 32, 24, 10, 22, 20, 43, 48, 17, 35, 44, 37, 32, 15, 42, 40, 36, 34, 34, 29, 44, 46, 49, 34, 12, 23, 24, 48, 23, 43, 36, 20, 15
            |6, 50, 9, 17, 9, 24, 20, 3, 42, 20, 9, 34, 0, 19, 24, 16, 47, 43, 20, 33, 33, 38, 44, 28, 16, 36, 7, 24, 32, 3, 45, 35, 12, 15, 18, 23, 38, 45, 13, 17, 15, 24, 29, 45, 42, 7, 43, 43, 21, 48, 19, 20, 22, 23, 13, 37, 39, 16, 34, 43, 32
            |19, 34, 23, 25, 23, 8, 35, 17, 32, 5, 11, 18, 19, 0, 25, 4, 32, 29, 20, 21, 37, 36, 40, 30, 31, 36, 18, 22, 42, 16, 38, 23, 9, 5, 34, 39, 30, 44, 32, 29, 14, 5, 39, 47, 43, 22, 42, 39, 36, 51, 38, 29, 11, 23, 16, 47, 34, 33, 38, 34, 24
            |30, 35, 17, 9, 17, 22, 21, 25, 23, 30, 23, 25, 24, 25, 0, 22, 32, 27, 6, 19, 11, 14, 20, 4, 18, 12, 30, 4, 20, 25, 23, 19, 19, 22, 22, 26, 17, 21, 26, 15, 34, 28, 17, 22, 19, 19, 18, 19, 22, 26, 29, 11, 16, 2, 12, 23, 16, 22, 13, 22, 13
            |17, 35, 19, 21, 19, 9, 31, 14, 31, 8, 8, 19, 16, 4, 22, 0, 32, 29, 16, 20, 33, 33, 37, 26, 27, 33, 17, 19, 38, 14, 36, 22, 5, 1, 30, 35, 28, 41, 28, 25, 15, 9, 35, 43, 40, 19, 39, 37, 32, 48, 34, 25, 9, 20, 12, 43, 31, 29, 34, 33, 22
            |49, 4, 44, 40, 44, 24, 52, 46, 11, 36, 40, 14, 47, 32, 32, 32, 0, 5, 31, 14, 38, 29, 26, 32, 49, 31, 49, 28, 51, 45, 19, 13, 35, 34, 53, 57, 16, 33, 55, 46, 46, 29, 49, 39, 36, 46, 33, 26, 53, 45, 59, 42, 24, 31, 35, 53, 22, 53, 40, 15, 19
            |46, 9, 40, 35, 40, 21, 48, 42, 7, 34, 36, 12, 43, 29, 27, 29, 5, 0, 26, 9, 33, 25, 22, 27, 44, 26, 45, 23, 46, 41, 16, 9, 32, 30, 48, 52, 11, 29, 51, 41, 43, 27, 44, 35, 31, 41, 29, 22, 48, 41, 55, 37, 20, 26, 31, 48, 17, 48, 35, 11, 14
            |25, 34, 15, 9, 15, 17, 22, 21, 23, 24, 18, 21, 20, 20, 6, 16, 31, 26, 0, 17, 17, 18, 24, 10, 18, 17, 26, 4, 24, 20, 25, 17, 13, 16, 23, 27, 18, 26, 25, 16, 28, 23, 21, 28, 24, 16, 24, 23, 23, 32, 29, 13, 11, 4, 7, 28, 19, 22, 18, 23, 13
            |36, 17, 31, 26, 31, 13, 39, 33, 11, 26, 27, 7, 33, 21, 19, 20, 14, 9, 17, 0, 27, 21, 22, 21, 35, 22, 36, 15, 39, 32, 18, 3, 22, 21, 40, 44, 10, 28, 41, 33, 35, 20, 37, 33, 29, 32, 27, 21, 40, 38, 46, 29, 11, 18, 21, 42, 16, 39, 29, 14, 8
            |39, 41, 25, 16, 25, 33, 23, 35, 27, 41, 34, 34, 33, 37, 11, 33, 38, 33, 17, 27, 0, 10, 17, 7, 22, 8, 40, 15, 14, 34, 23, 26, 30, 33, 25, 26, 21, 14, 31, 19, 45, 39, 13, 12, 10, 27, 11, 16, 23, 15, 32, 15, 27, 13, 23, 15, 17, 26, 2, 24, 19
            |43, 33, 30, 22, 30, 31, 32, 39, 18, 41, 36, 29, 38, 36, 14, 33, 29, 25, 18, 21, 10, 0, 7, 10, 30, 2, 44, 14, 24, 38, 13, 19, 32, 33, 34, 36, 13, 8, 39, 27, 47, 37, 23, 11, 7, 33, 6, 6, 32, 17, 41, 22, 25, 15, 25, 25, 8, 34, 12, 15, 14
            |49, 29, 37, 29, 37, 33, 39, 45, 15, 45, 42, 29, 44, 40, 20, 37, 26, 22, 24, 22, 17, 7, 0, 17, 37, 9, 50, 20, 31, 44, 7, 19, 37, 38, 41, 43, 12, 7, 46, 34, 51, 40, 30, 14, 10, 39, 8, 1, 39, 20, 48, 29, 28, 21, 31, 31, 6, 41, 19, 11, 16
            |34, 36, 20, 12, 20, 26, 22, 30, 23, 34, 28, 27, 28, 30, 4, 26, 32, 27, 10, 21, 7, 10, 17, 0, 20, 8, 34, 7, 18, 29, 21, 20, 23, 26, 24, 27, 17, 17, 29, 17, 38, 32, 16, 18, 14, 23, 14, 16, 23, 22, 31, 12, 20, 6, 16, 21, 14, 25, 9, 21, 13
            |21, 52, 8, 9, 8, 32, 4, 19, 41, 33, 22, 39, 16, 31, 18, 27, 49, 44, 18, 35, 22, 30, 37, 20, 0, 28, 23, 21, 16, 19, 41, 36, 21, 25, 4, 9, 36, 36, 9, 3, 31, 35, 13, 34, 32, 9, 33, 36, 5, 35, 11, 8, 27, 18, 16, 21, 34, 4, 22, 40, 31
            |42, 34, 29, 20, 29, 30, 30, 38, 20, 40, 35, 29, 36, 36, 12, 33, 31, 26, 17, 22, 8, 2, 9, 8, 28, 0, 42, 13, 22, 37, 15, 20, 31, 33, 31, 34, 15, 9, 37, 25, 46, 37, 21, 11, 7, 31, 6, 9, 30, 16, 38, 20, 25, 14, 24, 23, 9, 32, 10, 17, 14
            |2, 52, 16, 24, 16, 25, 27, 5, 46, 17, 9, 35, 7, 18, 30, 17, 49, 45, 26, 36, 40, 44, 50, 34, 23, 42, 0, 30, 39, 6, 50, 38, 14, 16, 25, 30, 42, 51, 19, 24, 9, 23, 36, 52, 49, 14, 49, 49, 28, 55, 25, 27, 25, 29, 18, 44, 44, 23, 40, 47, 36
            |29, 32, 18, 12, 18, 18, 24, 25, 20, 27, 22, 21, 24, 22, 4, 19, 28, 23, 4, 15, 15, 14, 20, 7, 21, 13, 30, 0, 24, 24, 21, 15, 17, 19, 25, 29, 15, 22, 28, 18, 32, 25, 22, 24, 21, 20, 20, 19, 25, 29, 32, 14, 12, 3, 11, 27, 15, 25, 16, 20, 9
            |37, 54, 23, 17, 23, 41, 14, 34, 41, 46, 36, 45, 32, 42, 20, 38, 51, 46, 24, 39, 14, 24, 31, 18, 16, 22, 39, 24, 0, 34, 37, 38, 34, 37, 17, 16, 35, 27, 24, 15, 46, 46, 3, 22, 22, 25, 24, 30, 14, 21, 22, 13, 35, 22, 26, 5, 31, 19, 12, 38, 32
            |5, 48, 11, 18, 11, 22, 22, 1, 41, 17, 6, 32, 3, 16, 25, 14, 45, 41, 20, 32, 34, 38, 44, 29, 19, 37, 6, 24, 34, 0, 44, 33, 9, 12, 21, 26, 37, 46, 16, 19, 12, 21, 31, 46, 43, 9, 43, 43, 23, 49, 23, 21, 21, 23, 13, 39, 39, 19, 35, 42, 31
            |49, 22, 39, 32, 39, 30, 43, 45, 9, 43, 41, 24, 45, 38, 23, 36, 19, 16, 25, 18, 23, 13, 7, 21, 41, 15, 50, 21, 37, 44, 0, 15, 36, 36, 45, 47, 8, 14, 49, 38, 50, 37, 36, 21, 17, 41, 15, 8, 43, 27, 52, 33, 26, 23, 32, 38, 6, 45, 25, 4, 14
            |38, 17, 31, 26, 31, 16, 39, 34, 8, 28, 29, 10, 35, 23, 19, 22, 13, 9, 17, 3, 26, 19, 19, 20, 36, 20, 38, 15, 38, 33, 15, 0, 24, 23, 40, 44, 7, 25, 42, 33, 37, 22, 36, 30, 26, 33, 25, 19, 40, 36, 46, 29, 13, 18, 22, 40, 13, 39, 28, 11, 6
            |14, 38, 14, 16, 14, 13, 25, 10, 32, 12, 5, 22, 12, 9, 19, 5, 35, 32, 13, 22, 30, 32, 37, 23, 21, 31, 14, 17, 34, 9, 36, 24, 0, 4, 25, 30, 28, 39, 23, 20, 15, 14, 31, 41, 38, 13, 37, 36, 26, 45, 29, 20, 11, 17, 8, 38, 31, 23, 31, 33, 23
            |16, 36, 18, 20, 18, 10, 30, 13, 31, 9, 7, 20, 15, 5, 22, 1, 34, 30, 16, 21, 33, 33, 38, 26, 25, 33, 16, 19, 37, 12, 36, 23, 4, 0, 29, 34, 28, 41, 27, 24, 14, 10, 34, 43, 40, 17, 39, 37, 31, 47, 33, 24, 10, 19, 11, 42, 32, 28, 34, 33, 23
            |23, 57, 11, 14, 11, 36, 2, 21, 45, 36, 25, 43, 18, 34, 22, 30, 53, 48, 23, 40, 25, 34, 41, 24, 4, 31, 25, 25, 17, 21, 45, 40, 25, 29, 0, 5, 40, 39, 8, 7, 33, 39, 14, 36, 35, 12, 36, 40, 3, 37, 7, 12, 32, 22, 20, 21, 38, 2, 24, 44, 35
            |28, 61, 16, 18, 16, 41, 5, 26, 49, 41, 30, 48, 23, 39, 26, 35, 57, 52, 27, 44, 26, 36, 43, 27, 9, 34, 30, 29, 16, 26, 47, 44, 30, 34, 5, 0, 43, 40, 11, 11, 38, 44, 14, 37, 36, 17, 37, 42, 4, 36, 7, 15, 36, 26, 25, 20, 41, 7, 25, 48, 38
            |42, 20, 33, 26, 33, 22, 39, 38, 6, 34, 34, 17, 38, 30, 17, 28, 16, 11, 18, 10, 21, 13, 12, 17, 36, 15, 42, 15, 35, 37, 8, 7, 28, 28, 40, 43, 0, 18, 43, 33, 42, 29, 33, 24, 20, 35, 18, 12, 39, 30, 47, 28, 18, 17, 25, 37, 6, 40, 24, 5, 6
            |51, 36, 37, 29, 37, 38, 37, 47, 22, 49, 44, 35, 45, 44, 21, 41, 33, 29, 26, 28, 14, 8, 7, 17, 36, 9, 51, 22, 27, 46, 14, 25, 39, 41, 39, 40, 18, 0, 45, 33, 54, 45, 27, 7, 4, 40, 3, 7, 37, 13, 46, 28, 33, 23, 33, 26, 12, 40, 15, 18, 21
            |17, 59, 11, 17, 11, 35, 10, 16, 48, 33, 22, 44, 13, 32, 26, 28, 55, 51, 25, 41, 31, 39, 46, 29, 9, 37, 19, 28, 24, 16, 49, 42, 23, 27, 8, 11, 43, 45, 0, 12, 28, 37, 22, 43, 41, 10, 42, 45, 11, 44, 6, 17, 32, 26, 20, 29, 43, 6, 31, 48, 38
            |22, 50, 8, 6, 8, 30, 6, 19, 38, 32, 21, 37, 17, 29, 15, 25, 46, 41, 16, 33, 19, 27, 34, 17, 3, 25, 24, 18, 15, 19, 38, 33, 20, 24, 7, 11, 33, 33, 12, 0, 31, 34, 12, 31, 29, 9, 30, 33, 7, 33, 14, 5, 25, 15, 14, 20, 31, 7, 19, 37, 27
            |11, 48, 23, 30, 23, 22, 35, 12, 45, 10, 11, 32, 15, 14, 34, 15, 46, 43, 28, 35, 45, 47, 51, 38, 31, 46, 9, 32, 46, 12, 50, 37, 15, 14, 33, 38, 42, 54, 28, 31, 0, 17, 43, 56, 52, 22, 52, 51, 36, 59, 34, 33, 24, 32, 22, 51, 46, 31, 45, 47, 37
            |24, 31, 28, 29, 28, 7, 39, 22, 30, 7, 16, 15, 24, 5, 28, 9, 29, 27, 23, 20, 39, 37, 40, 32, 35, 37, 23, 25, 46, 21, 37, 22, 14, 10, 39, 44, 29, 45, 37, 34, 17, 0, 43, 48, 44, 27, 43, 40, 40, 53, 42, 33, 13, 26, 20, 50, 34, 37, 41, 33, 25
            |34, 52, 20, 14, 20, 38, 12, 31, 39, 43, 33, 42, 29, 39, 17, 35, 49, 44, 21, 37, 13, 23, 30, 16, 13, 21, 36, 22, 3, 31, 36, 36, 31, 34, 14, 14, 33, 27, 22, 12, 43, 43, 0, 23, 23, 22, 24, 30, 12, 23, 21, 10, 32, 19, 23, 8, 30, 16, 12, 37, 30
            |51, 43, 37, 28, 37, 42, 34, 47, 28, 51, 45, 40, 45, 47, 22, 43, 39, 35, 28, 33, 12, 11, 14, 18, 34, 11, 52, 24, 22, 46, 21, 30, 41, 43, 36, 37, 24, 7, 43, 31, 56, 48, 23, 0, 4, 39, 6, 13, 34, 6, 43, 27, 36, 24, 34, 21, 18, 38, 12, 24, 25
            |48, 39, 34, 26, 34, 38, 33, 44, 24, 48, 42, 36, 42, 43, 19, 40, 36, 31, 24, 29, 10, 7, 10, 14, 32, 7, 49, 21, 22, 43, 17, 26, 38, 40, 35, 36, 20, 4, 41, 29, 52, 44, 23, 4, 0, 36, 2, 10, 33, 10, 42, 25, 32, 21, 31, 22, 14, 36, 11, 21, 21
            |13, 49, 2, 11, 2, 26, 13, 10, 40, 24, 13, 34, 7, 22, 19, 19, 46, 41, 16, 32, 27, 33, 39, 23, 9, 31, 14, 20, 25, 9, 41, 33, 13, 17, 12, 17, 35, 40, 10, 9, 22, 27, 22, 39, 36, 0, 37, 38, 14, 41, 15, 13, 22, 18, 10, 30, 35, 10, 27, 40, 29
            |48, 37, 34, 26, 34, 36, 34, 44, 22, 47, 42, 34, 43, 42, 18, 39, 33, 29, 24, 27, 11, 6, 8, 14, 33, 6, 49, 20, 24, 43, 15, 25, 37, 39, 36, 37, 18, 3, 42, 30, 52, 43, 24, 6, 2, 37, 0, 8, 34, 12, 43, 25, 31, 20, 31, 24, 12, 37, 12, 18, 19
            |48, 29, 36, 28, 36, 33, 38, 44, 15, 44, 41, 29, 43, 39, 19, 37, 26, 22, 23, 21, 16, 6, 1, 16, 36, 9, 49, 19, 30, 43, 8, 19, 36, 37, 40, 42, 12, 7, 45, 33, 51, 40, 30, 13, 10, 38, 8, 0, 38, 19, 47, 28, 28, 20, 30, 30, 6, 40, 18, 11, 15
            |26, 57, 13, 13, 13, 37, 1, 24, 45, 38, 27, 44, 21, 36, 22, 32, 53, 48, 23, 40, 23, 32, 39, 23, 5, 30, 28, 25, 14, 23, 43, 40, 26, 31, 3, 4, 39, 37, 11, 7, 36, 40, 12, 34, 33, 14, 34, 38, 0, 34, 9, 11, 32, 22, 21, 19, 37, 5, 22, 43, 34
            |53, 49, 39, 31, 39, 47, 34, 50, 34, 56, 49, 46, 48, 51, 26, 48, 45, 41, 32, 38, 15, 17, 20, 22, 35, 16, 55, 29, 21, 49, 27, 36, 45, 47, 37, 36, 30, 13, 44, 33, 59, 53, 23, 6, 10, 41, 12, 19, 34, 0, 43, 28, 41, 28, 38, 18, 24, 38, 14, 30, 31
            |23, 63, 16, 20, 16, 41, 9, 22, 52, 39, 28, 49, 19, 38, 29, 34, 59, 55, 29, 46, 32, 41, 48, 31, 11, 38, 25, 32, 22, 23, 52, 46, 29, 33, 7, 7, 47, 46, 6, 14, 34, 42, 21, 43, 42, 15, 43, 47, 9, 43, 0, 19, 37, 29, 25, 27, 45, 7, 31, 51, 41
            |25, 46, 11, 4, 11, 29, 10, 22, 34, 33, 23, 34, 20, 29, 11, 25, 42, 37, 13, 29, 15, 22, 29, 12, 8, 20, 27, 14, 13, 21, 33, 29, 20, 24, 12, 15, 28, 28, 17, 5, 33, 33, 10, 27, 25, 13, 25, 28, 11, 28, 19, 0, 23, 11, 13, 18, 27, 12, 14, 33, 23
            |25, 27, 21, 19, 21, 6, 31, 22, 21, 16, 16, 12, 22, 11, 16, 9, 24, 20, 11, 11, 27, 25, 28, 20, 27, 25, 25, 12, 35, 21, 26, 13, 11, 10, 32, 36, 18, 33, 32, 25, 24, 13, 32, 36, 32, 22, 31, 28, 32, 41, 37, 23, 0, 14, 12, 39, 22, 31, 29, 23, 13
            |28, 35, 16, 9, 16, 20, 21, 24, 23, 28, 21, 23, 23, 23, 2, 20, 31, 26, 4, 18, 13, 15, 21, 6, 18, 14, 29, 3, 22, 23, 23, 18, 17, 19, 22, 26, 17, 23, 26, 15, 32, 26, 19, 24, 21, 18, 20, 20, 22, 28, 29, 11, 14, 0, 10, 25, 17, 22, 15, 22, 12
            |18, 39, 9, 9, 9, 17, 20, 14, 30, 20, 11, 24, 13, 16, 12, 12, 35, 31, 7, 21, 23, 25, 31, 16, 16, 24, 18, 11, 26, 13, 32, 22, 8, 11, 20, 25, 25, 33, 20, 14, 22, 20, 23, 34, 31, 10, 31, 30, 21, 38, 25, 13, 12, 10, 0, 31, 26, 19, 24, 30, 19
            |42, 56, 28, 22, 28, 45, 19, 39, 42, 50, 41, 48, 37, 47, 23, 43, 53, 48, 28, 42, 15, 25, 31, 21, 21, 23, 44, 27, 5, 39, 38, 40, 38, 42, 21, 20, 37, 26, 29, 20, 51, 50, 8, 21, 22, 30, 24, 30, 19, 18, 27, 18, 39, 25, 31, 0, 32, 23, 13, 39, 34
            |44, 25, 33, 25, 33, 27, 37, 40, 10, 39, 36, 23, 39, 34, 16, 31, 22, 17, 19, 16, 17, 8, 6, 14, 34, 9, 44, 15, 31, 39, 6, 13, 31, 32, 38, 41, 6, 12, 43, 31, 46, 34, 30, 18, 14, 35, 12, 6, 37, 24, 45, 27, 22, 17, 26, 32, 0, 39, 19, 7, 9
            |21, 56, 10, 13, 10, 35, 4, 19, 45, 35, 23, 43, 16, 33, 22, 29, 53, 48, 22, 39, 26, 34, 41, 25, 4, 32, 23, 25, 19, 19, 45, 39, 23, 28, 2, 7, 40, 40, 6, 7, 31, 37, 16, 38, 36, 10, 37, 40, 5, 38, 7, 12, 31, 22, 19, 23, 39, 0, 25, 44, 34
            |39, 43, 25, 16, 25, 35, 22, 35, 29, 42, 35, 36, 34, 38, 13, 34, 40, 35, 18, 29, 2, 12, 19, 9, 22, 10, 40, 16, 12, 35, 25, 28, 31, 34, 24, 25, 24, 15, 31, 19, 45, 41, 12, 12, 11, 27, 12, 18, 22, 14, 31, 14, 29, 15, 24, 13, 19, 25, 0, 26, 22
            |47, 18, 38, 31, 38, 26, 43, 43, 4, 39, 38, 20, 43, 34, 22, 33, 15, 11, 23, 14, 24, 15, 11, 21, 40, 17, 47, 20, 38, 42, 4, 11, 33, 33, 44, 48, 5, 18, 48, 37, 47, 33, 37, 24, 21, 40, 18, 11, 43, 30, 51, 33, 23, 22, 30, 39, 7, 44, 26, 0, 11
            |36, 23, 27, 21, 27, 18, 34, 32, 11, 29, 28, 15, 32, 24, 13, 22, 19, 14, 13, 8, 19, 14, 16, 13, 31, 14, 36, 9, 32, 31, 14, 6, 23, 23, 35, 38, 6, 21, 38, 27, 37, 25, 30, 25, 21, 29, 19, 15, 34, 31, 41, 23, 13, 12, 19, 34, 9, 34, 22, 11, 0|];