% n60w160.002    58.62 723
n = 61;
duration = [|0, 22, 35, 38, 46, 20, 52, 42, 42, 17, 37, 40, 56, 20, 38, 47, 46, 29, 32, 11, 24, 55, 43, 32, 29, 53, 36, 41, 54, 50, 49, 31, 11, 49, 39, 36, 36, 51, 27, 60, 27, 6, 52, 53, 21, 43, 16, 28, 16, 37, 39, 43, 17, 31, 45, 27, 14, 38, 25, 13, 21
            |22, 0, 19, 31, 31, 9, 31, 25, 28, 11, 21, 18, 35, 10, 28, 28, 25, 8, 25, 14, 4, 33, 23, 26, 16, 34, 19, 36, 33, 32, 35, 20, 20, 31, 19, 15, 30, 29, 19, 39, 19, 16, 32, 31, 12, 31, 14, 7, 8, 28, 22, 29, 6, 16, 31, 11, 13, 23, 21, 9, 2
            |35, 19, 0, 49, 13, 15, 30, 7, 42, 30, 2, 17, 36, 29, 44, 36, 28, 12, 43, 31, 21, 27, 11, 44, 33, 40, 33, 53, 38, 42, 16, 9, 27, 14, 29, 12, 48, 30, 12, 40, 38, 30, 36, 27, 31, 46, 19, 22, 26, 45, 4, 43, 24, 4, 45, 28, 31, 4, 39, 23, 21
            |38, 31, 49, 0, 61, 40, 41, 54, 13, 24, 51, 39, 40, 22, 6, 26, 34, 37, 6, 28, 28, 49, 48, 6, 16, 31, 19, 4, 34, 24, 64, 52, 44, 58, 25, 40, 2, 39, 51, 42, 13, 35, 34, 46, 20, 9, 43, 27, 27, 4, 52, 14, 29, 46, 14, 21, 25, 53, 13, 34, 30
            |46, 31, 13, 61, 0, 27, 35, 7, 53, 42, 10, 25, 41, 41, 56, 45, 35, 24, 55, 44, 34, 28, 16, 56, 45, 48, 44, 65, 45, 51, 4, 16, 37, 9, 39, 22, 60, 35, 20, 45, 50, 42, 43, 30, 43, 57, 30, 34, 39, 57, 9, 54, 37, 16, 56, 40, 44, 9, 52, 35, 34
            |20, 9, 15, 40, 27, 0, 36, 22, 37, 17, 17, 23, 41, 17, 37, 36, 31, 11, 34, 17, 13, 37, 23, 34, 25, 41, 28, 44, 41, 41, 30, 13, 14, 29, 28, 18, 38, 35, 11, 45, 27, 15, 39, 35, 20, 40, 6, 16, 13, 36, 19, 38, 11, 11, 40, 20, 18, 18, 28, 9, 10
            |52, 31, 30, 41, 35, 36, 0, 29, 28, 37, 31, 14, 6, 35, 35, 16, 7, 26, 38, 43, 28, 10, 20, 39, 30, 14, 23, 44, 11, 20, 37, 38, 50, 28, 17, 19, 41, 2, 41, 10, 36, 47, 9, 6, 35, 33, 43, 25, 37, 36, 29, 28, 36, 31, 30, 28, 41, 32, 39, 40, 32
            |42, 25, 7, 54, 7, 22, 29, 0, 46, 36, 5, 18, 35, 35, 49, 38, 29, 17, 48, 38, 27, 23, 9, 49, 38, 41, 36, 58, 38, 44, 11, 14, 34, 7, 32, 14, 53, 29, 18, 39, 43, 37, 36, 25, 37, 50, 26, 27, 33, 49, 3, 46, 31, 11, 49, 33, 38, 5, 45, 30, 27
            |42, 28, 42, 13, 53, 37, 28, 46, 0, 25, 44, 29, 27, 23, 7, 13, 22, 31, 13, 31, 24, 38, 39, 14, 13, 18, 10, 16, 21, 11, 57, 47, 46, 49, 14, 32, 14, 27, 47, 29, 16, 38, 21, 34, 21, 4, 42, 22, 27, 9, 44, 1, 28, 41, 3, 17, 28, 47, 18, 34, 27
            |17, 11, 30, 24, 42, 17, 37, 36, 25, 0, 32, 27, 40, 3, 22, 30, 30, 19, 17, 6, 10, 42, 33, 18, 12, 36, 19, 28, 37, 32, 46, 30, 21, 42, 22, 25, 22, 35, 28, 44, 11, 13, 36, 39, 4, 26, 19, 12, 4, 21, 33, 26, 6, 26, 28, 10, 4, 34, 11, 10, 9
            |37, 21, 2, 51, 10, 17, 31, 5, 44, 32, 0, 18, 36, 31, 46, 38, 29, 14, 45, 34, 23, 26, 11, 46, 35, 41, 34, 55, 39, 43, 14, 9, 29, 12, 31, 13, 50, 30, 13, 41, 40, 32, 37, 27, 33, 48, 21, 24, 29, 47, 2, 45, 26, 6, 47, 30, 34, 2, 41, 25, 23
            |40, 18, 17, 39, 25, 23, 14, 18, 29, 27, 18, 0, 19, 25, 33, 20, 11, 12, 34, 32, 17, 15, 10, 35, 24, 23, 20, 43, 21, 26, 28, 25, 36, 20, 15, 5, 38, 13, 27, 24, 30, 34, 19, 13, 26, 33, 29, 15, 26, 34, 17, 29, 24, 18, 31, 20, 30, 20, 33, 27, 20
            |56, 35, 36, 40, 41, 41, 6, 35, 27, 40, 36, 19, 0, 37, 34, 14, 10, 31, 38, 46, 32, 15, 26, 39, 32, 10, 24, 43, 7, 17, 43, 44, 54, 34, 18, 25, 41, 6, 46, 4, 37, 50, 6, 12, 37, 31, 47, 28, 40, 36, 35, 26, 39, 37, 28, 30, 44, 38, 41, 44, 35
            |20, 10, 29, 22, 41, 17, 35, 35, 23, 3, 31, 25, 37, 0, 20, 27, 28, 17, 16, 9, 8, 39, 32, 17, 9, 33, 16, 26, 34, 30, 45, 30, 23, 40, 19, 23, 21, 33, 28, 41, 10, 15, 33, 37, 2, 24, 21, 10, 5, 19, 32, 24, 6, 26, 25, 7, 6, 33, 11, 12, 8
            |38, 28, 44, 6, 56, 37, 35, 49, 7, 22, 46, 33, 34, 20, 0, 20, 28, 32, 6, 27, 24, 43, 43, 7, 12, 25, 13, 10, 28, 19, 59, 48, 43, 52, 19, 35, 7, 33, 47, 36, 11, 34, 28, 40, 18, 5, 41, 22, 25, 2, 47, 9, 26, 42, 9, 17, 24, 49, 13, 32, 26
            |47, 28, 36, 26, 45, 36, 16, 38, 13, 30, 38, 20, 14, 27, 20, 0, 11, 27, 25, 36, 24, 25, 30, 25, 19, 6, 11, 29, 8, 5, 48, 43, 47, 39, 9, 25, 27, 14, 44, 16, 25, 42, 8, 22, 26, 17, 42, 21, 31, 22, 37, 12, 31, 36, 14, 20, 33, 40, 28, 36, 28
            |46, 25, 28, 34, 35, 31, 7, 29, 22, 30, 29, 11, 10, 28, 28, 11, 0, 21, 31, 36, 22, 15, 20, 32, 23, 12, 16, 38, 10, 16, 38, 36, 44, 29, 10, 16, 35, 5, 37, 14, 29, 40, 8, 12, 28, 27, 38, 19, 30, 30, 28, 22, 29, 28, 24, 21, 34, 31, 32, 34, 25
            |29, 8, 12, 37, 24, 11, 26, 17, 31, 19, 14, 12, 31, 17, 32, 27, 21, 0, 31, 22, 9, 26, 15, 32, 21, 32, 21, 41, 31, 32, 28, 16, 24, 23, 19, 8, 36, 24, 17, 35, 26, 23, 29, 25, 19, 34, 17, 10, 16, 33, 15, 32, 14, 10, 34, 16, 21, 16, 27, 16, 10
            |32, 25, 43, 6, 55, 34, 38, 48, 13, 17, 45, 34, 38, 16, 6, 25, 31, 31, 0, 22, 22, 46, 43, 1, 10, 30, 15, 10, 33, 24, 59, 45, 38, 53, 21, 35, 5, 36, 44, 41, 6, 29, 32, 43, 14, 11, 37, 21, 21, 4, 46, 14, 22, 40, 15, 15, 19, 47, 7, 28, 23
            |11, 14, 31, 28, 44, 17, 43, 38, 31, 6, 34, 32, 46, 9, 27, 36, 36, 22, 22, 0, 15, 47, 37, 22, 18, 42, 25, 31, 43, 39, 47, 30, 16, 45, 28, 29, 26, 41, 27, 50, 16, 7, 42, 45, 10, 32, 17, 18, 6, 26, 35, 32, 8, 28, 34, 16, 3, 35, 15, 9, 12
            |24, 4, 21, 28, 34, 13, 28, 27, 24, 10, 23, 17, 32, 8, 24, 24, 22, 9, 22, 15, 0, 32, 24, 23, 13, 30, 15, 32, 30, 28, 37, 24, 23, 32, 16, 15, 27, 27, 23, 36, 16, 18, 28, 30, 10, 27, 18, 4, 9, 24, 24, 25, 7, 18, 27, 8, 13, 25, 18, 12, 4
            |55, 33, 27, 49, 28, 37, 10, 23, 38, 42, 26, 15, 15, 39, 43, 25, 15, 26, 46, 47, 32, 0, 15, 47, 37, 24, 31, 53, 21, 30, 30, 35, 50, 20, 25, 19, 50, 11, 38, 18, 43, 49, 19, 4, 40, 42, 43, 29, 41, 45, 25, 37, 39, 29, 39, 34, 45, 28, 46, 42, 35
            |43, 23, 11, 48, 16, 23, 20, 9, 39, 33, 11, 10, 26, 32, 43, 30, 20, 15, 43, 37, 24, 15, 0, 44, 33, 32, 30, 52, 29, 35, 18, 20, 37, 10, 25, 9, 48, 20, 23, 30, 38, 38, 27, 16, 33, 43, 29, 22, 31, 44, 9, 39, 29, 14, 41, 29, 36, 13, 41, 30, 25
            |32, 26, 44, 6, 56, 34, 39, 49, 14, 18, 46, 35, 39, 17, 7, 25, 32, 32, 1, 22, 23, 47, 44, 0, 11, 31, 16, 10, 34, 25, 60, 46, 38, 54, 22, 36, 4, 37, 45, 42, 7, 29, 33, 44, 14, 12, 37, 22, 21, 5, 47, 15, 23, 41, 16, 16, 19, 48, 7, 28, 24
            |29, 16, 33, 16, 45, 25, 30, 38, 13, 12, 35, 24, 32, 9, 12, 19, 23, 21, 10, 18, 13, 37, 33, 11, 0, 26, 8, 20, 27, 21, 49, 36, 32, 43, 13, 25, 15, 28, 35, 35, 6, 24, 26, 34, 8, 15, 29, 11, 14, 12, 36, 15, 15, 31, 16, 5, 15, 38, 9, 21, 15
            |53, 34, 40, 31, 48, 41, 14, 41, 18, 36, 41, 23, 10, 33, 25, 6, 12, 32, 30, 42, 30, 24, 32, 31, 26, 0, 18, 34, 4, 7, 50, 47, 53, 41, 14, 28, 32, 13, 49, 11, 31, 48, 5, 21, 33, 22, 48, 26, 37, 27, 40, 17, 37, 40, 18, 26, 40, 43, 34, 42, 34
            |36, 19, 33, 19, 44, 28, 23, 36, 10, 19, 34, 20, 24, 16, 13, 11, 16, 21, 15, 25, 15, 31, 30, 16, 8, 18, 0, 23, 19, 14, 47, 37, 38, 40, 6, 22, 19, 21, 37, 27, 14, 31, 18, 27, 15, 14, 33, 12, 20, 14, 35, 10, 20, 31, 13, 9, 22, 37, 17, 26, 18
            |41, 36, 53, 4, 65, 44, 44, 58, 16, 28, 55, 43, 43, 26, 10, 29, 38, 41, 10, 31, 32, 53, 52, 10, 20, 34, 23, 0, 37, 27, 69, 56, 48, 62, 29, 44, 5, 42, 55, 45, 17, 38, 37, 50, 24, 12, 47, 31, 31, 9, 56, 17, 33, 51, 16, 25, 29, 57, 16, 38, 34
            |54, 33, 38, 34, 45, 41, 11, 38, 21, 37, 39, 21, 7, 34, 28, 8, 10, 31, 33, 43, 30, 21, 29, 34, 27, 4, 19, 37, 0, 10, 48, 46, 53, 38, 15, 26, 35, 10, 47, 8, 33, 48, 2, 17, 34, 25, 47, 26, 37, 30, 38, 20, 37, 38, 21, 27, 40, 41, 36, 42, 34
            |50, 32, 42, 24, 51, 41, 20, 44, 11, 32, 43, 26, 17, 30, 19, 5, 16, 32, 24, 39, 28, 30, 35, 25, 21, 7, 14, 27, 10, 0, 54, 48, 51, 45, 13, 30, 26, 18, 49, 18, 26, 45, 11, 26, 29, 15, 46, 25, 34, 21, 43, 10, 34, 41, 11, 23, 36, 45, 29, 40, 32
            |49, 35, 16, 64, 4, 30, 37, 11, 57, 46, 14, 28, 43, 45, 59, 48, 38, 28, 59, 47, 37, 30, 18, 60, 49, 50, 47, 69, 48, 54, 0, 19, 40, 10, 43, 25, 64, 38, 23, 47, 53, 45, 46, 32, 47, 61, 33, 38, 42, 60, 13, 57, 40, 20, 59, 44, 47, 12, 55, 39, 37
            |31, 20, 9, 52, 16, 13, 38, 14, 47, 30, 9, 25, 44, 30, 48, 43, 36, 16, 45, 30, 24, 35, 20, 46, 36, 47, 37, 56, 46, 48, 19, 0, 21, 21, 35, 19, 50, 38, 4, 48, 39, 27, 44, 35, 32, 50, 14, 26, 26, 48, 11, 48, 24, 7, 50, 31, 31, 9, 40, 21, 22
            |11, 20, 27, 44, 37, 14, 50, 34, 46, 21, 29, 36, 54, 23, 43, 47, 44, 24, 38, 16, 23, 50, 37, 38, 32, 53, 38, 48, 53, 51, 40, 21, 0, 41, 39, 31, 43, 48, 17, 58, 32, 10, 51, 49, 25, 47, 8, 27, 18, 42, 31, 47, 17, 23, 49, 29, 19, 29, 31, 11, 20
            |49, 31, 14, 58, 9, 29, 28, 7, 49, 42, 12, 20, 34, 40, 52, 39, 29, 23, 53, 45, 32, 20, 10, 54, 43, 41, 40, 62, 38, 45, 10, 21, 41, 0, 35, 18, 57, 28, 25, 37, 48, 44, 36, 22, 42, 53, 34, 32, 39, 53, 10, 49, 37, 18, 51, 38, 44, 12, 50, 37, 33
            |39, 19, 29, 25, 39, 28, 17, 32, 14, 22, 31, 15, 18, 19, 19, 9, 10, 19, 21, 28, 16, 25, 25, 22, 13, 14, 6, 29, 15, 13, 43, 35, 39, 35, 0, 18, 25, 15, 36, 22, 19, 33, 14, 21, 19, 18, 34, 12, 23, 20, 31, 14, 22, 28, 16, 12, 26, 33, 22, 28, 19
            |36, 15, 12, 40, 22, 18, 19, 14, 32, 25, 13, 5, 25, 23, 35, 25, 16, 8, 35, 29, 15, 19, 9, 36, 25, 28, 22, 44, 26, 30, 25, 19, 31, 18, 18, 0, 39, 18, 22, 29, 30, 31, 24, 18, 25, 36, 24, 14, 23, 35, 13, 32, 21, 12, 34, 20, 28, 16, 32, 23, 17
            |36, 30, 48, 2, 60, 38, 41, 53, 14, 22, 50, 38, 41, 21, 7, 27, 35, 36, 5, 26, 27, 50, 48, 4, 15, 32, 19, 5, 35, 26, 64, 50, 43, 57, 25, 39, 0, 39, 49, 43, 11, 33, 35, 46, 19, 11, 41, 26, 26, 5, 51, 16, 27, 45, 15, 20, 23, 52, 11, 33, 28
            |51, 29, 30, 39, 35, 35, 2, 29, 27, 35, 30, 13, 6, 33, 33, 14, 5, 24, 36, 41, 27, 11, 20, 37, 28, 13, 21, 42, 10, 18, 38, 38, 48, 28, 15, 18, 39, 0, 40, 11, 34, 45, 8, 8, 33, 31, 41, 23, 35, 35, 29, 26, 34, 31, 28, 26, 39, 32, 37, 38, 30
            |27, 19, 12, 51, 20, 11, 41, 18, 47, 28, 13, 27, 46, 28, 47, 44, 37, 17, 44, 27, 23, 38, 23, 45, 35, 49, 37, 55, 47, 49, 23, 4, 17, 25, 36, 22, 49, 40, 0, 51, 38, 23, 45, 38, 31, 50, 11, 25, 24, 47, 15, 48, 22, 9, 50, 31, 28, 13, 39, 18, 21
            |60, 39, 40, 42, 45, 45, 10, 39, 29, 44, 41, 24, 4, 41, 36, 16, 14, 35, 41, 50, 36, 18, 30, 42, 35, 11, 27, 45, 8, 18, 47, 48, 58, 37, 22, 29, 43, 11, 51, 0, 40, 54, 9, 15, 41, 33, 52, 33, 44, 38, 39, 28, 43, 41, 29, 34, 47, 43, 44, 48, 40
            |27, 19, 38, 13, 50, 27, 36, 43, 16, 11, 40, 30, 37, 10, 11, 25, 29, 26, 6, 16, 16, 43, 38, 7, 6, 31, 14, 17, 33, 26, 53, 39, 32, 48, 19, 30, 11, 34, 38, 40, 0, 23, 32, 40, 8, 16, 30, 16, 15, 10, 41, 17, 16, 35, 18, 10, 13, 42, 3, 22, 17
            |6, 16, 30, 35, 42, 15, 47, 37, 38, 13, 32, 34, 50, 15, 34, 42, 40, 23, 29, 7, 18, 49, 38, 29, 24, 48, 31, 38, 48, 45, 45, 27, 10, 44, 33, 31, 33, 45, 23, 54, 23, 0, 47, 47, 17, 39, 13, 22, 11, 33, 34, 39, 11, 26, 41, 22, 10, 33, 22, 7, 15
            |52, 32, 36, 34, 43, 39, 9, 36, 21, 36, 37, 19, 6, 33, 28, 8, 8, 29, 32, 42, 28, 19, 27, 33, 26, 5, 18, 37, 2, 11, 46, 44, 51, 36, 14, 24, 35, 8, 45, 9, 32, 47, 0, 16, 32, 25, 45, 25, 36, 30, 36, 20, 35, 36, 22, 26, 39, 39, 35, 41, 32
            |53, 31, 27, 46, 30, 35, 6, 25, 34, 39, 27, 13, 12, 37, 40, 22, 12, 25, 43, 45, 30, 4, 16, 44, 34, 21, 27, 50, 17, 26, 32, 35, 49, 22, 21, 18, 46, 8, 38, 15, 40, 47, 16, 0, 37, 38, 42, 27, 38, 41, 25, 34, 37, 29, 35, 31, 43, 28, 43, 40, 33
            |21, 12, 31, 20, 43, 20, 35, 37, 21, 4, 33, 26, 37, 2, 18, 26, 28, 19, 14, 10, 10, 40, 33, 14, 8, 33, 15, 24, 34, 29, 47, 32, 25, 42, 19, 25, 19, 33, 31, 41, 8, 17, 32, 37, 0, 22, 23, 11, 7, 17, 34, 22, 9, 28, 24, 7, 7, 35, 8, 14, 10
            |43, 31, 46, 9, 57, 40, 33, 50, 4, 26, 48, 33, 31, 24, 5, 17, 27, 34, 11, 32, 27, 42, 43, 12, 15, 22, 14, 12, 25, 15, 61, 50, 47, 53, 18, 36, 11, 31, 50, 33, 16, 39, 25, 38, 22, 0, 44, 25, 29, 7, 48, 5, 30, 44, 4, 19, 29, 50, 18, 36, 29
            |16, 14, 19, 43, 30, 6, 43, 26, 42, 19, 21, 29, 47, 21, 41, 42, 38, 17, 37, 17, 18, 43, 29, 37, 29, 48, 33, 47, 47, 46, 33, 14, 8, 34, 34, 24, 41, 41, 11, 52, 30, 13, 45, 42, 23, 44, 0, 22, 16, 40, 23, 43, 14, 16, 45, 25, 19, 22, 30, 9, 15
            |28, 7, 22, 27, 34, 16, 25, 27, 22, 12, 24, 15, 28, 10, 22, 21, 19, 10, 21, 18, 4, 29, 22, 22, 11, 26, 12, 31, 26, 25, 38, 26, 27, 32, 12, 14, 26, 23, 25, 33, 16, 22, 25, 27, 11, 25, 22, 0, 12, 23, 25, 22, 11, 20, 25, 6, 16, 26, 18, 16, 7
            |16, 8, 26, 27, 39, 13, 37, 33, 27, 4, 29, 26, 40, 5, 25, 31, 30, 16, 21, 6, 9, 41, 31, 21, 14, 37, 20, 31, 37, 34, 42, 26, 18, 39, 23, 23, 26, 35, 24, 44, 15, 11, 36, 38, 7, 29, 16, 12, 0, 24, 30, 29, 2, 23, 30, 11, 5, 30, 15, 7, 6
            |37, 28, 45, 4, 57, 36, 36, 49, 9, 21, 47, 34, 36, 19, 2, 22, 30, 33, 4, 26, 24, 45, 44, 5, 12, 27, 14, 9, 30, 21, 60, 48, 42, 53, 20, 35, 5, 35, 47, 38, 10, 33, 30, 41, 17, 7, 40, 23, 24, 0, 47, 11, 26, 42, 11, 17, 23, 49, 11, 31, 26
            |39, 22, 4, 52, 9, 19, 29, 3, 44, 33, 2, 17, 35, 32, 47, 37, 28, 15, 46, 35, 24, 25, 9, 47, 36, 40, 35, 56, 38, 43, 13, 11, 31, 10, 31, 13, 51, 29, 15, 39, 41, 34, 36, 25, 34, 48, 23, 25, 30, 47, 0, 45, 28, 8, 47, 31, 35, 3, 42, 27, 25
            |43, 29, 43, 14, 54, 38, 28, 46, 1, 26, 45, 29, 26, 24, 9, 12, 22, 32, 14, 32, 25, 37, 39, 15, 15, 17, 10, 17, 20, 10, 57, 48, 47, 49, 14, 32, 16, 26, 48, 28, 17, 39, 20, 34, 22, 5, 43, 22, 29, 11, 45, 0, 29, 41, 2, 18, 29, 47, 20, 35, 28
            |17, 6, 24, 29, 37, 11, 36, 31, 28, 6, 26, 24, 39, 6, 26, 31, 29, 14, 22, 8, 7, 39, 29, 23, 15, 37, 20, 33, 37, 34, 40, 24, 17, 37, 22, 21, 27, 34, 22, 43, 16, 11, 35, 37, 9, 30, 14, 11, 2, 26, 28, 29, 0, 21, 31, 11, 7, 28, 17, 6, 4
            |31, 16, 4, 46, 16, 11, 31, 11, 41, 26, 6, 18, 37, 26, 42, 36, 28, 10, 40, 28, 18, 29, 14, 41, 31, 40, 31, 51, 38, 41, 20, 7, 23, 18, 28, 12, 45, 31, 9, 41, 35, 26, 36, 29, 28, 44, 16, 20, 23, 42, 8, 41, 21, 0, 44, 26, 28, 8, 36, 19, 18
            |45, 31, 45, 14, 56, 40, 30, 49, 3, 28, 47, 31, 28, 25, 9, 14, 24, 34, 15, 34, 27, 39, 41, 16, 16, 18, 13, 16, 21, 11, 59, 50, 49, 51, 16, 34, 15, 28, 50, 29, 18, 41, 22, 35, 24, 4, 45, 25, 30, 11, 47, 2, 31, 44, 0, 20, 31, 49, 21, 37, 30
            |27, 11, 28, 21, 40, 20, 28, 33, 17, 10, 30, 20, 30, 7, 17, 20, 21, 16, 15, 16, 8, 34, 29, 16, 5, 26, 9, 25, 27, 23, 44, 31, 29, 38, 12, 20, 20, 26, 31, 34, 10, 22, 26, 31, 7, 19, 25, 6, 11, 17, 31, 18, 11, 26, 20, 0, 13, 33, 12, 17, 10
            |14, 13, 31, 25, 44, 18, 41, 38, 28, 4, 34, 30, 44, 6, 24, 33, 34, 21, 19, 3, 13, 45, 36, 19, 15, 40, 22, 29, 40, 36, 47, 31, 19, 44, 26, 28, 23, 39, 28, 47, 13, 10, 39, 43, 7, 29, 19, 16, 5, 23, 35, 29, 7, 28, 31, 13, 0, 35, 12, 10, 11
            |38, 23, 4, 53, 9, 18, 32, 5, 47, 34, 2, 20, 38, 33, 49, 40, 31, 16, 47, 35, 25, 28, 13, 48, 38, 43, 37, 57, 41, 45, 12, 9, 29, 12, 33, 16, 52, 32, 13, 43, 42, 33, 39, 28, 35, 50, 22, 26, 30, 49, 3, 47, 28, 8, 49, 33, 35, 0, 43, 27, 25
            |25, 21, 39, 13, 52, 28, 39, 45, 18, 11, 41, 33, 41, 11, 13, 28, 32, 27, 7, 15, 18, 46, 41, 7, 9, 34, 17, 16, 36, 29, 55, 40, 31, 50, 22, 32, 11, 37, 39, 44, 3, 22, 35, 43, 8, 18, 30, 18, 15, 11, 42, 20, 17, 36, 21, 12, 12, 43, 0, 22, 18
            |13, 9, 23, 34, 35, 9, 40, 30, 34, 10, 25, 27, 44, 12, 32, 36, 34, 16, 28, 9, 12, 42, 30, 28, 21, 42, 26, 38, 42, 40, 39, 21, 11, 37, 28, 23, 33, 38, 18, 48, 22, 7, 41, 40, 14, 36, 9, 16, 7, 31, 27, 35, 6, 19, 37, 17, 10, 27, 22, 0, 9
            |21, 2, 21, 30, 34, 10, 32, 27, 27, 9, 23, 20, 35, 8, 26, 28, 25, 10, 23, 12, 4, 35, 25, 24, 15, 34, 18, 34, 34, 32, 37, 22, 20, 33, 19, 17, 28, 30, 21, 40, 17, 15, 32, 33, 10, 29, 15, 7, 6, 26, 25, 28, 4, 18, 30, 10, 11, 25, 18, 9, 0|];