% n60w160.003    61.83 644
n = 61;
duration = [|0, 44, 41, 18, 31, 25, 17, 24, 36, 48, 63, 41, 59, 24, 20, 37, 34, 22, 43, 40, 55, 19, 50, 29, 10, 29, 40, 47, 30, 37, 43, 13, 47, 31, 28, 34, 44, 22, 25, 34, 34, 29, 33, 6, 22, 33, 60, 46, 13, 33, 63, 42, 1, 37, 46, 50, 33, 50, 31, 52, 1
            |44, 0, 4, 28, 14, 22, 29, 32, 22, 16, 19, 4, 17, 30, 32, 19, 28, 26, 25, 26, 11, 34, 14, 34, 38, 21, 16, 9, 27, 9, 12, 31, 3, 33, 20, 19, 27, 29, 27, 11, 10, 21, 15, 38, 25, 12, 16, 34, 31, 19, 19, 6, 44, 33, 20, 9, 25, 22, 18, 11, 43
            |41, 4, 0, 26, 10, 18, 26, 31, 18, 19, 23, 5, 21, 26, 30, 16, 24, 24, 22, 27, 15, 32, 13, 33, 35, 20, 13, 8, 26, 4, 9, 28, 7, 33, 16, 15, 28, 27, 26, 7, 6, 16, 11, 34, 23, 8, 20, 30, 27, 15, 23, 4, 40, 33, 22, 13, 21, 25, 14, 12, 39
            |18, 28, 26, 0, 18, 17, 14, 11, 28, 30, 46, 25, 43, 23, 7, 29, 30, 5, 36, 23, 39, 8, 37, 16, 10, 11, 30, 33, 13, 23, 31, 7, 31, 17, 19, 25, 27, 6, 8, 20, 20, 21, 22, 12, 4, 19, 44, 42, 6, 24, 46, 28, 18, 22, 28, 33, 28, 32, 22, 38, 17
            |31, 14, 10, 18, 0, 9, 16, 26, 13, 25, 33, 12, 30, 17, 24, 12, 18, 18, 20, 28, 25, 25, 20, 30, 27, 17, 12, 16, 23, 6, 13, 19, 17, 30, 7, 9, 31, 21, 21, 3, 4, 8, 5, 25, 16, 2, 30, 28, 18, 9, 33, 11, 31, 32, 26, 22, 15, 30, 7, 21, 30
            |25, 22, 18, 17, 9, 0, 8, 27, 12, 33, 41, 21, 39, 9, 24, 13, 14, 19, 20, 33, 33, 24, 26, 31, 23, 20, 16, 23, 26, 14, 19, 14, 25, 32, 3, 9, 36, 22, 23, 11, 12, 5, 9, 19, 17, 11, 38, 25, 14, 8, 42, 18, 24, 36, 33, 31, 11, 37, 6, 28, 23
            |17, 29, 26, 14, 16, 8, 0, 24, 19, 38, 49, 27, 46, 9, 21, 21, 18, 18, 27, 35, 41, 21, 34, 29, 17, 21, 24, 31, 26, 21, 27, 8, 32, 31, 11, 17, 38, 19, 21, 18, 19, 13, 17, 11, 16, 18, 46, 31, 9, 16, 49, 26, 16, 35, 37, 37, 17, 41, 14, 36, 16
            |24, 32, 31, 11, 26, 27, 24, 0, 38, 28, 48, 28, 44, 33, 4, 38, 40, 8, 46, 17, 42, 5, 44, 5, 14, 11, 38, 39, 7, 29, 38, 17, 34, 7, 29, 34, 21, 5, 5, 27, 27, 31, 31, 20, 10, 26, 46, 52, 16, 33, 48, 34, 25, 13, 25, 35, 38, 28, 31, 43, 23
            |36, 22, 18, 28, 13, 12, 19, 38, 0, 37, 38, 23, 37, 13, 35, 3, 6, 30, 8, 41, 31, 36, 18, 42, 35, 30, 8, 18, 36, 15, 13, 26, 25, 42, 9, 4, 44, 33, 34, 14, 15, 7, 9, 30, 28, 14, 35, 14, 26, 5, 39, 16, 35, 45, 39, 31, 4, 42, 7, 22, 35
            |48, 16, 19, 30, 25, 33, 38, 28, 37, 0, 22, 14, 17, 42, 30, 35, 42, 26, 41, 14, 19, 32, 30, 27, 39, 19, 32, 25, 21, 22, 28, 36, 15, 25, 32, 33, 13, 28, 25, 24, 23, 33, 29, 42, 26, 23, 21, 50, 35, 33, 21, 22, 48, 23, 5, 11, 39, 6, 32, 26, 47
            |63, 19, 23, 46, 33, 41, 49, 48, 38, 22, 0, 22, 5, 49, 49, 35, 44, 44, 38, 36, 8, 51, 22, 48, 56, 38, 31, 21, 42, 27, 26, 50, 16, 47, 39, 36, 35, 46, 44, 30, 29, 39, 34, 57, 42, 31, 3, 46, 50, 37, 1, 23, 63, 45, 27, 13, 42, 26, 37, 17, 62
            |41, 4, 5, 25, 12, 21, 27, 28, 23, 14, 22, 0, 19, 29, 28, 20, 28, 22, 27, 22, 14, 30, 17, 30, 35, 17, 17, 12, 23, 8, 14, 28, 6, 29, 19, 19, 24, 25, 24, 10, 9, 20, 15, 35, 21, 10, 19, 35, 28, 19, 22, 8, 41, 29, 17, 10, 25, 20, 18, 15, 40
            |59, 17, 21, 43, 30, 39, 46, 44, 37, 17, 5, 19, 0, 47, 45, 34, 43, 39, 38, 31, 7, 46, 23, 44, 52, 33, 30, 20, 37, 25, 25, 47, 13, 42, 37, 35, 30, 42, 39, 28, 27, 37, 32, 53, 38, 28, 5, 46, 46, 35, 4, 22, 60, 40, 22, 9, 41, 21, 35, 17, 58
            |24, 30, 26, 23, 17, 9, 9, 33, 13, 42, 49, 29, 47, 0, 30, 16, 10, 26, 20, 42, 41, 30, 30, 38, 26, 29, 20, 29, 34, 22, 24, 17, 34, 39, 10, 13, 45, 28, 30, 19, 20, 10, 15, 19, 24, 19, 46, 22, 18, 12, 49, 25, 23, 44, 42, 39, 10, 46, 12, 34, 23
            |20, 32, 30, 7, 24, 24, 21, 4, 35, 30, 49, 28, 45, 30, 0, 35, 37, 6, 43, 20, 43, 1, 43, 9, 10, 12, 36, 38, 10, 28, 37, 13, 34, 11, 26, 32, 24, 3, 6, 26, 26, 28, 29, 16, 8, 25, 47, 49, 12, 31, 49, 33, 21, 17, 27, 36, 35, 31, 28, 43, 19
            |37, 19, 16, 29, 12, 13, 21, 38, 3, 35, 35, 20, 34, 16, 35, 0, 9, 30, 8, 40, 27, 36, 15, 42, 36, 29, 4, 15, 36, 13, 9, 27, 22, 42, 10, 4, 42, 33, 33, 12, 13, 8, 7, 32, 28, 13, 32, 16, 27, 5, 36, 13, 37, 44, 37, 28, 7, 40, 7, 19, 36
            |34, 28, 24, 30, 18, 14, 18, 40, 6, 42, 44, 28, 43, 10, 37, 9, 0, 33, 10, 45, 37, 38, 24, 45, 35, 33, 14, 24, 40, 20, 19, 26, 31, 45, 12, 9, 48, 35, 36, 19, 20, 10, 14, 29, 31, 19, 41, 12, 27, 9, 45, 22, 33, 49, 44, 37, 3, 47, 11, 28, 33
            |22, 26, 24, 5, 18, 19, 18, 8, 30, 26, 44, 22, 39, 26, 6, 30, 33, 0, 38, 18, 37, 7, 37, 12, 14, 6, 31, 32, 8, 22, 31, 12, 28, 13, 21, 26, 22, 3, 4, 20, 20, 23, 23, 17, 2, 19, 41, 44, 11, 25, 43, 27, 23, 17, 23, 30, 30, 27, 23, 36, 21
            |43, 25, 22, 36, 20, 20, 27, 46, 8, 41, 38, 27, 38, 20, 43, 8, 10, 38, 0, 47, 31, 44, 16, 50, 43, 37, 9, 18, 44, 20, 14, 34, 28, 50, 17, 12, 50, 41, 41, 20, 21, 15, 15, 38, 36, 21, 35, 9, 34, 13, 39, 19, 43, 52, 44, 34, 10, 47, 15, 21, 42
            |40, 26, 27, 23, 28, 33, 35, 17, 41, 14, 36, 22, 31, 42, 20, 40, 45, 18, 47, 0, 32, 22, 40, 14, 30, 13, 38, 34, 10, 28, 36, 30, 26, 12, 34, 37, 4, 18, 15, 28, 27, 36, 33, 35, 19, 27, 35, 55, 29, 36, 36, 31, 41, 8, 9, 24, 42, 12, 34, 37, 39
            |55, 11, 15, 39, 25, 33, 41, 42, 31, 19, 8, 14, 7, 41, 43, 27, 37, 37, 31, 32, 0, 44, 16, 43, 49, 31, 23, 13, 36, 19, 18, 43, 9, 41, 31, 28, 32, 39, 37, 22, 21, 31, 25, 49, 35, 23, 5, 39, 42, 29, 9, 15, 55, 40, 24, 8, 34, 24, 29, 10, 54
            |19, 34, 32, 8, 25, 24, 21, 5, 36, 32, 51, 30, 46, 30, 1, 36, 38, 7, 44, 22, 44, 0, 44, 10, 9, 13, 37, 39, 11, 29, 38, 13, 35, 12, 27, 32, 26, 4, 7, 27, 27, 29, 29, 16, 9, 26, 48, 50, 12, 31, 50, 34, 20, 18, 29, 37, 35, 32, 29, 44, 18
            |50, 14, 13, 37, 20, 26, 34, 44, 18, 30, 22, 17, 23, 30, 43, 15, 24, 37, 16, 40, 16, 44, 0, 47, 47, 33, 11, 5, 40, 15, 7, 38, 15, 46, 22, 18, 41, 40, 39, 17, 17, 21, 17, 44, 35, 18, 19, 24, 38, 18, 23, 10, 50, 46, 34, 20, 22, 35, 19, 5, 49
            |29, 34, 33, 16, 30, 31, 29, 5, 42, 27, 48, 30, 44, 38, 9, 42, 45, 12, 50, 14, 43, 10, 47, 0, 19, 13, 42, 41, 7, 32, 41, 22, 35, 2, 33, 38, 18, 10, 9, 31, 30, 35, 34, 26, 14, 30, 47, 56, 21, 37, 48, 36, 30, 8, 23, 35, 42, 26, 35, 45, 28
            |10, 38, 35, 10, 27, 23, 17, 14, 35, 39, 56, 35, 52, 26, 10, 36, 35, 14, 43, 30, 49, 9, 47, 19, 0, 20, 38, 42, 20, 32, 40, 9, 40, 21, 26, 32, 34, 12, 15, 29, 30, 28, 30, 8, 14, 28, 54, 48, 9, 31, 56, 37, 11, 27, 37, 43, 34, 41, 29, 47, 9
            |29, 21, 20, 11, 17, 20, 21, 11, 30, 19, 38, 17, 33, 29, 12, 29, 33, 6, 37, 13, 31, 13, 33, 13, 20, 0, 29, 28, 7, 19, 28, 17, 23, 13, 21, 26, 17, 9, 6, 17, 17, 23, 22, 23, 6, 17, 35, 44, 16, 25, 37, 23, 29, 16, 17, 24, 30, 21, 23, 32, 27
            |40, 16, 13, 30, 12, 16, 24, 38, 8, 32, 31, 17, 30, 20, 36, 4, 14, 31, 9, 38, 23, 37, 11, 42, 38, 29, 0, 10, 35, 11, 5, 29, 18, 42, 13, 7, 40, 34, 34, 11, 12, 11, 8, 34, 29, 12, 28, 18, 29, 8, 32, 9, 40, 44, 34, 25, 11, 37, 9, 14, 39
            |47, 9, 8, 33, 16, 23, 31, 39, 18, 25, 21, 12, 20, 29, 38, 15, 24, 32, 18, 34, 13, 39, 5, 41, 42, 28, 10, 0, 34, 10, 5, 34, 10, 41, 20, 16, 36, 35, 34, 13, 13, 19, 14, 40, 30, 14, 17, 27, 34, 17, 21, 5, 46, 41, 28, 16, 21, 30, 17, 5, 45
            |30, 27, 26, 13, 23, 26, 26, 7, 36, 21, 42, 23, 37, 34, 10, 36, 40, 8, 44, 10, 36, 11, 40, 7, 20, 7, 35, 34, 0, 25, 34, 20, 28, 6, 28, 32, 15, 8, 5, 24, 24, 30, 28, 25, 10, 23, 40, 51, 19, 31, 41, 30, 30, 9, 18, 28, 37, 21, 29, 38, 28
            |37, 9, 4, 23, 6, 14, 21, 29, 15, 22, 27, 8, 25, 22, 28, 13, 20, 22, 20, 28, 19, 29, 15, 32, 32, 19, 11, 10, 25, 0, 9, 24, 12, 32, 12, 11, 30, 25, 24, 3, 2, 12, 7, 30, 20, 4, 24, 28, 24, 11, 28, 5, 36, 33, 24, 17, 17, 27, 10, 15, 35
            |43, 12, 9, 31, 13, 19, 27, 38, 13, 28, 26, 14, 25, 24, 37, 9, 19, 31, 14, 36, 18, 38, 7, 41, 40, 28, 5, 5, 34, 9, 0, 32, 14, 41, 16, 11, 38, 34, 33, 11, 11, 15, 10, 37, 29, 12, 23, 22, 31, 12, 26, 6, 43, 42, 31, 20, 16, 34, 13, 9, 42
            |13, 31, 28, 7, 19, 14, 8, 17, 26, 36, 50, 28, 47, 17, 13, 27, 26, 12, 34, 30, 43, 13, 38, 22, 9, 17, 29, 34, 20, 24, 32, 0, 34, 24, 17, 23, 34, 13, 15, 21, 22, 19, 22, 6, 11, 21, 47, 39, 1, 22, 50, 30, 13, 29, 34, 38, 25, 38, 20, 39, 11
            |47, 3, 7, 31, 17, 25, 32, 34, 25, 15, 16, 6, 13, 34, 34, 22, 31, 28, 28, 26, 9, 35, 15, 35, 40, 23, 18, 10, 28, 12, 14, 34, 0, 34, 23, 22, 26, 31, 29, 14, 13, 24, 18, 40, 27, 15, 13, 36, 33, 22, 16, 9, 47, 33, 19, 6, 28, 21, 22, 11, 45
            |31, 33, 33, 17, 30, 32, 31, 7, 42, 25, 47, 29, 42, 39, 11, 42, 45, 13, 50, 12, 41, 12, 46, 2, 21, 13, 42, 41, 6, 32, 41, 24, 34, 0, 33, 38, 16, 11, 9, 30, 30, 36, 34, 27, 15, 30, 45, 57, 23, 37, 46, 36, 32, 6, 21, 34, 43, 24, 35, 44, 30
            |28, 20, 16, 19, 7, 3, 11, 29, 9, 32, 39, 19, 37, 10, 26, 10, 12, 21, 17, 34, 31, 27, 22, 33, 26, 21, 13, 20, 28, 12, 16, 17, 23, 33, 0, 6, 37, 24, 24, 9, 10, 2, 6, 22, 19, 9, 36, 23, 17, 5, 39, 16, 27, 37, 33, 29, 9, 37, 3, 25, 27
            |34, 19, 15, 25, 9, 9, 17, 34, 4, 33, 36, 19, 35, 13, 32, 4, 9, 26, 12, 37, 28, 32, 18, 38, 32, 26, 7, 16, 32, 11, 11, 23, 22, 38, 6, 0, 40, 29, 30, 10, 11, 4, 4, 28, 24, 10, 33, 18, 23, 1, 37, 13, 33, 41, 35, 28, 6, 38, 3, 21, 32
            |44, 27, 28, 27, 31, 36, 38, 21, 44, 13, 35, 24, 30, 45, 24, 42, 48, 22, 50, 4, 32, 26, 41, 18, 34, 17, 40, 36, 15, 30, 38, 34, 26, 16, 37, 40, 0, 23, 19, 30, 29, 38, 35, 39, 23, 29, 34, 58, 33, 39, 34, 32, 45, 11, 8, 24, 45, 9, 37, 38, 43
            |22, 29, 27, 6, 21, 22, 19, 5, 33, 28, 46, 25, 42, 28, 3, 33, 35, 3, 41, 18, 39, 4, 40, 10, 12, 9, 34, 35, 8, 25, 34, 13, 31, 11, 24, 29, 23, 0, 3, 23, 23, 26, 26, 17, 5, 22, 44, 47, 12, 28, 46, 30, 22, 16, 25, 33, 33, 29, 26, 39, 20
            |25, 27, 26, 8, 21, 23, 21, 5, 34, 25, 44, 24, 39, 30, 6, 33, 36, 4, 41, 15, 37, 7, 39, 9, 15, 6, 34, 34, 5, 24, 33, 15, 29, 9, 24, 30, 19, 3, 0, 23, 22, 27, 26, 20, 6, 22, 42, 48, 14, 29, 43, 29, 25, 14, 22, 30, 34, 26, 26, 38, 24
            |34, 11, 7, 20, 3, 11, 18, 27, 14, 24, 30, 10, 28, 19, 26, 12, 19, 20, 20, 28, 22, 27, 17, 31, 29, 17, 11, 13, 24, 3, 11, 21, 14, 30, 9, 10, 30, 23, 23, 0, 1, 10, 5, 27, 18, 1, 27, 28, 21, 9, 31, 8, 34, 32, 25, 20, 16, 28, 8, 18, 32
            |34, 10, 6, 20, 4, 12, 19, 27, 15, 23, 29, 9, 27, 20, 26, 13, 20, 20, 21, 27, 21, 27, 17, 30, 30, 17, 12, 13, 24, 2, 11, 22, 13, 30, 10, 11, 29, 23, 22, 1, 0, 11, 6, 28, 18, 1, 26, 28, 21, 10, 30, 8, 34, 32, 24, 19, 17, 28, 9, 17, 33
            |29, 21, 16, 21, 8, 5, 13, 31, 7, 33, 39, 20, 37, 10, 28, 8, 10, 23, 15, 36, 31, 29, 21, 35, 28, 23, 11, 19, 30, 12, 15, 19, 24, 36, 2, 4, 38, 26, 27, 10, 11, 0, 5, 24, 21, 10, 36, 21, 19, 3, 39, 16, 29, 39, 34, 29, 7, 38, 2, 24, 28
            |33, 15, 11, 22, 5, 9, 17, 31, 9, 29, 34, 15, 32, 15, 29, 7, 14, 23, 15, 33, 25, 29, 17, 34, 30, 22, 8, 14, 28, 7, 10, 22, 18, 34, 6, 4, 35, 26, 26, 5, 6, 5, 0, 27, 21, 6, 30, 23, 21, 4, 34, 10, 33, 37, 30, 24, 10, 34, 3, 19, 32
            |6, 38, 34, 12, 25, 19, 11, 20, 30, 42, 57, 35, 53, 19, 16, 32, 29, 17, 38, 35, 49, 16, 44, 26, 8, 23, 34, 40, 25, 30, 37, 6, 40, 27, 22, 28, 39, 17, 20, 27, 28, 24, 27, 0, 17, 27, 54, 41, 7, 27, 57, 36, 6, 33, 40, 44, 28, 44, 25, 45, 5
            |22, 25, 23, 4, 16, 17, 16, 10, 28, 26, 42, 21, 38, 24, 8, 28, 31, 2, 36, 19, 35, 9, 35, 14, 14, 6, 29, 30, 10, 20, 29, 11, 27, 15, 19, 24, 23, 5, 6, 18, 18, 21, 21, 17, 0, 17, 40, 42, 10, 23, 42, 25, 23, 19, 23, 29, 28, 28, 21, 35, 21
            |33, 12, 8, 19, 2, 11, 18, 26, 14, 23, 31, 10, 28, 19, 25, 13, 19, 19, 21, 27, 23, 26, 18, 30, 28, 17, 12, 14, 23, 4, 12, 21, 15, 30, 9, 10, 29, 22, 22, 1, 1, 10, 6, 27, 17, 0, 28, 28, 20, 10, 31, 9, 33, 32, 25, 20, 16, 28, 8, 19, 32
            |60, 16, 20, 44, 30, 38, 46, 46, 35, 21, 3, 19, 5, 46, 47, 32, 41, 41, 35, 35, 5, 48, 19, 47, 54, 35, 28, 17, 40, 24, 23, 47, 13, 45, 36, 33, 34, 44, 42, 27, 26, 36, 30, 54, 40, 28, 0, 43, 47, 34, 4, 20, 60, 43, 26, 11, 39, 25, 34, 14, 59
            |46, 34, 30, 42, 28, 25, 31, 52, 14, 50, 46, 35, 46, 22, 49, 16, 12, 44, 9, 55, 39, 50, 24, 56, 48, 44, 18, 27, 51, 28, 22, 39, 36, 57, 23, 18, 58, 47, 48, 28, 28, 21, 23, 41, 42, 28, 43, 0, 39, 19, 47, 27, 45, 60, 52, 42, 14, 55, 21, 29, 45
            |13, 31, 27, 6, 18, 14, 9, 16, 26, 35, 50, 28, 46, 18, 12, 27, 27, 11, 34, 29, 42, 12, 38, 21, 9, 16, 29, 34, 19, 24, 31, 1, 33, 23, 17, 23, 33, 12, 14, 21, 21, 19, 21, 7, 10, 20, 47, 39, 0, 22, 49, 29, 14, 28, 33, 37, 25, 37, 20, 39, 12
            |33, 19, 15, 24, 9, 8, 16, 33, 5, 33, 37, 19, 35, 12, 31, 5, 9, 25, 13, 36, 29, 31, 18, 37, 31, 25, 8, 17, 31, 11, 12, 22, 22, 37, 5, 1, 39, 28, 29, 9, 10, 3, 4, 27, 23, 10, 34, 19, 22, 0, 37, 14, 32, 40, 35, 28, 6, 38, 2, 21, 31
            |63, 19, 23, 46, 33, 42, 49, 48, 39, 21, 1, 22, 4, 49, 49, 36, 45, 43, 39, 36, 9, 50, 23, 48, 56, 37, 32, 21, 41, 28, 26, 50, 16, 46, 39, 37, 34, 46, 43, 31, 30, 39, 34, 57, 42, 31, 4, 47, 49, 37, 0, 24, 63, 44, 26, 13, 42, 25, 37, 18, 62
            |42, 6, 4, 28, 11, 18, 26, 34, 16, 22, 23, 8, 22, 25, 33, 13, 22, 27, 19, 31, 15, 34, 10, 36, 37, 23, 9, 5, 30, 5, 6, 30, 9, 36, 16, 13, 32, 30, 29, 8, 8, 16, 10, 36, 25, 9, 20, 27, 29, 14, 24, 0, 42, 37, 25, 15, 19, 28, 13, 10, 40
            |1, 44, 40, 18, 31, 24, 16, 25, 35, 48, 63, 41, 60, 23, 21, 37, 33, 23, 43, 41, 55, 20, 50, 30, 11, 29, 40, 46, 30, 36, 43, 13, 47, 32, 27, 33, 45, 22, 25, 34, 34, 29, 33, 6, 23, 33, 60, 45, 14, 32, 63, 42, 0, 38, 46, 50, 32, 50, 30, 51, 2
            |37, 33, 33, 22, 32, 36, 35, 13, 45, 23, 45, 29, 40, 44, 17, 44, 49, 17, 52, 8, 40, 18, 46, 8, 27, 16, 44, 41, 9, 33, 42, 29, 33, 6, 37, 41, 11, 16, 14, 32, 32, 39, 37, 33, 19, 32, 43, 60, 28, 40, 44, 37, 38, 0, 18, 32, 46, 20, 38, 44, 36
            |46, 20, 22, 28, 26, 33, 37, 25, 39, 5, 27, 17, 22, 42, 27, 37, 44, 23, 44, 9, 24, 29, 34, 23, 37, 17, 34, 28, 18, 24, 31, 34, 19, 21, 33, 35, 8, 25, 22, 25, 24, 34, 30, 40, 23, 25, 26, 52, 33, 35, 26, 25, 46, 18, 0, 16, 41, 4, 33, 30, 44
            |50, 9, 13, 33, 22, 31, 37, 35, 31, 11, 13, 10, 9, 39, 36, 28, 37, 30, 34, 24, 8, 37, 20, 35, 43, 24, 25, 16, 28, 17, 20, 38, 6, 34, 29, 28, 24, 33, 30, 20, 19, 29, 24, 44, 29, 20, 11, 42, 37, 28, 13, 15, 50, 32, 16, 0, 34, 16, 27, 16, 49
            |33, 25, 21, 28, 15, 11, 17, 38, 4, 39, 42, 25, 41, 10, 35, 7, 3, 30, 10, 42, 34, 35, 22, 42, 34, 30, 11, 21, 37, 17, 16, 25, 28, 43, 9, 6, 45, 33, 34, 16, 17, 7, 10, 28, 28, 16, 39, 14, 25, 6, 42, 19, 32, 46, 41, 34, 0, 44, 8, 25, 32
            |50, 22, 25, 32, 30, 37, 41, 28, 42, 6, 26, 20, 21, 46, 31, 40, 47, 27, 47, 12, 24, 32, 35, 26, 41, 21, 37, 30, 21, 27, 34, 38, 21, 24, 37, 38, 9, 29, 26, 28, 28, 38, 34, 44, 28, 28, 25, 55, 37, 38, 25, 28, 50, 20, 4, 16, 44, 0, 36, 31, 48
            |31, 18, 14, 22, 7, 6, 14, 31, 7, 32, 37, 18, 35, 12, 28, 7, 11, 23, 15, 34, 29, 29, 19, 35, 29, 23, 9, 17, 29, 10, 13, 20, 22, 35, 3, 3, 37, 26, 26, 8, 9, 2, 3, 25, 21, 8, 34, 21, 20, 2, 37, 13, 30, 38, 33, 27, 8, 36, 0, 22, 30
            |52, 11, 12, 38, 21, 28, 36, 43, 22, 26, 17, 15, 17, 34, 43, 19, 28, 36, 21, 37, 10, 44, 5, 45, 47, 32, 14, 5, 38, 15, 9, 39, 11, 44, 25, 21, 38, 39, 38, 18, 17, 24, 19, 45, 35, 19, 14, 29, 39, 21, 18, 10, 51, 44, 30, 16, 25, 31, 22, 0, 50
            |1, 43, 39, 17, 30, 23, 16, 23, 35, 47, 62, 40, 58, 23, 19, 36, 33, 21, 42, 39, 54, 18, 49, 28, 9, 27, 39, 45, 28, 35, 42, 11, 45, 30, 27, 32, 43, 20, 24, 32, 33, 28, 32, 5, 21, 32, 59, 45, 12, 31, 62, 40, 2, 36, 44, 49, 32, 48, 30, 50, 0|];
early = [0, 509, 94, 0, 129, 171, 201, 0, 193, 32, 507, 301, 90, 167, 16, 309, 190, 0, 265, 25, 69, 0, 147, 0, 0, 38, 213, 102, 28, 175, 137, 0, 84, 379, 161, 165, 23, 0, 0, 148, 260, 217, 148, 0, 329, 134, 89, 264, 437, 189, 122, 101, 0, 41, 354, 72, 212, 56, 158, 418, 0];
late = [737, 650, 256, 137, 333, 335, 318, 99, 395, 199, 674, 486, 270, 362, 160, 428, 391, 91, 424, 171, 245, 153, 304, 169, 153, 179, 421, 285, 190, 284, 289, 126, 293, 508, 319, 322, 231, 99, 110, 292, 430, 393, 325, 70, 522, 322, 280, 393, 635, 303, 241, 273, 104, 209, 465, 239, 339, 215, 350, 595, 72];