% n60w100.002    86.83 661
n = 61;
duration = [|0, 15, 40, 41, 10, 15, 24, 24, 18, 24, 31, 23, 44, 22, 17, 29, 30, 47, 18, 8, 44, 21, 19, 32, 40, 19, 26, 10, 17, 24, 18, 32, 15, 8, 40, 13, 22, 20, 26, 27, 43, 43, 29, 33, 15, 32, 31, 17, 36, 29, 29, 14, 20, 29, 34, 35, 28, 46, 39, 28, 41
            |15, 0, 40, 45, 8, 30, 27, 21, 32, 15, 40, 8, 41, 13, 29, 40, 22, 56, 32, 23, 53, 33, 28, 39, 46, 21, 11, 17, 32, 19, 32, 34, 13, 22, 37, 2, 10, 6, 38, 30, 44, 40, 40, 35, 30, 42, 29, 32, 43, 17, 14, 6, 19, 24, 43, 40, 37, 55, 39, 16, 38
            |40, 40, 0, 10, 35, 47, 16, 19, 38, 28, 25, 41, 9, 28, 31, 29, 23, 30, 40, 41, 30, 34, 26, 19, 15, 21, 41, 30, 51, 22, 52, 9, 28, 48, 8, 41, 33, 44, 33, 14, 4, 8, 29, 8, 45, 27, 12, 51, 16, 31, 43, 34, 22, 18, 24, 14, 22, 29, 1, 34, 7
            |41, 45, 10, 0, 38, 45, 17, 25, 34, 34, 18, 47, 19, 34, 28, 22, 31, 20, 37, 40, 20, 30, 24, 12, 5, 24, 48, 31, 48, 28, 50, 10, 32, 47, 18, 45, 39, 49, 27, 14, 7, 18, 22, 9, 43, 20, 19, 48, 8, 39, 50, 38, 26, 25, 16, 7, 17, 19, 9, 42, 17
            |10, 8, 35, 38, 0, 25, 21, 16, 25, 14, 33, 15, 37, 12, 21, 32, 21, 49, 25, 17, 45, 25, 21, 31, 39, 14, 17, 9, 27, 16, 28, 28, 7, 18, 33, 7, 12, 14, 31, 24, 38, 36, 32, 29, 24, 34, 25, 27, 35, 19, 20, 4, 13, 21, 35, 33, 29, 47, 34, 19, 34
            |15, 30, 47, 45, 25, 0, 31, 35, 11, 38, 29, 38, 53, 35, 17, 26, 43, 44, 9, 8, 40, 16, 21, 33, 42, 28, 41, 20, 4, 36, 5, 39, 28, 10, 49, 28, 36, 35, 21, 33, 48, 52, 26, 39, 2, 29, 41, 4, 38, 43, 44, 29, 31, 41, 32, 38, 29, 43, 46, 43, 50
            |24, 27, 16, 17, 21, 31, 0, 10, 24, 19, 17, 31, 22, 18, 16, 19, 19, 31, 26, 25, 28, 20, 12, 13, 18, 6, 32, 14, 35, 13, 37, 8, 14, 32, 18, 28, 23, 32, 21, 3, 18, 21, 19, 9, 30, 19, 11, 35, 16, 25, 35, 21, 9, 14, 18, 13, 13, 29, 15, 27, 18
            |24, 21, 19, 25, 16, 35, 10, 0, 30, 10, 27, 22, 21, 9, 23, 28, 10, 40, 31, 28, 38, 27, 19, 23, 27, 7, 23, 15, 38, 4, 40, 14, 9, 32, 16, 22, 14, 25, 30, 12, 23, 20, 28, 15, 34, 29, 8, 38, 25, 15, 26, 15, 4, 6, 28, 22, 23, 39, 18, 18, 17
            |18, 32, 38, 34, 25, 11, 24, 30, 0, 35, 18, 39, 45, 33, 8, 15, 39, 33, 2, 11, 29, 5, 12, 22, 32, 22, 42, 17, 14, 32, 16, 30, 25, 18, 41, 30, 35, 38, 10, 25, 39, 44, 15, 30, 9, 18, 34, 14, 28, 41, 45, 28, 26, 35, 21, 28, 18, 32, 37, 42, 42
            |24, 15, 28, 34, 14, 38, 19, 10, 35, 0, 36, 13, 27, 2, 29, 37, 8, 50, 36, 30, 48, 34, 26, 32, 37, 15, 13, 18, 41, 6, 42, 24, 10, 32, 23, 17, 5, 17, 38, 22, 32, 26, 37, 25, 37, 38, 16, 41, 35, 6, 16, 11, 11, 10, 38, 32, 32, 49, 27, 8, 24
            |31, 40, 25, 18, 33, 29, 17, 27, 18, 36, 0, 46, 34, 35, 14, 4, 37, 17, 20, 26, 13, 13, 12, 7, 14, 21, 47, 23, 32, 31, 34, 18, 29, 35, 31, 40, 39, 46, 9, 16, 24, 33, 4, 19, 27, 2, 27, 32, 11, 42, 50, 35, 25, 31, 3, 12, 4, 15, 24, 44, 31
            |23, 8, 41, 47, 15, 38, 31, 22, 39, 13, 46, 0, 40, 13, 35, 45, 20, 61, 40, 31, 58, 40, 34, 43, 49, 25, 3, 23, 40, 19, 40, 37, 17, 30, 36, 10, 9, 5, 45, 34, 45, 39, 45, 38, 38, 47, 29, 40, 46, 12, 6, 11, 21, 24, 48, 44, 42, 59, 40, 10, 37
            |44, 41, 9, 19, 37, 53, 22, 21, 45, 27, 34, 40, 0, 28, 38, 37, 20, 39, 47, 47, 39, 41, 33, 28, 24, 26, 40, 34, 57, 22, 58, 16, 30, 52, 4, 42, 32, 44, 41, 21, 12, 1, 37, 16, 52, 36, 13, 57, 25, 29, 41, 36, 25, 17, 33, 23, 31, 38, 10, 32, 4
            |22, 13, 28, 34, 12, 35, 18, 9, 33, 2, 35, 13, 28, 0, 27, 35, 9, 49, 34, 28, 47, 32, 25, 31, 36, 13, 14, 16, 38, 6, 39, 24, 8, 30, 24, 15, 4, 16, 36, 21, 32, 27, 35, 25, 35, 37, 16, 38, 34, 8, 16, 9, 9, 11, 36, 31, 31, 48, 28, 9, 25
            |17, 29, 31, 28, 21, 17, 16, 23, 8, 29, 14, 35, 38, 27, 0, 12, 32, 30, 10, 13, 26, 5, 4, 16, 25, 15, 38, 12, 21, 25, 22, 22, 19, 21, 33, 28, 30, 35, 9, 17, 31, 36, 12, 23, 15, 14, 26, 21, 21, 35, 41, 24, 19, 28, 16, 21, 12, 29, 29, 36, 34
            |29, 40, 29, 22, 32, 26, 19, 28, 15, 37, 4, 45, 37, 35, 12, 0, 38, 19, 17, 24, 15, 10, 11, 10, 18, 22, 48, 23, 29, 32, 31, 21, 29, 32, 34, 39, 39, 45, 5, 18, 28, 36, 0, 22, 24, 3, 29, 29, 14, 43, 51, 34, 26, 33, 6, 16, 6, 17, 27, 45, 34
            |30, 22, 23, 31, 21, 43, 19, 10, 39, 8, 37, 20, 20, 9, 32, 38, 0, 49, 41, 36, 47, 37, 29, 32, 34, 17, 19, 23, 47, 7, 48, 22, 16, 39, 17, 24, 12, 24, 40, 21, 27, 20, 38, 22, 42, 39, 12, 47, 33, 9, 21, 18, 13, 6, 38, 30, 33, 47, 23, 12, 18
            |47, 56, 30, 20, 49, 44, 31, 40, 33, 50, 17, 61, 39, 49, 30, 19, 49, 0, 35, 43, 4, 29, 29, 18, 15, 36, 62, 40, 47, 44, 49, 27, 44, 51, 38, 56, 53, 62, 23, 28, 27, 38, 19, 27, 42, 16, 37, 47, 16, 55, 65, 50, 40, 43, 14, 19, 19, 1, 29, 58, 37
            |18, 32, 40, 37, 25, 9, 26, 31, 2, 36, 20, 40, 47, 34, 10, 17, 41, 35, 0, 10, 31, 7, 14, 25, 34, 24, 43, 18, 12, 34, 14, 32, 26, 17, 43, 31, 36, 38, 12, 27, 41, 46, 17, 33, 7, 20, 36, 12, 30, 42, 46, 29, 28, 37, 23, 30, 20, 34, 39, 43, 44
            |8, 23, 41, 40, 17, 8, 25, 28, 11, 30, 26, 31, 47, 28, 13, 24, 36, 43, 10, 0, 39, 14, 16, 29, 38, 21, 34, 13, 11, 29, 12, 33, 20, 8, 42, 21, 29, 29, 20, 27, 43, 45, 24, 34, 7, 27, 34, 11, 34, 35, 37, 21, 23, 33, 29, 33, 25, 41, 40, 36, 43
            |44, 53, 30, 20, 45, 40, 28, 38, 29, 48, 13, 58, 39, 47, 26, 15, 47, 4, 31, 39, 0, 25, 25, 15, 15, 33, 60, 36, 43, 42, 45, 26, 41, 47, 37, 53, 51, 59, 19, 26, 27, 38, 15, 26, 38, 12, 36, 43, 14, 53, 63, 47, 37, 41, 11, 17, 16, 3, 29, 56, 37
            |21, 33, 34, 30, 25, 16, 20, 27, 5, 34, 13, 40, 41, 32, 5, 10, 37, 29, 7, 14, 25, 0, 9, 17, 27, 20, 42, 17, 19, 30, 21, 25, 24, 22, 37, 32, 35, 39, 6, 21, 34, 40, 10, 26, 14, 13, 31, 19, 22, 40, 46, 29, 24, 33, 16, 23, 13, 27, 33, 41, 38
            |19, 28, 26, 24, 21, 21, 12, 19, 12, 26, 12, 34, 33, 25, 4, 11, 29, 29, 14, 16, 25, 9, 0, 13, 22, 12, 36, 11, 25, 22, 26, 18, 17, 24, 29, 28, 28, 34, 11, 13, 27, 32, 11, 19, 19, 13, 22, 25, 18, 33, 39, 23, 16, 25, 15, 17, 9, 27, 25, 34, 30
            |32, 39, 19, 12, 31, 33, 13, 23, 22, 32, 7, 43, 28, 31, 16, 10, 32, 18, 25, 29, 15, 17, 13, 0, 9, 18, 45, 23, 36, 26, 38, 12, 26, 37, 25, 39, 35, 44, 15, 11, 18, 26, 10, 12, 31, 9, 21, 36, 5, 38, 48, 33, 22, 26, 6, 6, 4, 16, 17, 40, 25
            |40, 46, 15, 5, 39, 42, 18, 27, 32, 37, 14, 49, 24, 36, 25, 18, 34, 15, 34, 38, 15, 27, 22, 9, 0, 25, 50, 31, 46, 30, 48, 13, 33, 46, 22, 46, 41, 51, 23, 15, 12, 23, 18, 12, 40, 16, 22, 46, 4, 42, 52, 39, 27, 29, 12, 5, 14, 14, 14, 45, 22
            |19, 21, 21, 24, 14, 28, 6, 7, 22, 15, 21, 25, 26, 13, 15, 22, 17, 36, 24, 21, 33, 20, 12, 18, 25, 0, 26, 9, 32, 10, 33, 14, 8, 27, 21, 21, 17, 26, 23, 9, 24, 24, 22, 15, 27, 23, 13, 32, 22, 21, 29, 15, 4, 13, 23, 19, 17, 35, 20, 23, 22
            |26, 11, 41, 48, 17, 41, 32, 23, 42, 13, 47, 3, 40, 14, 38, 48, 19, 62, 43, 34, 60, 42, 36, 45, 50, 26, 0, 26, 43, 20, 44, 37, 19, 33, 36, 13, 9, 8, 47, 35, 45, 39, 48, 38, 41, 49, 30, 43, 47, 11, 3, 14, 23, 23, 49, 45, 44, 61, 41, 8, 37
            |10, 17, 30, 31, 9, 20, 14, 15, 17, 18, 23, 23, 34, 16, 12, 23, 23, 40, 18, 13, 36, 17, 11, 23, 31, 9, 26, 0, 24, 16, 25, 22, 8, 18, 30, 16, 18, 23, 21, 17, 32, 33, 23, 23, 19, 25, 22, 24, 27, 24, 29, 12, 11, 21, 26, 25, 20, 38, 29, 25, 31
            |17, 32, 51, 48, 27, 4, 35, 38, 14, 41, 32, 40, 57, 38, 21, 29, 47, 47, 12, 11, 43, 19, 25, 36, 46, 32, 43, 24, 0, 40, 2, 42, 31, 11, 52, 30, 39, 37, 24, 37, 52, 55, 29, 43, 5, 32, 45, 0, 41, 46, 46, 31, 34, 44, 35, 41, 32, 46, 49, 46, 53
            |24, 19, 22, 28, 16, 36, 13, 4, 32, 6, 31, 19, 22, 6, 25, 32, 7, 44, 34, 29, 42, 30, 22, 26, 30, 10, 20, 16, 40, 0, 41, 18, 9, 33, 18, 20, 11, 22, 33, 16, 26, 21, 32, 19, 35, 33, 10, 40, 28, 12, 22, 13, 6, 5, 32, 25, 27, 42, 21, 14, 19
            |18, 32, 52, 50, 28, 5, 37, 40, 16, 42, 34, 40, 58, 39, 22, 31, 48, 49, 14, 12, 45, 21, 26, 38, 48, 33, 44, 25, 2, 41, 0, 44, 32, 11, 54, 30, 40, 37, 26, 39, 54, 57, 31, 45, 7, 34, 46, 2, 43, 47, 46, 32, 35, 45, 37, 43, 34, 48, 51, 46, 55
            |32, 34, 9, 10, 28, 39, 8, 14, 30, 24, 18, 37, 16, 24, 22, 21, 22, 27, 32, 33, 26, 25, 18, 12, 13, 14, 37, 22, 42, 18, 44, 0, 22, 40, 13, 35, 28, 39, 25, 5, 10, 15, 21, 1, 37, 20, 10, 42, 12, 29, 40, 28, 16, 16, 18, 9, 15, 26, 7, 32, 13
            |15, 13, 28, 32, 7, 28, 14, 9, 25, 10, 29, 17, 30, 8, 19, 29, 16, 44, 26, 20, 41, 24, 17, 26, 33, 8, 19, 8, 31, 9, 32, 22, 0, 23, 26, 13, 10, 18, 28, 17, 31, 29, 29, 23, 27, 30, 17, 31, 30, 16, 22, 7, 6, 14, 30, 27, 25, 42, 27, 17, 27
            |8, 22, 48, 47, 18, 10, 32, 32, 18, 32, 35, 30, 52, 30, 21, 32, 39, 51, 17, 8, 47, 22, 24, 37, 46, 27, 33, 18, 11, 33, 11, 40, 23, 0, 48, 19, 30, 26, 28, 34, 50, 51, 32, 41, 11, 35, 39, 11, 42, 37, 36, 22, 28, 38, 38, 41, 33, 50, 46, 36, 49
            |40, 37, 8, 18, 33, 49, 18, 16, 41, 23, 31, 36, 4, 24, 33, 34, 17, 38, 43, 42, 37, 37, 29, 25, 22, 21, 36, 30, 52, 18, 54, 13, 26, 48, 0, 38, 28, 40, 38, 17, 12, 3, 34, 12, 47, 33, 9, 52, 23, 26, 38, 31, 20, 13, 30, 20, 28, 36, 8, 29, 1
            |13, 2, 41, 45, 7, 28, 28, 22, 30, 17, 40, 10, 42, 15, 28, 39, 24, 56, 31, 21, 53, 32, 28, 39, 46, 21, 13, 16, 30, 20, 30, 35, 13, 19, 38, 0, 12, 7, 37, 31, 44, 41, 39, 36, 28, 41, 30, 30, 42, 19, 16, 7, 19, 25, 42, 40, 36, 54, 40, 18, 39
            |22, 10, 33, 39, 12, 36, 23, 14, 35, 5, 39, 9, 32, 4, 30, 39, 12, 53, 36, 29, 51, 35, 28, 35, 41, 17, 9, 18, 39, 11, 40, 28, 10, 30, 28, 12, 0, 12, 39, 25, 36, 31, 39, 29, 36, 40, 21, 39, 38, 7, 12, 8, 13, 15, 40, 35, 35, 52, 32, 7, 29
            |20, 6, 44, 49, 14, 35, 32, 25, 38, 17, 46, 5, 44, 16, 35, 45, 24, 62, 38, 29, 59, 39, 34, 44, 51, 26, 8, 23, 37, 22, 37, 39, 18, 26, 40, 7, 12, 0, 44, 35, 48, 43, 45, 40, 35, 47, 33, 37, 48, 17, 10, 11, 23, 27, 48, 45, 42, 60, 43, 15, 41
            |26, 38, 33, 27, 31, 21, 21, 30, 10, 38, 9, 45, 41, 36, 9, 5, 40, 23, 12, 20, 19, 6, 11, 15, 23, 23, 47, 21, 24, 33, 26, 25, 28, 28, 38, 37, 39, 44, 0, 21, 33, 40, 5, 26, 19, 8, 32, 24, 19, 44, 50, 34, 27, 35, 12, 21, 11, 22, 32, 45, 38
            |27, 30, 14, 14, 24, 33, 3, 12, 25, 22, 16, 34, 21, 21, 17, 18, 21, 28, 27, 27, 26, 21, 13, 11, 15, 9, 35, 17, 37, 16, 39, 5, 17, 34, 17, 31, 25, 35, 21, 0, 16, 19, 18, 6, 32, 18, 11, 37, 13, 27, 37, 24, 12, 16, 16, 10, 12, 27, 13, 30, 17
            |43, 44, 4, 7, 38, 48, 18, 23, 39, 32, 24, 45, 12, 32, 31, 28, 27, 27, 41, 43, 27, 34, 27, 18, 12, 24, 45, 32, 52, 26, 54, 10, 31, 50, 12, 44, 36, 48, 33, 16, 0, 11, 28, 9, 47, 26, 16, 52, 14, 36, 47, 37, 25, 22, 23, 12, 22, 26, 4, 39, 11
            |43, 40, 8, 18, 36, 52, 21, 20, 44, 26, 33, 39, 1, 27, 36, 36, 20, 38, 46, 45, 38, 40, 32, 26, 23, 24, 39, 33, 55, 21, 57, 15, 29, 51, 3, 41, 31, 43, 40, 19, 11, 0, 36, 14, 50, 35, 12, 55, 24, 28, 41, 34, 23, 16, 32, 21, 30, 37, 9, 31, 2
            |29, 40, 29, 22, 32, 26, 19, 28, 15, 37, 4, 45, 37, 35, 12, 0, 38, 19, 17, 24, 15, 10, 11, 10, 18, 22, 48, 23, 29, 32, 31, 21, 29, 32, 34, 39, 39, 45, 5, 18, 28, 36, 0, 22, 24, 3, 29, 29, 14, 43, 51, 34, 26, 33, 6, 16, 6, 17, 27, 45, 34
            |33, 35, 8, 9, 29, 39, 9, 15, 30, 25, 19, 38, 16, 25, 23, 22, 22, 27, 33, 34, 26, 26, 19, 12, 12, 15, 38, 23, 43, 19, 45, 1, 23, 41, 12, 36, 29, 40, 26, 6, 9, 14, 22, 0, 38, 21, 10, 43, 11, 30, 41, 29, 17, 16, 18, 8, 15, 26, 6, 33, 13
            |15, 30, 45, 43, 24, 2, 30, 34, 9, 37, 27, 38, 52, 35, 15, 24, 42, 42, 7, 7, 38, 14, 19, 31, 40, 27, 41, 19, 5, 35, 7, 37, 27, 11, 47, 28, 36, 35, 19, 32, 47, 50, 24, 38, 0, 27, 40, 5, 36, 42, 44, 28, 30, 40, 30, 36, 27, 41, 44, 43, 48
            |32, 42, 27, 20, 34, 29, 19, 29, 18, 38, 2, 47, 36, 37, 14, 3, 39, 16, 20, 27, 12, 13, 13, 9, 16, 23, 49, 25, 32, 33, 34, 20, 30, 35, 33, 41, 40, 47, 8, 18, 26, 35, 3, 21, 27, 0, 29, 32, 12, 44, 52, 36, 27, 33, 4, 14, 6, 15, 26, 46, 33
            |31, 29, 12, 19, 25, 41, 11, 8, 34, 16, 27, 29, 13, 16, 26, 29, 12, 37, 36, 34, 36, 31, 22, 21, 22, 13, 30, 22, 45, 10, 46, 10, 17, 39, 9, 30, 21, 33, 32, 11, 16, 12, 29, 10, 40, 29, 0, 45, 22, 20, 32, 23, 12, 6, 27, 18, 23, 36, 11, 23, 9
            |17, 32, 51, 48, 27, 4, 35, 38, 14, 41, 32, 40, 57, 38, 21, 29, 47, 47, 12, 11, 43, 19, 25, 36, 46, 32, 43, 24, 0, 40, 2, 42, 31, 11, 52, 30, 39, 37, 24, 37, 52, 55, 29, 43, 5, 32, 45, 0, 41, 46, 46, 31, 34, 44, 35, 41, 32, 46, 49, 46, 53
            |36, 43, 16, 8, 35, 38, 16, 25, 28, 35, 11, 46, 25, 34, 21, 14, 33, 16, 30, 34, 14, 22, 18, 5, 4, 22, 47, 27, 41, 28, 43, 12, 30, 42, 23, 42, 38, 48, 19, 13, 14, 24, 14, 11, 36, 12, 22, 41, 0, 40, 50, 36, 25, 27, 9, 3, 9, 14, 15, 43, 23
            |29, 17, 31, 39, 19, 43, 25, 15, 41, 6, 42, 12, 29, 8, 35, 43, 9, 55, 42, 35, 53, 40, 33, 38, 42, 21, 11, 24, 46, 12, 47, 29, 16, 37, 26, 19, 7, 17, 44, 27, 36, 28, 43, 30, 42, 44, 20, 46, 40, 0, 12, 15, 17, 14, 43, 37, 38, 54, 31, 3, 27
            |29, 14, 43, 50, 20, 44, 35, 26, 45, 16, 50, 6, 41, 16, 41, 51, 21, 65, 46, 37, 63, 46, 39, 48, 52, 29, 3, 29, 46, 22, 46, 40, 22, 36, 38, 16, 12, 10, 50, 37, 47, 41, 51, 41, 44, 52, 32, 46, 50, 12, 0, 17, 25, 25, 52, 47, 47, 64, 43, 9, 39
            |14, 6, 34, 38, 4, 29, 21, 15, 28, 11, 35, 11, 36, 9, 24, 34, 18, 50, 29, 21, 47, 29, 23, 33, 39, 15, 14, 12, 31, 13, 32, 28, 7, 22, 31, 7, 8, 11, 34, 24, 37, 34, 34, 29, 28, 36, 23, 31, 36, 15, 17, 0, 12, 19, 37, 34, 31, 49, 33, 15, 32
            |20, 19, 22, 26, 13, 31, 9, 4, 26, 11, 25, 21, 25, 9, 19, 26, 13, 40, 28, 23, 37, 24, 16, 22, 27, 4, 23, 11, 34, 6, 35, 16, 6, 28, 20, 19, 13, 23, 27, 12, 25, 23, 26, 17, 30, 27, 12, 34, 25, 17, 25, 12, 0, 10, 27, 22, 21, 38, 21, 19, 21
            |29, 24, 18, 25, 21, 41, 14, 6, 35, 10, 31, 24, 17, 11, 28, 33, 6, 43, 37, 33, 41, 33, 25, 26, 29, 13, 23, 21, 44, 5, 45, 16, 14, 38, 13, 25, 15, 27, 35, 16, 22, 16, 33, 16, 40, 33, 6, 44, 27, 14, 25, 19, 10, 0, 32, 24, 27, 42, 17, 17, 14
            |34, 43, 24, 16, 35, 32, 18, 28, 21, 38, 3, 48, 33, 36, 16, 6, 38, 14, 23, 29, 11, 16, 15, 6, 12, 23, 49, 26, 35, 32, 37, 18, 30, 38, 30, 42, 40, 48, 12, 16, 23, 32, 6, 18, 30, 4, 27, 35, 9, 43, 52, 37, 27, 32, 0, 11, 6, 13, 23, 46, 31
            |35, 40, 14, 7, 33, 38, 13, 22, 28, 32, 12, 44, 23, 31, 21, 16, 30, 19, 30, 33, 17, 23, 17, 6, 5, 19, 45, 25, 41, 25, 43, 9, 27, 41, 20, 40, 35, 45, 21, 10, 12, 21, 16, 8, 36, 14, 18, 41, 3, 37, 47, 34, 22, 24, 11, 0, 10, 17, 12, 40, 20
            |28, 37, 22, 17, 29, 29, 13, 23, 18, 32, 4, 42, 31, 31, 12, 6, 33, 19, 20, 25, 16, 13, 9, 4, 14, 17, 44, 20, 32, 27, 34, 15, 25, 33, 28, 36, 35, 42, 11, 12, 22, 30, 6, 15, 27, 6, 23, 32, 9, 38, 47, 31, 21, 27, 6, 10, 0, 18, 21, 40, 28
            |46, 55, 29, 19, 47, 43, 29, 39, 32, 49, 15, 59, 38, 48, 29, 17, 47, 1, 34, 41, 3, 27, 27, 16, 14, 35, 61, 38, 46, 42, 48, 26, 42, 50, 36, 54, 52, 60, 22, 27, 26, 37, 17, 26, 41, 15, 36, 46, 14, 54, 64, 49, 38, 42, 13, 17, 18, 0, 28, 57, 36
            |39, 39, 1, 9, 34, 46, 15, 18, 37, 27, 24, 40, 10, 28, 29, 27, 23, 29, 39, 40, 29, 33, 25, 17, 14, 20, 41, 29, 49, 21, 51, 7, 27, 46, 8, 40, 32, 43, 32, 13, 4, 9, 27, 6, 44, 26, 11, 49, 15, 31, 43, 33, 21, 17, 23, 12, 21, 28, 0, 34, 8
            |28, 16, 34, 42, 19, 43, 27, 18, 42, 8, 44, 10, 32, 9, 36, 45, 12, 58, 43, 36, 56, 41, 34, 40, 45, 23, 8, 25, 46, 14, 46, 32, 17, 36, 29, 18, 7, 15, 45, 30, 39, 31, 45, 33, 43, 46, 23, 46, 43, 3, 9, 15, 19, 17, 46, 40, 40, 57, 34, 0, 30
            |41, 38, 7, 17, 34, 50, 18, 17, 42, 24, 31, 37, 4, 25, 34, 34, 18, 37, 44, 43, 37, 38, 30, 25, 22, 22, 37, 31, 53, 19, 55, 13, 27, 49, 1, 39, 29, 41, 38, 17, 11, 2, 34, 13, 48, 33, 9, 53, 23, 27, 39, 32, 21, 14, 31, 20, 28, 36, 8, 30, 0|];