% n60w140.002    40.63 698
n = 61;
duration = [|0, 29, 37, 39, 23, 46, 31, 19, 24, 43, 4, 30, 33, 21, 8, 12, 20, 41, 21, 9, 30, 6, 23, 30, 16, 42, 9, 19, 24, 33, 3, 6, 34, 42, 38, 35, 34, 47, 19, 48, 27, 17, 27, 8, 34, 15, 34, 8, 33, 26, 4, 23, 43, 10, 40, 16, 32, 13, 26, 14, 44
            |29, 0, 16, 21, 29, 41, 29, 36, 39, 31, 32, 53, 20, 38, 31, 21, 9, 18, 16, 23, 43, 26, 5, 47, 18, 39, 35, 40, 44, 32, 26, 28, 26, 13, 44, 22, 19, 43, 34, 40, 1, 14, 17, 33, 9, 29, 42, 21, 4, 8, 30, 44, 28, 23, 22, 13, 41, 30, 17, 17, 44
            |37, 16, 0, 5, 26, 29, 21, 36, 38, 17, 41, 53, 9, 37, 36, 34, 22, 4, 16, 35, 40, 36, 18, 45, 32, 27, 45, 42, 45, 24, 35, 38, 16, 16, 37, 9, 8, 31, 33, 27, 16, 27, 12, 38, 6, 31, 36, 31, 15, 23, 36, 45, 14, 28, 7, 21, 36, 42, 13, 23, 34
            |39, 21, 5, 0, 25, 24, 18, 35, 36, 12, 43, 52, 8, 37, 37, 37, 26, 6, 18, 38, 38, 39, 23, 44, 36, 23, 48, 42, 44, 21, 37, 41, 13, 21, 33, 6, 6, 26, 33, 22, 21, 31, 12, 39, 12, 31, 33, 34, 20, 28, 38, 44, 8, 30, 1, 24, 33, 46, 13, 25, 29
            |23, 29, 26, 25, 0, 23, 9, 10, 11, 23, 26, 27, 17, 12, 17, 30, 26, 30, 14, 29, 14, 27, 26, 19, 31, 19, 31, 17, 19, 10, 23, 28, 14, 39, 16, 19, 19, 24, 8, 25, 28, 28, 15, 19, 27, 9, 13, 24, 33, 33, 20, 19, 24, 14, 25, 19, 12, 35, 14, 16, 21
            |46, 41, 29, 24, 23, 0, 16, 32, 29, 12, 50, 44, 22, 32, 40, 50, 43, 30, 30, 50, 27, 50, 41, 33, 51, 4, 55, 38, 37, 14, 46, 51, 15, 45, 16, 20, 22, 2, 30, 4, 41, 47, 25, 42, 34, 32, 19, 45, 43, 48, 43, 38, 16, 37, 23, 37, 21, 57, 25, 36, 8
            |31, 29, 21, 18, 9, 16, 0, 19, 19, 14, 34, 35, 12, 20, 26, 35, 28, 24, 15, 35, 19, 34, 27, 26, 36, 11, 39, 26, 27, 3, 31, 35, 6, 36, 16, 12, 13, 16, 17, 17, 28, 32, 12, 28, 24, 18, 14, 30, 31, 35, 28, 28, 16, 21, 18, 22, 15, 42, 12, 21, 16
            |19, 36, 36, 35, 10, 32, 19, 0, 5, 33, 21, 18, 27, 2, 11, 29, 30, 39, 21, 27, 10, 25, 31, 12, 32, 27, 26, 7, 9, 19, 21, 25, 24, 47, 20, 29, 29, 31, 2, 34, 34, 30, 24, 12, 35, 6, 16, 23, 39, 37, 15, 9, 35, 14, 35, 23, 13, 32, 23, 19, 27
            |24, 39, 38, 36, 11, 29, 19, 5, 0, 33, 26, 16, 29, 4, 16, 34, 34, 41, 24, 32, 5, 30, 35, 8, 37, 25, 31, 9, 8, 18, 26, 30, 25, 50, 16, 30, 30, 29, 6, 32, 38, 35, 26, 17, 38, 11, 12, 28, 43, 42, 20, 9, 35, 19, 37, 27, 9, 37, 25, 24, 24
            |43, 31, 17, 12, 23, 12, 14, 33, 33, 0, 47, 49, 12, 34, 39, 44, 35, 18, 23, 45, 32, 45, 32, 39, 44, 12, 52, 40, 41, 15, 42, 47, 9, 33, 25, 10, 12, 15, 31, 10, 31, 40, 17, 41, 23, 31, 26, 40, 32, 39, 41, 42, 4, 33, 11, 31, 27, 52, 18, 31, 19
            |4, 32, 41, 43, 26, 50, 34, 21, 26, 47, 0, 29, 37, 22, 10, 14, 23, 45, 25, 11, 31, 8, 27, 31, 18, 45, 5, 19, 24, 36, 6, 7, 38, 45, 41, 39, 37, 50, 21, 51, 31, 20, 31, 9, 37, 18, 36, 11, 37, 29, 6, 23, 47, 14, 44, 20, 34, 12, 30, 18, 47
            |30, 53, 53, 52, 27, 44, 35, 18, 16, 49, 29, 0, 45, 16, 23, 42, 46, 57, 38, 39, 17, 36, 48, 11, 46, 40, 32, 12, 9, 34, 32, 36, 41, 64, 28, 46, 46, 43, 20, 47, 51, 45, 42, 22, 53, 23, 25, 36, 57, 53, 26, 8, 51, 30, 53, 39, 23, 41, 41, 36, 37
            |33, 20, 9, 8, 17, 22, 12, 27, 29, 12, 37, 45, 0, 29, 30, 32, 23, 13, 12, 33, 30, 34, 20, 36, 32, 19, 41, 34, 36, 14, 31, 35, 7, 25, 27, 2, 1, 23, 25, 21, 19, 28, 5, 32, 13, 24, 26, 29, 21, 27, 31, 37, 10, 23, 8, 19, 26, 41, 6, 19, 25
            |21, 38, 37, 37, 12, 32, 20, 2, 4, 34, 22, 16, 29, 0, 13, 31, 32, 41, 23, 29, 9, 26, 34, 10, 34, 28, 27, 6, 7, 20, 22, 27, 26, 49, 19, 30, 30, 32, 4, 35, 36, 33, 26, 13, 37, 9, 15, 25, 42, 40, 17, 8, 36, 16, 37, 25, 13, 34, 25, 22, 27
            |8, 31, 36, 37, 17, 40, 26, 11, 16, 39, 10, 23, 30, 13, 0, 19, 23, 40, 20, 17, 22, 14, 26, 22, 23, 36, 15, 11, 16, 27, 10, 14, 30, 44, 31, 32, 31, 40, 11, 42, 30, 22, 25, 2, 34, 8, 26, 14, 36, 31, 4, 15, 39, 8, 38, 18, 24, 21, 24, 14, 37
            |12, 21, 34, 37, 30, 50, 35, 29, 34, 44, 14, 42, 32, 31, 19, 0, 12, 37, 21, 3, 39, 6, 16, 41, 4, 46, 15, 30, 35, 37, 9, 8, 36, 34, 46, 35, 33, 51, 28, 51, 20, 7, 27, 20, 28, 23, 42, 6, 25, 16, 16, 35, 43, 16, 38, 14, 41, 9, 26, 14, 50
            |20, 9, 22, 26, 26, 43, 28, 30, 34, 35, 23, 46, 23, 32, 23, 12, 0, 25, 14, 14, 39, 16, 4, 42, 10, 39, 26, 34, 38, 31, 17, 18, 28, 22, 42, 25, 23, 44, 28, 43, 8, 5, 18, 25, 16, 23, 39, 12, 14, 8, 21, 38, 33, 16, 27, 7, 38, 21, 17, 10, 44
            |41, 18, 4, 6, 30, 30, 24, 39, 41, 18, 45, 57, 13, 41, 40, 37, 25, 0, 21, 39, 43, 40, 22, 49, 35, 29, 49, 46, 49, 27, 39, 42, 19, 15, 39, 12, 11, 32, 37, 28, 18, 31, 16, 42, 9, 35, 39, 35, 16, 26, 40, 49, 14, 33, 7, 25, 39, 46, 17, 27, 36
            |21, 16, 16, 18, 14, 30, 15, 21, 24, 23, 25, 38, 12, 23, 20, 21, 14, 21, 0, 22, 27, 22, 13, 32, 21, 26, 30, 26, 30, 18, 20, 24, 15, 26, 29, 14, 12, 31, 18, 30, 15, 17, 6, 22, 15, 15, 26, 17, 19, 20, 20, 30, 22, 12, 19, 8, 25, 29, 5, 8, 30
            |9, 23, 35, 38, 29, 50, 35, 27, 32, 45, 11, 39, 33, 29, 17, 3, 14, 39, 22, 0, 38, 4, 18, 39, 7, 46, 13, 28, 33, 37, 7, 5, 36, 36, 45, 35, 34, 51, 27, 51, 22, 9, 28, 17, 30, 22, 41, 5, 27, 19, 13, 32, 43, 14, 40, 14, 39, 8, 27, 14, 49
            |30, 43, 40, 38, 14, 27, 19, 10, 5, 32, 31, 17, 30, 9, 22, 39, 39, 43, 27, 38, 0, 35, 40, 6, 42, 23, 36, 13, 11, 18, 31, 36, 25, 53, 12, 31, 32, 26, 11, 30, 42, 40, 29, 22, 41, 16, 8, 33, 47, 46, 26, 12, 35, 24, 38, 32, 6, 42, 28, 28, 20
            |6, 26, 36, 39, 27, 50, 34, 25, 30, 45, 8, 36, 34, 26, 14, 6, 16, 40, 22, 4, 35, 0, 20, 36, 11, 45, 9, 25, 30, 36, 4, 2, 36, 39, 43, 36, 34, 50, 24, 50, 25, 13, 28, 14, 32, 20, 39, 5, 30, 22, 10, 29, 44, 13, 41, 15, 37, 8, 27, 14, 48
            |23, 5, 18, 23, 26, 41, 27, 31, 35, 32, 27, 48, 20, 34, 26, 16, 4, 22, 13, 18, 40, 20, 0, 43, 14, 38, 30, 36, 40, 30, 21, 22, 26, 18, 42, 22, 20, 43, 30, 41, 4, 9, 16, 28, 13, 25, 39, 16, 10, 7, 24, 40, 30, 18, 24, 9, 38, 25, 16, 12, 43
            |30, 47, 45, 44, 19, 33, 26, 12, 8, 39, 31, 11, 36, 10, 22, 41, 42, 49, 32, 39, 6, 36, 43, 0, 44, 29, 35, 12, 7, 24, 32, 36, 31, 58, 17, 37, 38, 32, 14, 36, 46, 43, 34, 22, 46, 19, 14, 35, 51, 50, 26, 9, 41, 26, 44, 35, 12, 43, 33, 32, 26
            |16, 18, 32, 36, 31, 51, 36, 32, 37, 44, 18, 46, 32, 34, 23, 4, 10, 35, 21, 7, 42, 11, 14, 44, 0, 47, 19, 34, 39, 38, 13, 12, 36, 30, 48, 34, 32, 52, 31, 51, 17, 4, 27, 23, 26, 26, 44, 9, 22, 12, 19, 38, 42, 18, 37, 14, 43, 12, 26, 15, 51
            |42, 39, 27, 23, 19, 4, 11, 27, 25, 12, 45, 40, 19, 28, 36, 46, 39, 29, 26, 46, 23, 45, 38, 29, 47, 0, 50, 34, 33, 9, 42, 47, 12, 43, 13, 18, 20, 5, 26, 7, 38, 43, 22, 38, 32, 28, 15, 41, 40, 45, 39, 34, 16, 33, 22, 34, 17, 53, 22, 32, 7
            |9, 35, 45, 48, 31, 55, 39, 26, 31, 52, 5, 32, 41, 27, 15, 15, 26, 49, 30, 13, 36, 9, 30, 35, 19, 50, 0, 23, 28, 41, 10, 8, 43, 48, 45, 43, 42, 55, 26, 56, 34, 22, 36, 14, 41, 23, 41, 14, 40, 31, 11, 27, 51, 18, 49, 24, 39, 10, 35, 22, 52
            |19, 40, 42, 42, 17, 38, 26, 7, 9, 40, 19, 12, 34, 6, 11, 30, 34, 46, 26, 28, 13, 25, 36, 12, 34, 34, 23, 0, 5, 26, 21, 25, 31, 52, 25, 36, 35, 38, 9, 41, 39, 33, 30, 11, 41, 11, 21, 25, 45, 41, 15, 4, 42, 17, 42, 27, 18, 31, 30, 24, 33
            |24, 44, 45, 44, 19, 37, 27, 9, 8, 41, 24, 9, 36, 7, 16, 35, 38, 49, 30, 33, 11, 30, 40, 7, 39, 33, 28, 5, 0, 26, 26, 30, 33, 56, 22, 38, 38, 36, 11, 40, 43, 38, 33, 16, 45, 15, 19, 30, 48, 46, 20, 1, 43, 22, 44, 31, 16, 36, 32, 28, 31
            |33, 32, 24, 21, 10, 14, 3, 19, 18, 15, 36, 34, 14, 20, 27, 37, 31, 27, 18, 37, 18, 36, 30, 24, 38, 9, 41, 26, 26, 0, 33, 37, 8, 39, 13, 14, 16, 14, 17, 15, 31, 35, 15, 29, 27, 19, 12, 32, 34, 37, 30, 27, 17, 23, 21, 25, 13, 44, 15, 23, 13
            |3, 26, 35, 37, 23, 46, 31, 21, 26, 42, 6, 32, 31, 22, 10, 9, 17, 39, 20, 7, 31, 4, 21, 32, 13, 42, 10, 21, 26, 33, 0, 5, 33, 39, 39, 34, 32, 47, 20, 47, 25, 14, 26, 10, 31, 16, 35, 5, 30, 23, 6, 25, 41, 9, 39, 14, 33, 12, 25, 12, 44
            |6, 28, 38, 41, 28, 51, 35, 25, 30, 47, 7, 36, 35, 27, 14, 8, 18, 42, 24, 5, 36, 2, 22, 36, 12, 47, 8, 25, 30, 37, 5, 0, 38, 41, 44, 38, 36, 52, 25, 52, 26, 14, 30, 14, 34, 21, 40, 7, 32, 24, 10, 29, 46, 14, 42, 17, 38, 7, 29, 16, 49
            |34, 26, 16, 13, 14, 15, 6, 24, 25, 9, 38, 41, 7, 26, 30, 36, 28, 19, 15, 36, 25, 36, 26, 31, 36, 12, 43, 31, 33, 8, 33, 38, 0, 32, 21, 7, 8, 17, 22, 15, 26, 32, 10, 32, 20, 22, 20, 31, 28, 33, 32, 33, 10, 24, 13, 23, 21, 44, 10, 22, 18
            |42, 13, 16, 21, 39, 45, 36, 47, 50, 33, 45, 64, 25, 49, 44, 34, 22, 15, 26, 36, 53, 39, 18, 58, 30, 43, 48, 52, 56, 39, 39, 41, 32, 0, 52, 25, 24, 47, 45, 43, 14, 26, 25, 45, 12, 41, 50, 34, 9, 18, 43, 56, 29, 36, 22, 26, 50, 42, 25, 29, 50
            |38, 44, 37, 33, 16, 16, 16, 20, 16, 25, 41, 28, 27, 19, 31, 46, 42, 39, 29, 45, 12, 43, 42, 17, 48, 13, 45, 25, 22, 13, 39, 44, 21, 52, 0, 27, 29, 15, 19, 20, 43, 45, 28, 32, 40, 23, 4, 40, 47, 49, 34, 24, 28, 30, 33, 35, 6, 51, 27, 33, 9
            |35, 22, 9, 6, 19, 20, 12, 29, 30, 10, 39, 46, 2, 30, 32, 35, 25, 12, 14, 35, 31, 36, 22, 37, 34, 18, 43, 36, 38, 14, 34, 38, 7, 25, 27, 0, 2, 22, 27, 19, 21, 30, 8, 34, 14, 25, 26, 31, 22, 29, 33, 38, 8, 25, 7, 21, 27, 43, 9, 22, 24
            |34, 19, 8, 6, 19, 22, 13, 29, 30, 12, 37, 46, 1, 30, 31, 33, 23, 11, 12, 34, 32, 34, 20, 38, 32, 20, 42, 35, 38, 16, 32, 36, 8, 24, 29, 2, 0, 24, 26, 21, 19, 28, 6, 33, 12, 25, 27, 29, 20, 26, 32, 38, 10, 24, 7, 19, 28, 41, 7, 20, 26
            |47, 43, 31, 26, 24, 2, 16, 31, 29, 15, 50, 43, 23, 32, 40, 51, 44, 32, 31, 51, 26, 50, 43, 32, 52, 5, 55, 38, 36, 14, 47, 52, 17, 47, 15, 22, 24, 0, 30, 6, 42, 48, 27, 42, 36, 32, 18, 46, 44, 50, 44, 38, 19, 37, 25, 39, 20, 58, 27, 37, 6
            |19, 34, 33, 33, 8, 30, 17, 2, 6, 31, 21, 20, 25, 4, 11, 28, 28, 37, 18, 27, 11, 24, 30, 14, 31, 26, 26, 9, 11, 17, 20, 25, 22, 45, 19, 27, 26, 30, 0, 32, 32, 29, 22, 13, 33, 5, 15, 22, 37, 36, 15, 12, 32, 13, 33, 21, 13, 32, 21, 18, 26
            |48, 40, 27, 22, 25, 4, 17, 34, 32, 10, 51, 47, 21, 35, 42, 51, 43, 28, 30, 51, 30, 50, 41, 36, 51, 7, 56, 41, 40, 15, 47, 52, 15, 43, 20, 19, 21, 6, 32, 0, 40, 47, 25, 44, 33, 34, 22, 46, 41, 47, 45, 41, 14, 38, 21, 38, 24, 58, 25, 37, 12
            |27, 1, 16, 21, 28, 41, 28, 34, 38, 31, 31, 51, 19, 36, 30, 20, 8, 18, 15, 22, 42, 25, 4, 46, 17, 38, 34, 39, 43, 31, 25, 26, 26, 14, 43, 21, 19, 42, 32, 40, 0, 13, 16, 31, 9, 28, 41, 20, 6, 8, 28, 43, 28, 22, 22, 12, 40, 29, 16, 16, 43
            |17, 14, 27, 31, 28, 47, 32, 30, 35, 40, 20, 45, 28, 33, 22, 7, 5, 31, 17, 9, 40, 13, 9, 43, 4, 43, 22, 33, 38, 35, 14, 14, 32, 26, 45, 30, 28, 48, 29, 47, 13, 0, 23, 23, 22, 24, 41, 9, 18, 9, 19, 37, 38, 16, 33, 10, 40, 16, 22, 12, 48
            |27, 17, 12, 12, 15, 25, 12, 24, 26, 17, 31, 42, 5, 26, 25, 27, 18, 16, 6, 28, 29, 28, 16, 34, 27, 22, 36, 30, 33, 15, 26, 30, 10, 25, 28, 8, 6, 27, 22, 25, 16, 23, 0, 27, 13, 19, 26, 23, 19, 23, 26, 33, 16, 18, 13, 14, 25, 35, 1, 14, 27
            |8, 33, 38, 39, 19, 42, 28, 12, 17, 41, 9, 22, 32, 13, 2, 20, 25, 42, 22, 17, 22, 14, 28, 22, 23, 38, 14, 11, 16, 29, 10, 14, 32, 45, 32, 34, 33, 42, 13, 44, 31, 23, 27, 0, 36, 10, 28, 14, 37, 32, 4, 15, 41, 10, 40, 19, 26, 20, 26, 16, 38
            |34, 9, 6, 12, 27, 34, 24, 35, 38, 23, 37, 53, 13, 37, 34, 28, 16, 9, 15, 30, 41, 32, 13, 46, 26, 32, 41, 41, 45, 27, 31, 34, 20, 12, 40, 14, 12, 36, 33, 33, 9, 22, 13, 36, 0, 30, 38, 27, 9, 17, 34, 45, 20, 26, 13, 17, 38, 37, 13, 20, 38
            |15, 29, 31, 31, 9, 32, 18, 6, 11, 31, 18, 23, 24, 9, 8, 23, 23, 35, 15, 22, 16, 20, 25, 19, 26, 28, 23, 11, 15, 19, 16, 21, 22, 41, 23, 25, 25, 32, 5, 34, 28, 24, 19, 10, 30, 0, 19, 17, 33, 31, 11, 15, 32, 8, 32, 17, 17, 27, 18, 13, 29
            |34, 42, 36, 33, 13, 19, 14, 16, 12, 26, 36, 25, 26, 15, 26, 42, 39, 39, 26, 41, 8, 39, 39, 14, 44, 15, 41, 21, 19, 12, 35, 40, 20, 50, 4, 26, 27, 18, 15, 22, 41, 41, 26, 28, 38, 19, 0, 36, 45, 46, 30, 20, 29, 27, 33, 32, 2, 47, 25, 29, 12
            |8, 21, 31, 34, 24, 45, 30, 23, 28, 40, 11, 36, 29, 25, 14, 6, 12, 35, 17, 5, 33, 5, 16, 35, 9, 41, 14, 25, 30, 32, 5, 7, 31, 34, 40, 31, 29, 46, 22, 46, 20, 9, 23, 14, 27, 17, 36, 0, 26, 18, 10, 29, 39, 9, 35, 10, 34, 12, 22, 9, 44
            |33, 4, 15, 20, 33, 43, 31, 39, 43, 32, 37, 57, 21, 42, 36, 25, 14, 16, 19, 27, 47, 30, 10, 51, 22, 40, 40, 45, 48, 34, 30, 32, 28, 9, 47, 22, 20, 44, 37, 41, 6, 18, 19, 37, 9, 33, 45, 26, 0, 10, 34, 48, 28, 28, 21, 18, 44, 34, 19, 21, 46
            |26, 8, 23, 28, 33, 48, 35, 37, 42, 39, 29, 53, 27, 40, 31, 16, 8, 26, 20, 19, 46, 22, 7, 50, 12, 45, 31, 41, 46, 37, 23, 24, 33, 18, 49, 29, 26, 50, 36, 47, 8, 9, 23, 32, 17, 31, 46, 18, 10, 0, 28, 45, 36, 24, 30, 15, 45, 25, 23, 18, 50
            |4, 30, 36, 38, 20, 43, 28, 15, 20, 41, 6, 26, 31, 17, 4, 16, 21, 40, 20, 13, 26, 10, 24, 26, 19, 39, 11, 15, 20, 30, 6, 10, 32, 43, 34, 33, 32, 44, 15, 45, 28, 19, 26, 4, 34, 11, 30, 10, 34, 28, 0, 19, 41, 8, 39, 17, 28, 17, 25, 14, 40
            |23, 44, 45, 44, 19, 38, 28, 9, 9, 42, 23, 8, 37, 8, 15, 35, 38, 49, 30, 32, 12, 29, 40, 9, 38, 34, 27, 4, 1, 27, 25, 29, 33, 56, 24, 38, 38, 38, 12, 41, 43, 37, 33, 15, 45, 15, 20, 29, 48, 45, 19, 0, 43, 21, 45, 31, 18, 35, 32, 27, 32
            |43, 28, 14, 8, 24, 16, 16, 35, 35, 4, 47, 51, 10, 36, 39, 43, 33, 14, 22, 43, 35, 44, 30, 41, 42, 16, 51, 42, 43, 17, 41, 46, 10, 29, 28, 8, 10, 19, 32, 14, 28, 38, 16, 41, 20, 32, 29, 39, 28, 36, 41, 43, 0, 33, 7, 29, 30, 51, 17, 30, 23
            |10, 23, 28, 30, 14, 37, 21, 14, 19, 33, 14, 30, 23, 16, 8, 16, 16, 33, 12, 14, 24, 13, 18, 26, 18, 33, 18, 17, 22, 23, 9, 14, 24, 36, 30, 25, 24, 37, 13, 38, 22, 16, 18, 10, 26, 8, 27, 9, 28, 24, 8, 21, 33, 0, 31, 10, 25, 21, 17, 6, 35
            |40, 22, 7, 1, 25, 23, 18, 35, 37, 11, 44, 53, 8, 37, 38, 38, 27, 7, 19, 40, 38, 41, 24, 44, 37, 22, 49, 42, 44, 21, 39, 42, 13, 22, 33, 7, 7, 25, 33, 21, 22, 33, 13, 40, 13, 32, 33, 35, 21, 30, 39, 45, 7, 31, 0, 25, 33, 47, 14, 26, 29
            |16, 13, 21, 24, 19, 37, 22, 23, 27, 31, 20, 39, 19, 25, 18, 14, 7, 25, 8, 14, 32, 15, 9, 35, 14, 34, 24, 27, 31, 25, 14, 17, 23, 26, 35, 21, 19, 39, 21, 38, 12, 10, 14, 19, 17, 17, 32, 10, 18, 15, 17, 31, 29, 10, 25, 0, 31, 22, 13, 4, 38
            |32, 41, 36, 33, 12, 21, 15, 13, 9, 27, 34, 23, 26, 13, 24, 41, 38, 39, 25, 39, 6, 37, 38, 12, 43, 17, 39, 18, 16, 13, 33, 38, 21, 50, 6, 27, 28, 20, 13, 24, 40, 40, 25, 26, 38, 17, 2, 34, 44, 45, 28, 18, 30, 25, 33, 31, 0, 45, 25, 28, 15
            |13, 30, 42, 46, 35, 57, 42, 32, 37, 52, 12, 41, 41, 34, 21, 9, 21, 46, 29, 8, 42, 8, 25, 43, 12, 53, 10, 31, 36, 44, 12, 7, 44, 42, 51, 43, 41, 58, 32, 58, 29, 16, 35, 20, 37, 27, 47, 12, 34, 25, 17, 35, 51, 21, 47, 22, 45, 0, 34, 22, 56
            |26, 17, 13, 13, 14, 25, 12, 23, 25, 18, 30, 41, 6, 25, 24, 26, 17, 17, 5, 27, 28, 27, 16, 33, 26, 22, 35, 30, 32, 15, 25, 29, 10, 25, 27, 9, 7, 27, 21, 25, 16, 22, 1, 26, 13, 18, 25, 22, 19, 23, 25, 32, 17, 17, 14, 13, 25, 34, 0, 13, 27
            |14, 17, 23, 25, 16, 36, 21, 19, 24, 31, 18, 36, 19, 22, 14, 14, 10, 27, 8, 14, 28, 14, 12, 32, 15, 32, 22, 24, 28, 23, 12, 16, 22, 29, 33, 22, 20, 37, 18, 37, 16, 12, 14, 16, 20, 13, 29, 9, 21, 18, 14, 27, 30, 6, 26, 4, 28, 22, 13, 0, 36
            |44, 44, 34, 29, 21, 8, 16, 27, 24, 19, 47, 37, 25, 27, 37, 50, 44, 36, 30, 49, 20, 48, 43, 26, 51, 7, 52, 33, 31, 13, 44, 49, 18, 50, 9, 24, 26, 6, 26, 12, 43, 48, 27, 38, 38, 29, 12, 44, 46, 50, 40, 32, 23, 35, 29, 38, 15, 56, 27, 36, 0|];
early = [0, 416, 26, 25, 135, 602, 57, 156, 169, 97, 0, 536, 6, 169, 230, 0, 0, 46, 8, 0, 150, 0, 338, 199, 293, 117, 433, 194, 192, 121, 0, 0, 86, 355, 109, 0, 42, 85, 200, 76, 321, 0, 0, 280, 10, 159, 135, 0, 358, 347, 238, 197, 492, 241, 376, 0, 126, 305, 41, 288, 593];
late = [771, 537, 174, 145, 276, 725, 187, 314, 326, 219, 87, 694, 159, 325, 390, 100, 134, 177, 124, 99, 295, 82, 468, 366, 446, 254, 579, 325, 323, 233, 64, 111, 219, 485, 246, 144, 198, 226, 355, 215, 493, 115, 137, 391, 151, 289, 249, 101, 506, 453, 401, 233, 636, 380, 538, 132, 280, 431, 194, 431, 710];