% n60w180.005	   81.90 624
n = 61;
duration = [|0, 9, 35, 15, 28, 9, 26, 28, 25, 2, 13, 16, 27, 27, 10, 19, 11, 3, 7, 32, 1, 32, 27, 19, 11, 21, 25, 41, 14, 39, 38, 12, 32, 9, 31, 28, 7, 36, 19, 38, 11, 30, 8, 8, 15, 32, 36, 18, 31, 33, 11, 17, 22, 7, 25, 30, 6, 23, 26, 3, 17
            |9, 0, 34, 12, 22, 14, 19, 25, 25, 10, 22, 8, 19, 21, 16, 16, 3, 11, 4, 26, 8, 24, 22, 28, 13, 15, 22, 41, 9, 32, 32, 7, 31, 4, 30, 30, 14, 28, 12, 37, 9, 31, 16, 4, 21, 28, 28, 26, 23, 30, 19, 25, 18, 13, 19, 24, 6, 15, 19, 9, 26
            |35, 34, 0, 22, 52, 27, 48, 58, 10, 33, 35, 34, 40, 21, 45, 49, 31, 36, 37, 19, 34, 33, 53, 36, 45, 47, 55, 7, 43, 30, 22, 27, 2, 30, 4, 13, 41, 32, 26, 4, 42, 9, 33, 30, 27, 12, 32, 40, 32, 9, 40, 37, 51, 41, 50, 20, 30, 44, 49, 32, 41
            |15, 12, 22, 0, 31, 12, 27, 36, 14, 14, 23, 13, 22, 13, 25, 27, 9, 17, 15, 17, 14, 21, 32, 28, 24, 26, 33, 29, 21, 26, 23, 5, 20, 8, 19, 21, 22, 23, 7, 25, 21, 21, 18, 9, 18, 17, 23, 29, 20, 19, 24, 26, 29, 22, 28, 15, 9, 23, 28, 13, 29
            |28, 22, 52, 31, 0, 36, 4, 12, 45, 30, 41, 18, 16, 33, 28, 12, 22, 30, 21, 38, 28, 28, 3, 47, 22, 7, 11, 59, 14, 37, 42, 26, 50, 24, 50, 51, 29, 31, 26, 56, 17, 52, 36, 25, 42, 43, 31, 45, 27, 46, 36, 44, 9, 28, 3, 36, 28, 8, 3, 30, 44
            |9, 14, 27, 12, 36, 0, 33, 37, 16, 7, 11, 20, 31, 24, 18, 28, 14, 9, 15, 28, 9, 33, 35, 16, 20, 29, 34, 33, 22, 38, 34, 12, 25, 12, 23, 18, 15, 35, 19, 29, 20, 21, 7, 11, 7, 27, 35, 17, 31, 27, 14, 14, 30, 15, 33, 27, 8, 29, 33, 6, 17
            |26, 19, 48, 27, 4, 33, 0, 16, 41, 28, 40, 14, 11, 29, 28, 13, 19, 29, 19, 34, 26, 23, 7, 46, 22, 7, 14, 55, 13, 32, 38, 23, 46, 21, 46, 48, 28, 27, 22, 52, 17, 48, 34, 22, 40, 39, 27, 44, 22, 42, 35, 43, 11, 27, 4, 31, 25, 4, 2, 28, 43
            |28, 25, 58, 36, 12, 37, 16, 0, 50, 30, 39, 25, 27, 42, 23, 9, 27, 29, 22, 47, 28, 38, 9, 45, 18, 12, 3, 65, 16, 48, 52, 31, 56, 28, 55, 54, 25, 42, 34, 62, 17, 56, 35, 28, 43, 51, 42, 41, 38, 54, 32, 42, 7, 25, 12, 45, 30, 18, 14, 30, 40
            |25, 25, 10, 14, 45, 16, 41, 50, 0, 23, 25, 27, 35, 18, 35, 40, 23, 26, 28, 19, 24, 30, 45, 27, 35, 39, 47, 17, 34, 31, 24, 19, 8, 21, 6, 8, 31, 31, 20, 13, 33, 7, 23, 21, 17, 14, 31, 30, 29, 13, 30, 27, 43, 31, 42, 19, 20, 37, 42, 22, 31
            |2, 10, 33, 14, 30, 7, 28, 30, 23, 0, 12, 17, 29, 27, 12, 21, 11, 3, 9, 31, 2, 33, 29, 18, 13, 23, 27, 39, 16, 39, 37, 12, 31, 10, 29, 25, 8, 36, 19, 36, 14, 28, 6, 8, 13, 31, 36, 17, 31, 32, 10, 15, 24, 9, 27, 29, 6, 25, 28, 1, 16
            |13, 22, 35, 23, 41, 11, 40, 39, 25, 12, 0, 29, 40, 35, 17, 31, 23, 11, 20, 39, 14, 43, 40, 6, 21, 34, 37, 40, 27, 48, 45, 22, 33, 21, 31, 24, 14, 46, 29, 37, 24, 27, 5, 20, 8, 37, 46, 6, 42, 37, 8, 4, 34, 15, 38, 38, 17, 36, 39, 12, 6
            |16, 8, 34, 13, 18, 20, 14, 25, 27, 17, 29, 0, 11, 17, 23, 17, 6, 19, 11, 22, 16, 17, 19, 35, 19, 14, 22, 41, 11, 25, 27, 9, 32, 8, 32, 34, 21, 21, 9, 38, 13, 34, 24, 9, 27, 26, 21, 34, 16, 29, 27, 33, 18, 21, 16, 20, 13, 10, 15, 17, 34
            |27, 19, 40, 22, 16, 31, 11, 27, 35, 29, 40, 11, 0, 19, 33, 22, 17, 30, 21, 23, 27, 12, 18, 46, 28, 16, 25, 47, 18, 21, 27, 19, 38, 19, 38, 42, 32, 16, 15, 43, 22, 42, 35, 21, 38, 29, 16, 45, 11, 32, 38, 44, 21, 31, 15, 21, 24, 9, 13, 28, 45
            |27, 21, 21, 13, 33, 24, 29, 42, 18, 27, 35, 17, 19, 0, 36, 34, 18, 29, 25, 5, 26, 12, 35, 40, 34, 30, 39, 27, 28, 13, 11, 15, 19, 18, 20, 27, 34, 13, 9, 24, 29, 25, 31, 19, 30, 10, 13, 41, 11, 13, 37, 39, 35, 34, 32, 3, 21, 25, 31, 26, 41
            |10, 16, 45, 25, 28, 18, 28, 23, 35, 12, 17, 23, 33, 36, 0, 16, 19, 9, 12, 41, 11, 40, 26, 22, 5, 21, 21, 51, 15, 47, 47, 21, 42, 18, 41, 37, 4, 43, 28, 48, 11, 39, 13, 17, 22, 42, 43, 18, 38, 43, 9, 19, 19, 3, 25, 39, 16, 26, 27, 13, 17
            |19, 16, 49, 27, 12, 28, 13, 9, 40, 21, 31, 17, 22, 34, 16, 0, 18, 20, 13, 39, 19, 32, 9, 37, 11, 6, 6, 56, 6, 41, 44, 22, 47, 19, 46, 45, 18, 36, 25, 52, 8, 47, 26, 19, 34, 42, 36, 34, 31, 45, 25, 34, 3, 17, 9, 37, 21, 13, 11, 22, 33
            |11, 3, 31, 9, 22, 14, 19, 27, 23, 11, 23, 6, 17, 18, 19, 18, 0, 13, 7, 23, 10, 22, 23, 29, 16, 17, 24, 38, 11, 29, 29, 4, 29, 2, 28, 29, 17, 25, 9, 35, 12, 30, 17, 3, 21, 25, 25, 28, 20, 27, 21, 26, 20, 16, 20, 21, 6, 15, 20, 11, 28
            |3, 11, 36, 17, 30, 9, 29, 29, 26, 3, 11, 19, 30, 29, 9, 20, 13, 0, 9, 34, 4, 35, 29, 17, 11, 23, 26, 42, 16, 42, 40, 14, 34, 12, 32, 28, 5, 38, 21, 39, 13, 31, 6, 11, 14, 34, 38, 15, 34, 35, 8, 14, 23, 6, 27, 32, 9, 25, 28, 4, 15
            |7, 4, 37, 15, 21, 15, 19, 22, 28, 9, 20, 11, 21, 25, 12, 13, 7, 9, 0, 30, 7, 28, 20, 26, 9, 14, 19, 44, 7, 35, 36, 10, 35, 7, 34, 32, 11, 31, 16, 40, 6, 34, 15, 7, 21, 32, 31, 25, 26, 34, 17, 24, 16, 10, 18, 28, 8, 16, 19, 9, 24
            |32, 26, 19, 17, 38, 28, 34, 47, 19, 31, 39, 22, 23, 5, 41, 39, 23, 34, 30, 0, 31, 14, 40, 43, 39, 35, 44, 25, 33, 12, 6, 20, 18, 23, 19, 27, 38, 13, 14, 22, 34, 25, 35, 24, 33, 7, 13, 45, 13, 10, 41, 42, 40, 38, 36, 2, 25, 30, 35, 30, 45
            |1, 8, 34, 14, 28, 9, 26, 28, 24, 2, 14, 16, 27, 26, 11, 19, 10, 4, 7, 31, 0, 31, 27, 20, 11, 21, 25, 40, 14, 38, 37, 11, 31, 9, 30, 27, 8, 35, 18, 37, 12, 29, 8, 7, 15, 31, 35, 18, 30, 32, 11, 17, 22, 8, 25, 29, 5, 23, 26, 2, 18
            |32, 24, 33, 21, 28, 33, 23, 38, 30, 33, 43, 17, 12, 12, 40, 32, 22, 35, 28, 14, 31, 0, 30, 48, 36, 27, 36, 39, 27, 9, 16, 21, 31, 23, 32, 38, 38, 4, 14, 36, 30, 37, 38, 24, 39, 21, 4, 49, 1, 24, 43, 47, 32, 38, 27, 12, 27, 20, 25, 32, 49
            |27, 22, 53, 32, 3, 35, 7, 9, 45, 29, 40, 19, 18, 35, 26, 9, 23, 29, 20, 40, 27, 30, 0, 46, 21, 6, 8, 60, 13, 39, 44, 27, 51, 25, 51, 51, 27, 34, 28, 57, 16, 52, 35, 25, 42, 45, 34, 43, 29, 48, 34, 43, 7, 26, 4, 38, 28, 10, 5, 29, 42
            |19, 28, 36, 28, 47, 16, 46, 45, 27, 18, 6, 35, 46, 40, 22, 37, 29, 17, 26, 43, 20, 48, 46, 0, 26, 40, 42, 41, 33, 53, 49, 27, 35, 27, 33, 24, 19, 51, 34, 38, 30, 28, 11, 25, 10, 40, 51, 5, 47, 40, 13, 3, 40, 20, 44, 42, 22, 42, 45, 18, 6
            |11, 13, 45, 24, 22, 20, 22, 18, 35, 13, 21, 19, 28, 34, 5, 11, 16, 11, 9, 39, 11, 36, 21, 26, 0, 16, 16, 51, 10, 44, 45, 19, 42, 16, 41, 38, 7, 40, 25, 48, 6, 41, 17, 15, 25, 41, 40, 23, 35, 42, 14, 23, 14, 6, 20, 37, 15, 21, 21, 13, 22
            |21, 15, 47, 26, 7, 29, 7, 12, 39, 23, 34, 14, 16, 30, 21, 6, 17, 23, 14, 35, 21, 27, 6, 40, 16, 0, 9, 54, 7, 36, 40, 21, 45, 18, 45, 45, 22, 31, 22, 51, 10, 46, 29, 19, 36, 40, 31, 38, 26, 42, 29, 37, 5, 21, 4, 33, 21, 7, 6, 23, 37
            |25, 22, 55, 33, 11, 34, 14, 3, 47, 27, 37, 22, 25, 39, 21, 6, 24, 26, 19, 44, 25, 36, 8, 42, 16, 9, 0, 62, 13, 45, 49, 28, 53, 25, 52, 52, 23, 40, 31, 59, 14, 53, 32, 25, 40, 48, 40, 39, 35, 51, 30, 39, 4, 22, 10, 42, 27, 16, 12, 28, 38
            |41, 41, 7, 29, 59, 33, 55, 65, 17, 39, 40, 41, 47, 27, 51, 56, 38, 42, 44, 25, 40, 39, 60, 41, 51, 54, 62, 0, 50, 35, 26, 34, 9, 37, 10, 17, 48, 38, 33, 4, 49, 13, 39, 37, 32, 18, 38, 45, 38, 15, 46, 42, 58, 48, 57, 26, 36, 51, 56, 38, 46
            |14, 9, 43, 21, 14, 22, 13, 16, 34, 16, 27, 11, 18, 28, 15, 6, 11, 16, 7, 33, 14, 27, 13, 33, 10, 7, 13, 50, 0, 36, 38, 16, 40, 13, 40, 39, 15, 31, 19, 46, 4, 41, 22, 13, 29, 36, 31, 31, 26, 38, 22, 30, 9, 14, 11, 31, 15, 11, 12, 16, 30
            |39, 32, 30, 26, 37, 38, 32, 48, 31, 39, 48, 25, 21, 13, 47, 41, 29, 42, 35, 12, 38, 9, 39, 53, 44, 36, 45, 35, 36, 0, 9, 27, 29, 30, 31, 39, 45, 5, 20, 33, 38, 37, 44, 31, 43, 18, 5, 54, 10, 21, 49, 52, 41, 45, 36, 12, 33, 29, 34, 38, 54
            |38, 32, 22, 23, 42, 34, 38, 52, 24, 37, 45, 27, 27, 11, 47, 44, 29, 40, 36, 6, 37, 16, 44, 49, 45, 40, 49, 26, 38, 9, 0, 26, 21, 29, 23, 32, 45, 13, 20, 24, 40, 29, 41, 30, 39, 10, 13, 51, 16, 13, 47, 48, 45, 45, 41, 8, 32, 34, 39, 36, 51
            |12, 7, 27, 5, 26, 12, 23, 31, 19, 12, 22, 9, 19, 15, 21, 22, 4, 14, 10, 20, 11, 21, 27, 27, 19, 21, 28, 34, 16, 27, 26, 0, 25, 3, 24, 25, 18, 24, 7, 30, 16, 26, 17, 4, 19, 22, 24, 28, 20, 23, 22, 26, 24, 18, 24, 18, 6, 19, 24, 11, 28
            |32, 31, 2, 20, 50, 25, 46, 56, 8, 31, 33, 32, 38, 19, 42, 47, 29, 34, 35, 18, 31, 31, 51, 35, 42, 45, 53, 9, 40, 29, 21, 25, 0, 28, 2, 12, 39, 31, 24, 6, 40, 8, 31, 28, 25, 11, 31, 38, 30, 9, 38, 35, 49, 39, 48, 19, 27, 42, 47, 30, 39
            |9, 4, 30, 8, 24, 12, 21, 28, 21, 10, 21, 8, 19, 18, 18, 19, 2, 12, 7, 23, 9, 23, 25, 27, 16, 18, 25, 37, 13, 30, 29, 3, 28, 0, 27, 27, 16, 26, 9, 33, 13, 28, 16, 1, 19, 25, 26, 26, 21, 27, 20, 25, 21, 16, 22, 21, 4, 17, 22, 9, 26
            |31, 30, 4, 19, 50, 23, 46, 55, 6, 29, 31, 32, 38, 20, 41, 46, 28, 32, 34, 19, 30, 32, 51, 33, 41, 45, 52, 10, 40, 31, 23, 24, 2, 27, 0, 10, 37, 32, 24, 7, 39, 6, 29, 27, 23, 13, 32, 36, 31, 10, 36, 33, 48, 38, 47, 20, 26, 41, 47, 28, 37
            |28, 30, 13, 21, 51, 18, 48, 54, 8, 25, 24, 34, 42, 27, 37, 45, 29, 28, 32, 27, 27, 38, 51, 24, 38, 45, 52, 17, 39, 39, 32, 25, 12, 27, 10, 0, 33, 39, 27, 14, 38, 4, 24, 26, 16, 22, 39, 28, 37, 20, 30, 25, 48, 34, 48, 28, 24, 43, 48, 25, 29
            |7, 14, 41, 22, 29, 15, 28, 25, 31, 8, 14, 21, 32, 34, 4, 18, 17, 5, 11, 38, 8, 38, 27, 19, 7, 22, 23, 48, 15, 45, 45, 18, 39, 16, 37, 33, 0, 42, 25, 44, 12, 36, 10, 15, 18, 39, 42, 16, 37, 40, 7, 16, 21, 1, 26, 37, 13, 26, 28, 9, 15
            |36, 28, 32, 23, 31, 35, 27, 42, 31, 36, 46, 21, 16, 13, 43, 36, 25, 38, 31, 13, 35, 4, 34, 51, 40, 31, 40, 38, 31, 5, 13, 24, 31, 26, 32, 39, 42, 0, 17, 35, 34, 37, 41, 27, 41, 20, 0, 52, 5, 23, 46, 49, 36, 41, 31, 12, 30, 24, 29, 35, 52
            |19, 12, 26, 7, 26, 19, 22, 34, 20, 19, 29, 9, 15, 9, 28, 25, 9, 21, 16, 14, 18, 14, 28, 34, 25, 22, 31, 33, 19, 20, 20, 7, 24, 9, 24, 27, 25, 17, 0, 29, 20, 27, 24, 11, 25, 17, 17, 35, 13, 20, 29, 33, 26, 25, 24, 12, 13, 18, 23, 18, 35
            |38, 37, 4, 25, 56, 29, 52, 62, 13, 36, 37, 38, 43, 24, 48, 52, 35, 39, 40, 22, 37, 36, 57, 38, 48, 51, 59, 4, 46, 33, 24, 30, 6, 33, 7, 14, 44, 35, 29, 0, 46, 10, 36, 34, 29, 15, 35, 42, 35, 12, 43, 39, 54, 44, 53, 24, 33, 47, 53, 35, 43
            |11, 9, 42, 21, 17, 20, 17, 17, 33, 14, 24, 13, 22, 29, 11, 8, 12, 13, 6, 34, 12, 30, 16, 30, 6, 10, 14, 49, 4, 38, 40, 16, 40, 13, 39, 38, 12, 34, 20, 46, 0, 40, 19, 12, 26, 37, 34, 27, 29, 39, 19, 27, 10, 11, 14, 32, 13, 14, 16, 14, 27
            |30, 31, 9, 21, 52, 21, 48, 56, 7, 28, 27, 34, 42, 25, 39, 47, 30, 31, 34, 25, 29, 37, 52, 28, 41, 46, 53, 13, 41, 37, 29, 26, 8, 28, 6, 4, 36, 37, 27, 10, 40, 0, 27, 28, 19, 19, 37, 32, 36, 17, 34, 29, 49, 36, 49, 25, 26, 44, 49, 27, 33
            |8, 16, 33, 18, 36, 7, 34, 35, 23, 6, 5, 24, 35, 31, 13, 26, 17, 6, 15, 35, 8, 38, 35, 11, 17, 29, 32, 39, 22, 44, 41, 17, 31, 16, 29, 24, 10, 41, 24, 36, 19, 27, 0, 14, 8, 34, 41, 11, 37, 34, 7, 9, 29, 11, 33, 34, 11, 31, 34, 7, 11
            |8, 4, 30, 9, 25, 11, 22, 28, 21, 8, 20, 9, 21, 19, 17, 19, 3, 11, 7, 24, 7, 24, 25, 25, 15, 19, 25, 37, 13, 31, 30, 4, 28, 1, 27, 26, 15, 27, 11, 34, 12, 28, 14, 0, 18, 25, 27, 25, 23, 27, 19, 23, 21, 14, 22, 22, 3, 18, 23, 8, 25
            |15, 21, 27, 18, 42, 7, 40, 43, 17, 13, 8, 27, 38, 30, 22, 34, 21, 14, 21, 33, 15, 39, 42, 10, 25, 36, 40, 32, 29, 43, 39, 19, 25, 19, 23, 16, 18, 41, 25, 29, 26, 19, 8, 18, 0, 30, 41, 13, 38, 30, 15, 10, 37, 19, 39, 32, 15, 36, 40, 12, 14
            |32, 28, 12, 17, 43, 27, 39, 51, 14, 31, 37, 26, 29, 10, 42, 42, 25, 34, 32, 7, 31, 21, 45, 40, 41, 40, 48, 18, 36, 18, 10, 22, 11, 25, 13, 22, 39, 20, 17, 15, 37, 19, 34, 25, 30, 0, 20, 43, 20, 3, 40, 40, 44, 39, 41, 9, 26, 35, 40, 30, 43
            |36, 28, 32, 23, 31, 35, 27, 42, 31, 36, 46, 21, 16, 13, 43, 36, 25, 38, 31, 13, 35, 4, 34, 51, 40, 31, 40, 38, 31, 5, 13, 24, 31, 26, 32, 39, 42, 0, 17, 35, 34, 37, 41, 27, 41, 20, 0, 52, 5, 23, 46, 49, 36, 41, 31, 12, 30, 24, 29, 35, 52
            |18, 26, 40, 29, 45, 17, 44, 41, 30, 17, 6, 34, 45, 41, 18, 34, 28, 15, 25, 45, 18, 49, 43, 5, 23, 38, 39, 45, 31, 54, 51, 28, 38, 26, 36, 28, 16, 52, 35, 42, 27, 32, 11, 25, 13, 43, 52, 0, 47, 43, 9, 3, 37, 17, 42, 44, 22, 40, 43, 17, 1
            |31, 23, 32, 20, 27, 31, 22, 38, 29, 31, 42, 16, 11, 11, 38, 31, 20, 34, 26, 13, 30, 1, 29, 47, 35, 26, 35, 38, 26, 10, 16, 20, 30, 21, 31, 37, 37, 5, 13, 35, 29, 36, 37, 23, 38, 20, 5, 47, 0, 23, 41, 45, 31, 36, 26, 12, 25, 19, 24, 30, 47
            |33, 30, 9, 19, 46, 27, 42, 54, 13, 32, 37, 29, 32, 13, 43, 45, 27, 35, 34, 10, 32, 24, 48, 40, 42, 42, 51, 15, 38, 21, 13, 23, 9, 27, 10, 20, 40, 23, 20, 12, 39, 17, 34, 27, 30, 3, 23, 43, 23, 0, 41, 40, 46, 40, 44, 12, 27, 37, 43, 31, 43
            |11, 19, 40, 24, 36, 14, 35, 32, 30, 10, 8, 27, 38, 37, 9, 25, 21, 8, 17, 41, 11, 43, 34, 13, 14, 29, 30, 46, 22, 49, 47, 22, 38, 20, 36, 30, 7, 46, 29, 43, 19, 34, 7, 19, 15, 40, 46, 9, 41, 41, 0, 9, 28, 8, 33, 40, 16, 32, 34, 11, 8
            |17, 25, 37, 26, 44, 14, 43, 42, 27, 15, 4, 33, 44, 39, 19, 34, 26, 14, 24, 42, 17, 47, 43, 3, 23, 37, 39, 42, 30, 52, 48, 26, 35, 25, 33, 25, 16, 49, 33, 39, 27, 29, 9, 23, 10, 40, 49, 3, 45, 40, 9, 0, 37, 17, 41, 41, 20, 40, 43, 16, 4
            |22, 18, 51, 29, 9, 30, 11, 7, 43, 24, 34, 18, 21, 35, 19, 3, 20, 23, 16, 40, 22, 32, 7, 40, 14, 5, 4, 58, 9, 41, 45, 24, 49, 21, 48, 48, 21, 36, 26, 54, 10, 49, 29, 21, 37, 44, 36, 37, 31, 46, 28, 37, 0, 20, 7, 38, 23, 12, 9, 24, 36
            |7, 13, 41, 22, 28, 15, 27, 25, 31, 9, 15, 21, 31, 34, 3, 17, 16, 6, 10, 38, 8, 38, 26, 20, 6, 21, 22, 48, 14, 45, 45, 18, 39, 16, 38, 34, 1, 41, 25, 44, 11, 36, 11, 14, 19, 39, 41, 17, 36, 40, 8, 17, 20, 0, 25, 36, 13, 25, 27, 9, 16
            |25, 19, 50, 28, 3, 33, 4, 12, 42, 27, 38, 16, 15, 32, 25, 9, 20, 27, 18, 36, 25, 27, 4, 44, 20, 4, 10, 57, 11, 36, 41, 24, 48, 22, 47, 48, 26, 31, 24, 53, 14, 49, 33, 22, 39, 41, 31, 42, 26, 44, 33, 41, 7, 25, 0, 34, 25, 7, 2, 27, 41
            |30, 24, 20, 15, 36, 27, 31, 45, 19, 29, 38, 20, 21, 3, 39, 37, 21, 32, 28, 2, 29, 12, 38, 42, 37, 33, 42, 26, 31, 12, 8, 18, 19, 21, 20, 28, 37, 12, 12, 24, 32, 25, 34, 22, 32, 9, 12, 44, 12, 12, 40, 41, 38, 36, 34, 0, 24, 27, 33, 28, 44
            |6, 6, 30, 9, 28, 8, 25, 30, 20, 6, 17, 13, 24, 21, 16, 21, 6, 9, 8, 25, 5, 27, 28, 22, 15, 21, 27, 36, 15, 33, 32, 6, 27, 4, 26, 24, 13, 30, 13, 33, 13, 26, 11, 3, 15, 26, 30, 22, 25, 27, 16, 20, 23, 13, 25, 24, 0, 21, 25, 5, 22
            |23, 15, 44, 23, 8, 29, 4, 18, 37, 25, 36, 10, 9, 25, 26, 13, 15, 25, 16, 30, 23, 20, 10, 42, 21, 7, 16, 51, 11, 29, 34, 19, 42, 17, 41, 43, 26, 24, 18, 47, 14, 44, 31, 18, 36, 35, 24, 40, 19, 37, 32, 40, 12, 25, 7, 27, 21, 0, 6, 24, 40
            |26, 19, 49, 28, 3, 33, 2, 14, 42, 28, 39, 15, 13, 31, 27, 11, 20, 28, 19, 35, 26, 25, 5, 45, 21, 6, 12, 56, 12, 34, 39, 24, 47, 22, 47, 48, 28, 29, 23, 53, 16, 49, 34, 23, 40, 40, 29, 43, 24, 43, 34, 43, 9, 27, 2, 33, 25, 6, 0, 28, 42
            |3, 9, 32, 13, 30, 6, 28, 30, 22, 1, 12, 17, 28, 26, 13, 22, 11, 4, 9, 30, 2, 32, 29, 18, 13, 23, 28, 38, 16, 38, 36, 11, 30, 9, 28, 25, 9, 35, 18, 35, 14, 27, 7, 8, 12, 30, 35, 17, 30, 31, 11, 16, 24, 9, 27, 28, 5, 24, 28, 0, 17
            |17, 26, 41, 29, 44, 17, 43, 40, 31, 16, 6, 34, 45, 41, 17, 33, 28, 15, 24, 45, 18, 49, 42, 6, 22, 37, 38, 46, 30, 54, 51, 28, 39, 26, 37, 29, 15, 52, 35, 43, 27, 33, 11, 25, 14, 43, 52, 1, 47, 43, 8, 4, 36, 16, 41, 44, 22, 40, 42, 17, 0|];
early = [0, 48, 233, 151, 40, 0, 55, 433, 265, 0, 0, 188, 75, 165, 0, 75, 0, 0, 0, 206, 0, 134, 16, 429, 0, 13, 476, 227, 67, 87, 143, 179, 252, 0, 234, 285, 0, 70, 127, 367, 162, 247, 0, 125, 0, 275, 283, 0, 104, 207, 0, 0, 12, 0, 19, 109, 45, 30, 434, 0, 448];
late = [679, 206, 471, 334, 271, 97, 273, 583, 437, 114, 158, 310, 224, 333, 74, 208, 206, 88, 212, 396, 68, 297, 226, 643, 148, 241, 653, 475, 233, 287, 304, 382, 432, 197, 437, 472, 96, 258, 277, 569, 383, 383, 116, 324, 167, 456, 526, 166, 293, 419, 156, 125, 223, 117, 231, 280, 199, 236, 552, 113, 662];