% n60w120.001	   19.27 590
n = 61;
duration = [|0, 11, 30, 10, 16, 20, 5, 15, 28, 10, 36, 38, 6, 10, 11, 14, 25, 9, 23, 16, 28, 26, 22, 28, 31, 7, 22, 36, 29, 43, 24, 18, 20, 5, 9, 22, 33, 21, 4, 34, 32, 30, 12, 22, 27, 24, 22, 20, 6, 26, 31, 11, 17, 18, 7, 31, 8, 21, 19, 18, 15
            |11, 0, 21, 1, 25, 29, 8, 26, 17, 15, 26, 28, 5, 20, 13, 19, 20, 10, 22, 14, 22, 17, 32, 21, 22, 18, 12, 29, 19, 34, 29, 14, 30, 6, 11, 11, 22, 18, 8, 25, 24, 19, 20, 15, 30, 13, 19, 19, 12, 18, 33, 15, 23, 20, 10, 23, 9, 9, 29, 29, 13
            |30, 21, 0, 21, 38, 40, 25, 44, 16, 36, 7, 8, 25, 40, 24, 40, 14, 31, 21, 33, 34, 4, 52, 7, 28, 35, 21, 13, 2, 13, 35, 16, 50, 25, 31, 16, 20, 36, 28, 4, 32, 7, 40, 9, 34, 11, 16, 20, 33, 30, 31, 36, 33, 25, 25, 8, 30, 14, 49, 48, 19
            |10, 1, 21, 0, 24, 28, 7, 25, 18, 15, 26, 28, 4, 20, 12, 20, 19, 11, 21, 15, 23, 17, 31, 21, 23, 17, 13, 28, 19, 34, 28, 13, 30, 5, 11, 12, 23, 19, 7, 25, 25, 19, 20, 14, 29, 14, 18, 18, 12, 20, 31, 16, 22, 19, 9, 23, 10, 10, 29, 28, 12
            |16, 25, 38, 24, 0, 4, 17, 14, 41, 24, 45, 45, 21, 17, 14, 26, 27, 25, 22, 31, 44, 34, 25, 34, 46, 9, 37, 38, 38, 50, 12, 22, 21, 20, 24, 36, 47, 36, 20, 42, 48, 40, 23, 29, 16, 36, 24, 20, 21, 42, 24, 26, 6, 15, 15, 35, 24, 33, 22, 21, 19
            |20, 29, 40, 28, 4, 0, 21, 17, 45, 28, 48, 47, 25, 21, 17, 31, 29, 29, 23, 35, 48, 36, 28, 35, 50, 13, 41, 39, 40, 52, 10, 24, 24, 24, 28, 39, 50, 40, 24, 44, 52, 43, 27, 31, 15, 39, 26, 22, 25, 46, 22, 30, 7, 16, 19, 37, 28, 37, 25, 24, 21
            |5, 8, 25, 7, 17, 21, 0, 19, 25, 14, 32, 33, 4, 15, 7, 18, 20, 11, 19, 17, 28, 21, 27, 23, 30, 10, 20, 31, 24, 39, 22, 13, 25, 4, 11, 19, 30, 22, 5, 29, 32, 25, 17, 17, 24, 20, 18, 16, 10, 26, 28, 15, 16, 15, 3, 26, 10, 17, 24, 23, 10
            |15, 26, 44, 25, 14, 17, 19, 0, 43, 17, 51, 52, 21, 7, 22, 17, 37, 20, 33, 25, 39, 40, 11, 42, 43, 10, 36, 48, 43, 58, 26, 30, 7, 20, 19, 37, 47, 29, 18, 49, 44, 44, 13, 36, 30, 39, 34, 31, 16, 38, 37, 18, 20, 26, 20, 44, 20, 35, 8, 7, 27
            |28, 17, 16, 18, 41, 45, 25, 43, 0, 29, 16, 21, 22, 36, 28, 33, 25, 24, 31, 23, 20, 16, 47, 21, 13, 35, 8, 28, 14, 25, 43, 24, 46, 23, 25, 6, 6, 24, 24, 18, 17, 9, 34, 18, 43, 6, 27, 29, 28, 16, 43, 29, 39, 33, 26, 23, 24, 8, 45, 45, 25
            |10, 15, 36, 15, 24, 28, 14, 17, 29, 0, 41, 43, 12, 9, 21, 4, 33, 5, 33, 8, 22, 32, 18, 36, 27, 15, 21, 43, 34, 49, 34, 27, 18, 11, 4, 23, 33, 13, 9, 40, 27, 33, 5, 29, 37, 27, 32, 30, 4, 21, 41, 1, 26, 28, 17, 38, 6, 23, 16, 16, 24
            |36, 26, 7, 26, 45, 48, 32, 51, 16, 41, 0, 5, 31, 46, 31, 45, 20, 36, 27, 37, 36, 11, 58, 13, 29, 42, 24, 16, 8, 9, 42, 23, 56, 32, 37, 19, 19, 39, 34, 4, 33, 8, 46, 16, 40, 14, 23, 27, 38, 32, 37, 41, 40, 32, 31, 13, 35, 18, 55, 55, 26
            |38, 28, 8, 28, 45, 47, 33, 52, 21, 43, 5, 0, 33, 48, 31, 48, 18, 39, 25, 41, 40, 11, 59, 11, 34, 42, 28, 12, 9, 6, 40, 22, 58, 33, 39, 23, 24, 43, 35, 4, 38, 12, 48, 16, 38, 18, 21, 25, 40, 36, 34, 44, 39, 31, 32, 10, 38, 21, 57, 56, 26
            |6, 5, 25, 4, 21, 25, 4, 21, 22, 12, 31, 33, 0, 15, 11, 16, 22, 8, 22, 14, 24, 21, 27, 24, 25, 13, 16, 32, 23, 38, 26, 15, 26, 1, 8, 16, 27, 18, 3, 29, 27, 24, 16, 17, 28, 18, 20, 19, 8, 21, 32, 12, 20, 18, 7, 26, 7, 15, 24, 24, 13
            |10, 20, 40, 20, 17, 21, 15, 7, 36, 9, 46, 48, 15, 0, 20, 10, 34, 13, 32, 18, 31, 36, 12, 38, 36, 9, 29, 45, 39, 53, 28, 27, 10, 14, 12, 30, 41, 22, 13, 44, 37, 39, 6, 32, 32, 33, 32, 29, 9, 30, 38, 11, 21, 26, 17, 40, 13, 30, 9, 9, 24
            |11, 13, 24, 12, 14, 17, 7, 22, 28, 21, 31, 31, 11, 20, 0, 25, 15, 19, 12, 25, 35, 20, 31, 20, 35, 12, 25, 26, 24, 37, 16, 9, 29, 11, 18, 23, 34, 30, 12, 28, 38, 26, 23, 15, 17, 22, 12, 9, 17, 32, 21, 22, 10, 7, 4, 22, 18, 20, 28, 27, 5
            |14, 19, 40, 20, 26, 31, 18, 17, 33, 4, 45, 48, 16, 10, 25, 0, 38, 9, 37, 10, 23, 37, 15, 40, 29, 17, 25, 48, 38, 53, 37, 31, 16, 16, 9, 27, 36, 13, 14, 44, 29, 37, 4, 34, 40, 31, 36, 34, 8, 23, 45, 4, 29, 32, 21, 42, 10, 28, 14, 14, 28
            |25, 20, 14, 19, 27, 29, 20, 37, 25, 33, 20, 18, 22, 34, 15, 38, 0, 29, 7, 34, 40, 10, 46, 7, 37, 27, 27, 11, 14, 24, 22, 7, 43, 22, 30, 23, 31, 38, 24, 16, 40, 19, 37, 7, 20, 19, 3, 7, 29, 36, 17, 34, 22, 13, 17, 8, 28, 19, 43, 42, 10
            |9, 10, 31, 11, 25, 29, 11, 20, 24, 5, 36, 39, 8, 13, 19, 9, 29, 0, 30, 6, 19, 28, 23, 31, 23, 16, 16, 39, 29, 44, 33, 23, 23, 8, 1, 18, 28, 11, 6, 35, 24, 28, 10, 25, 35, 22, 28, 27, 4, 18, 39, 5, 26, 26, 15, 34, 1, 18, 21, 21, 21
            |23, 22, 21, 21, 22, 23, 19, 33, 31, 33, 27, 25, 22, 32, 12, 37, 7, 30, 0, 36, 43, 17, 43, 14, 41, 24, 32, 17, 21, 30, 15, 8, 40, 22, 30, 28, 37, 40, 24, 23, 45, 25, 36, 13, 13, 25, 4, 3, 29, 40, 11, 34, 16, 7, 16, 15, 29, 24, 40, 39, 9
            |16, 14, 33, 15, 31, 35, 17, 25, 23, 8, 37, 41, 14, 18, 25, 10, 34, 6, 36, 0, 14, 31, 25, 35, 19, 22, 15, 43, 31, 46, 39, 28, 26, 14, 7, 18, 26, 5, 13, 37, 19, 29, 13, 28, 42, 23, 33, 33, 10, 13, 45, 7, 32, 32, 21, 37, 7, 20, 24, 24, 26
            |28, 22, 34, 23, 44, 48, 28, 39, 20, 22, 36, 40, 24, 31, 35, 23, 40, 19, 43, 14, 0, 33, 38, 38, 8, 35, 13, 46, 32, 44, 50, 35, 39, 25, 20, 18, 19, 10, 24, 37, 6, 28, 26, 33, 52, 23, 40, 41, 23, 4, 54, 21, 44, 42, 31, 40, 20, 21, 37, 37, 35
            |26, 17, 4, 17, 34, 36, 21, 40, 16, 32, 11, 11, 21, 36, 20, 37, 10, 28, 17, 31, 33, 0, 48, 5, 28, 31, 20, 13, 4, 17, 31, 12, 46, 22, 28, 15, 21, 34, 24, 8, 32, 9, 37, 5, 30, 10, 13, 16, 29, 29, 28, 33, 29, 21, 21, 7, 27, 12, 45, 45, 15
            |22, 32, 52, 31, 25, 28, 27, 11, 47, 18, 58, 59, 27, 12, 31, 15, 46, 23, 43, 25, 38, 48, 0, 50, 44, 20, 39, 57, 50, 65, 37, 39, 4, 26, 22, 41, 51, 28, 24, 56, 44, 50, 13, 44, 41, 44, 44, 41, 20, 38, 48, 19, 31, 37, 29, 52, 23, 41, 3, 4, 36
            |28, 21, 7, 21, 34, 35, 23, 42, 21, 36, 13, 11, 24, 38, 20, 40, 7, 31, 14, 35, 38, 5, 50, 0, 34, 32, 25, 8, 8, 17, 29, 12, 48, 25, 32, 20, 27, 38, 27, 9, 38, 13, 40, 7, 27, 16, 10, 14, 32, 34, 24, 36, 28, 19, 22, 2, 30, 17, 47, 47, 15
            |31, 22, 28, 23, 46, 50, 30, 43, 13, 27, 29, 34, 25, 36, 35, 29, 37, 23, 41, 19, 8, 28, 44, 34, 0, 38, 10, 41, 26, 37, 51, 33, 45, 26, 24, 14, 11, 17, 27, 31, 4, 22, 32, 30, 52, 18, 37, 39, 27, 6, 53, 26, 45, 41, 32, 35, 23, 17, 43, 43, 34
            |7, 18, 35, 17, 9, 13, 10, 10, 35, 15, 42, 42, 13, 9, 12, 17, 27, 16, 24, 22, 35, 31, 20, 32, 38, 0, 29, 38, 34, 48, 19, 21, 17, 12, 15, 29, 40, 27, 11, 39, 39, 35, 15, 26, 23, 30, 24, 21, 12, 33, 29, 16, 12, 17, 10, 34, 15, 27, 17, 16, 17
            |22, 12, 21, 13, 37, 41, 20, 36, 8, 21, 24, 28, 16, 29, 25, 25, 27, 16, 32, 15, 13, 20, 39, 25, 10, 29, 0, 33, 19, 32, 41, 24, 39, 17, 17, 5, 11, 16, 18, 25, 13, 16, 27, 20, 42, 10, 28, 29, 20, 9, 43, 21, 35, 31, 22, 27, 16, 8, 37, 37, 24
            |36, 29, 13, 28, 38, 39, 31, 48, 28, 43, 16, 12, 32, 45, 26, 48, 11, 39, 17, 43, 46, 13, 57, 8, 41, 38, 33, 0, 15, 15, 31, 18, 55, 32, 40, 28, 33, 46, 34, 12, 45, 20, 47, 15, 28, 23, 14, 18, 40, 42, 23, 44, 32, 23, 29, 6, 38, 25, 54, 53, 21
            |29, 19, 2, 19, 38, 40, 24, 43, 14, 34, 8, 9, 23, 39, 24, 38, 14, 29, 21, 31, 32, 4, 50, 8, 26, 34, 19, 15, 0, 15, 35, 16, 49, 24, 30, 14, 18, 34, 26, 6, 30, 5, 39, 9, 34, 9, 17, 20, 31, 28, 32, 34, 33, 25, 24, 9, 28, 12, 48, 47, 19
            |43, 34, 13, 34, 50, 52, 39, 58, 25, 49, 9, 6, 38, 53, 37, 53, 24, 44, 30, 46, 44, 17, 65, 17, 37, 48, 32, 15, 15, 0, 45, 28, 63, 39, 45, 28, 27, 48, 41, 9, 41, 17, 54, 22, 43, 23, 27, 31, 46, 41, 38, 49, 45, 36, 38, 15, 43, 26, 62, 62, 32
            |24, 29, 35, 28, 12, 10, 22, 26, 43, 34, 42, 40, 26, 28, 16, 37, 22, 33, 15, 39, 50, 31, 37, 29, 51, 19, 41, 31, 35, 45, 0, 20, 33, 26, 32, 38, 49, 44, 27, 38, 53, 39, 34, 26, 4, 37, 19, 15, 30, 47, 12, 35, 7, 10, 19, 30, 32, 35, 34, 33, 17
            |18, 14, 16, 13, 22, 24, 13, 30, 24, 27, 23, 22, 15, 27, 9, 31, 7, 23, 8, 28, 35, 12, 39, 12, 33, 21, 24, 18, 16, 28, 20, 0, 37, 15, 23, 20, 30, 32, 17, 20, 37, 19, 30, 7, 19, 17, 5, 6, 23, 32, 19, 27, 17, 9, 11, 14, 22, 16, 36, 36, 4
            |20, 30, 50, 30, 21, 24, 25, 7, 46, 18, 56, 58, 26, 10, 29, 16, 43, 23, 40, 26, 39, 46, 4, 48, 45, 17, 39, 55, 49, 63, 33, 37, 0, 25, 22, 40, 50, 29, 23, 54, 45, 49, 13, 42, 38, 43, 41, 38, 19, 39, 45, 19, 27, 34, 26, 50, 23, 40, 2, 2, 33
            |5, 6, 25, 5, 20, 24, 4, 20, 23, 11, 32, 33, 1, 14, 11, 16, 22, 8, 22, 14, 25, 22, 26, 25, 26, 12, 17, 32, 24, 39, 26, 15, 25, 0, 8, 17, 28, 19, 2, 30, 28, 25, 15, 18, 28, 19, 20, 19, 8, 22, 31, 12, 19, 18, 7, 27, 7, 16, 24, 23, 13
            |9, 11, 31, 11, 24, 28, 11, 19, 25, 4, 37, 39, 8, 12, 18, 9, 30, 1, 30, 7, 20, 28, 22, 32, 24, 15, 17, 40, 30, 45, 32, 23, 22, 8, 0, 19, 29, 12, 6, 36, 25, 29, 9, 25, 35, 23, 28, 27, 3, 19, 39, 4, 25, 26, 14, 34, 1, 19, 20, 20, 21
            |22, 11, 16, 12, 36, 39, 19, 37, 6, 23, 19, 23, 16, 30, 23, 27, 23, 18, 28, 18, 18, 15, 41, 20, 14, 29, 5, 28, 14, 28, 38, 20, 40, 17, 19, 0, 11, 20, 18, 20, 17, 11, 29, 16, 39, 5, 24, 25, 22, 14, 39, 23, 33, 28, 21, 22, 18, 4, 39, 39, 21
            |33, 22, 20, 23, 47, 50, 30, 47, 6, 33, 19, 24, 27, 41, 34, 36, 31, 28, 37, 26, 19, 21, 51, 27, 11, 40, 11, 33, 18, 27, 49, 30, 50, 28, 29, 11, 0, 26, 29, 22, 15, 13, 38, 24, 49, 12, 33, 35, 32, 16, 48, 32, 44, 38, 32, 28, 28, 14, 49, 49, 31
            |21, 18, 36, 19, 36, 40, 22, 29, 24, 13, 39, 43, 18, 22, 30, 13, 38, 11, 40, 5, 10, 34, 28, 38, 17, 27, 16, 46, 34, 48, 44, 32, 29, 19, 12, 20, 26, 0, 17, 40, 16, 31, 16, 32, 47, 25, 37, 37, 15, 11, 50, 11, 37, 37, 25, 40, 12, 22, 27, 27, 31
            |4, 8, 28, 7, 20, 24, 5, 18, 24, 9, 34, 35, 3, 13, 12, 14, 24, 6, 24, 13, 24, 24, 24, 27, 27, 11, 18, 34, 26, 41, 27, 17, 23, 2, 6, 18, 29, 17, 0, 32, 28, 26, 13, 20, 29, 21, 22, 21, 5, 22, 33, 10, 20, 20, 8, 29, 5, 17, 22, 21, 15
            |34, 25, 4, 25, 42, 44, 29, 49, 18, 40, 4, 4, 29, 44, 28, 44, 16, 35, 23, 37, 37, 8, 56, 9, 31, 39, 25, 12, 6, 9, 38, 20, 54, 30, 36, 20, 22, 40, 32, 0, 35, 9, 45, 13, 36, 15, 19, 23, 37, 33, 33, 40, 37, 28, 29, 9, 34, 17, 53, 53, 23
            |32, 24, 32, 25, 48, 52, 32, 44, 17, 27, 33, 38, 27, 37, 38, 29, 40, 24, 45, 19, 6, 32, 44, 38, 4, 39, 13, 45, 30, 41, 53, 37, 45, 28, 25, 17, 15, 16, 28, 35, 0, 26, 32, 33, 54, 22, 41, 42, 28, 6, 56, 26, 47, 44, 34, 39, 24, 21, 43, 43, 37
            |30, 19, 7, 19, 40, 43, 25, 44, 9, 33, 8, 12, 24, 39, 26, 37, 19, 28, 25, 29, 28, 9, 50, 13, 22, 35, 16, 20, 5, 17, 39, 19, 49, 25, 29, 11, 13, 31, 26, 9, 26, 0, 38, 13, 38, 6, 21, 24, 31, 24, 36, 33, 36, 29, 25, 14, 28, 10, 48, 48, 22
            |12, 20, 40, 20, 23, 27, 17, 13, 34, 5, 46, 48, 16, 6, 23, 4, 37, 10, 36, 13, 26, 37, 13, 40, 32, 15, 27, 47, 39, 54, 34, 30, 13, 15, 9, 29, 38, 16, 13, 45, 32, 38, 0, 33, 37, 32, 35, 33, 8, 26, 43, 6, 27, 30, 20, 42, 11, 29, 11, 11, 27
            |22, 15, 9, 14, 29, 31, 17, 36, 18, 29, 16, 16, 17, 32, 15, 34, 7, 25, 13, 28, 33, 5, 44, 7, 30, 26, 20, 15, 9, 22, 26, 7, 42, 18, 25, 16, 24, 32, 20, 13, 33, 13, 33, 0, 26, 12, 9, 12, 26, 29, 24, 30, 24, 16, 16, 9, 24, 12, 41, 40, 10
            |27, 30, 34, 29, 16, 15, 24, 30, 43, 37, 40, 38, 28, 32, 17, 40, 20, 35, 13, 42, 52, 30, 41, 27, 52, 23, 42, 28, 34, 43, 4, 19, 38, 28, 35, 39, 49, 47, 29, 36, 54, 38, 37, 26, 0, 37, 17, 14, 33, 49, 8, 38, 11, 11, 21, 28, 34, 35, 38, 37, 18
            |24, 13, 11, 14, 36, 39, 20, 39, 6, 27, 14, 18, 18, 33, 22, 31, 19, 22, 25, 23, 23, 10, 44, 16, 18, 30, 10, 23, 9, 23, 37, 17, 43, 19, 23, 5, 12, 25, 21, 15, 22, 6, 32, 12, 37, 0, 21, 23, 25, 19, 36, 27, 33, 26, 21, 17, 21, 4, 42, 42, 19
            |22, 19, 16, 18, 24, 26, 18, 34, 27, 32, 23, 21, 20, 32, 12, 36, 3, 28, 4, 33, 40, 13, 44, 10, 37, 24, 28, 14, 17, 27, 19, 5, 41, 20, 28, 24, 33, 37, 22, 19, 41, 21, 35, 9, 17, 21, 0, 4, 28, 36, 16, 32, 18, 9, 15, 11, 27, 20, 40, 40, 8
            |20, 19, 20, 18, 20, 22, 16, 31, 29, 30, 27, 25, 19, 29, 9, 34, 7, 27, 3, 33, 41, 16, 41, 14, 39, 21, 29, 18, 20, 31, 15, 6, 38, 19, 27, 25, 35, 37, 21, 23, 42, 24, 33, 12, 14, 23, 4, 0, 26, 37, 14, 31, 14, 5, 13, 16, 26, 22, 38, 37, 6
            |6, 12, 33, 12, 21, 25, 10, 16, 28, 4, 38, 40, 8, 9, 17, 8, 29, 4, 29, 10, 23, 29, 20, 32, 27, 12, 20, 40, 31, 46, 30, 23, 19, 8, 3, 22, 32, 15, 5, 37, 28, 31, 8, 26, 33, 25, 28, 26, 0, 22, 37, 5, 23, 24, 13, 34, 4, 21, 17, 17, 20
            |26, 18, 30, 20, 42, 46, 26, 38, 16, 21, 32, 36, 21, 30, 32, 23, 36, 18, 40, 13, 4, 29, 38, 34, 6, 33, 9, 42, 28, 41, 47, 32, 39, 22, 19, 14, 16, 11, 22, 33, 6, 24, 26, 29, 49, 19, 36, 37, 22, 0, 51, 20, 41, 38, 28, 36, 18, 17, 37, 37, 32
            |31, 33, 31, 31, 24, 22, 28, 37, 43, 41, 37, 34, 32, 38, 21, 45, 17, 39, 11, 45, 54, 28, 48, 24, 53, 29, 43, 23, 32, 38, 12, 19, 45, 31, 39, 39, 48, 50, 33, 33, 56, 36, 43, 24, 8, 36, 16, 14, 37, 51, 0, 43, 18, 13, 25, 24, 38, 35, 45, 44, 19
            |11, 15, 36, 16, 26, 30, 15, 18, 29, 1, 41, 44, 12, 11, 22, 4, 34, 5, 34, 7, 21, 33, 19, 36, 26, 16, 21, 44, 34, 49, 35, 27, 19, 12, 4, 23, 32, 11, 10, 40, 26, 33, 6, 30, 38, 27, 32, 31, 5, 20, 43, 0, 28, 29, 18, 38, 6, 23, 17, 17, 25
            |17, 23, 33, 22, 6, 7, 16, 20, 39, 26, 40, 39, 20, 21, 10, 29, 22, 26, 16, 32, 44, 29, 31, 28, 45, 12, 35, 32, 33, 45, 7, 17, 27, 19, 25, 33, 44, 37, 20, 37, 47, 36, 27, 24, 11, 33, 18, 14, 23, 41, 18, 28, 0, 9, 13, 30, 25, 30, 27, 26, 14
            |18, 20, 25, 19, 15, 16, 15, 26, 33, 28, 32, 31, 18, 26, 7, 32, 13, 26, 7, 32, 42, 21, 37, 19, 41, 17, 31, 23, 25, 36, 10, 9, 34, 18, 26, 28, 38, 37, 20, 28, 44, 29, 30, 16, 11, 26, 9, 5, 24, 38, 13, 29, 9, 0, 11, 21, 25, 25, 34, 33, 7
            |7, 10, 25, 9, 15, 19, 3, 20, 26, 17, 31, 32, 7, 17, 4, 21, 17, 15, 16, 21, 31, 21, 29, 22, 32, 10, 22, 29, 24, 38, 19, 11, 26, 7, 14, 21, 32, 25, 8, 29, 34, 25, 20, 16, 21, 21, 15, 13, 13, 28, 25, 18, 13, 11, 0, 24, 14, 18, 26, 25, 8
            |31, 23, 8, 23, 35, 37, 26, 44, 23, 38, 13, 10, 26, 40, 22, 42, 8, 34, 15, 37, 40, 7, 52, 2, 35, 34, 27, 6, 9, 15, 30, 14, 50, 27, 34, 22, 28, 40, 29, 9, 39, 14, 42, 9, 28, 17, 11, 16, 34, 36, 24, 38, 30, 21, 24, 0, 33, 19, 50, 49, 17
            |8, 9, 30, 10, 24, 28, 10, 20, 24, 6, 35, 38, 7, 13, 18, 10, 28, 1, 29, 7, 20, 27, 23, 30, 23, 15, 16, 38, 28, 43, 32, 22, 23, 7, 1, 18, 28, 12, 5, 34, 24, 28, 11, 24, 34, 21, 27, 26, 4, 18, 38, 6, 25, 25, 14, 33, 0, 18, 21, 21, 20
            |21, 9, 14, 10, 33, 37, 17, 35, 8, 23, 18, 21, 15, 30, 20, 28, 19, 18, 24, 20, 21, 12, 41, 17, 17, 27, 8, 25, 12, 26, 35, 16, 40, 16, 19, 4, 14, 22, 17, 17, 21, 10, 29, 12, 35, 4, 20, 22, 21, 17, 35, 23, 30, 25, 18, 19, 18, 0, 38, 38, 17
            |19, 29, 49, 29, 22, 25, 24, 8, 45, 16, 55, 57, 24, 9, 28, 14, 43, 21, 40, 24, 37, 45, 3, 47, 43, 17, 37, 54, 48, 62, 34, 36, 2, 24, 20, 39, 49, 27, 22, 53, 43, 48, 11, 41, 38, 42, 40, 38, 17, 37, 45, 17, 27, 34, 26, 50, 21, 38, 0, 1, 33
            |18, 29, 48, 28, 21, 24, 23, 7, 45, 16, 55, 56, 24, 9, 27, 14, 42, 21, 39, 24, 37, 45, 4, 47, 43, 16, 37, 53, 47, 62, 33, 36, 2, 23, 20, 39, 49, 27, 21, 53, 43, 48, 11, 40, 37, 42, 40, 37, 17, 37, 44, 17, 26, 33, 25, 49, 21, 38, 1, 0, 32
            |15, 13, 19, 12, 19, 21, 10, 27, 25, 24, 26, 26, 13, 24, 5, 28, 10, 21, 9, 26, 35, 15, 36, 15, 34, 17, 24, 21, 19, 32, 17, 4, 33, 13, 21, 21, 31, 31, 15, 23, 37, 22, 27, 10, 18, 19, 8, 6, 20, 32, 19, 25, 14, 7, 8, 17, 20, 17, 33, 32, 0|];