% n60w120.003    20.35 597
n = 61;
duration = [|0, 27, 20, 46, 13, 26, 43, 28, 26, 44, 27, 19, 31, 18, 33, 44, 43, 18, 14, 28, 49, 55, 34, 52, 49, 28, 20, 36, 41, 36, 62, 26, 59, 48, 31, 48, 34, 31, 38, 56, 43, 37, 52, 52, 17, 46, 18, 44, 42, 49, 49, 44, 42, 28, 54, 43, 20, 58, 43, 30, 21
            |27, 0, 9, 19, 16, 32, 20, 30, 28, 17, 8, 22, 7, 29, 6, 36, 18, 13, 13, 16, 36, 31, 20, 25, 22, 22, 22, 9, 40, 22, 39, 9, 38, 30, 8, 22, 9, 21, 32, 31, 34, 14, 25, 26, 25, 34, 25, 17, 36, 36, 25, 18, 38, 9, 33, 16, 8, 36, 21, 25, 7
            |20, 9, 0, 26, 13, 33, 29, 32, 30, 25, 7, 22, 16, 28, 16, 42, 27, 14, 8, 21, 43, 40, 27, 34, 31, 26, 23, 17, 44, 29, 48, 15, 47, 38, 17, 31, 14, 27, 37, 41, 40, 23, 35, 35, 24, 41, 25, 26, 41, 43, 34, 27, 43, 8, 42, 25, 9, 46, 23, 30, 9
            |46, 19, 26, 0, 35, 47, 16, 44, 42, 2, 21, 38, 17, 46, 13, 43, 13, 31, 31, 28, 38, 21, 29, 9, 4, 35, 38, 9, 51, 29, 28, 23, 33, 30, 18, 10, 13, 32, 42, 19, 40, 16, 12, 11, 42, 39, 42, 5, 44, 38, 18, 7, 47, 20, 28, 7, 26, 29, 15, 38, 25
            |13, 16, 13, 35, 0, 21, 31, 21, 18, 33, 19, 10, 19, 15, 22, 34, 31, 5, 5, 16, 37, 43, 22, 40, 38, 17, 11, 25, 34, 24, 50, 14, 46, 35, 18, 36, 24, 20, 28, 44, 32, 24, 39, 40, 11, 35, 12, 33, 32, 37, 36, 32, 33, 20, 41, 31, 8, 45, 35, 20, 9
            |26, 32, 33, 47, 21, 0, 36, 4, 5, 45, 38, 11, 30, 8, 35, 21, 38, 20, 26, 19, 29, 46, 21, 49, 50, 13, 11, 40, 15, 23, 51, 25, 43, 32, 29, 44, 41, 17, 15, 49, 21, 32, 47, 48, 10, 25, 9, 44, 18, 29, 40, 42, 17, 39, 40, 41, 25, 45, 53, 11, 26
            |43, 20, 29, 16, 31, 36, 0, 32, 31, 15, 27, 30, 13, 37, 14, 27, 4, 26, 30, 18, 22, 12, 15, 14, 16, 23, 29, 16, 36, 14, 19, 17, 19, 14, 13, 9, 22, 19, 28, 13, 25, 6, 11, 12, 34, 23, 34, 11, 29, 22, 6, 9, 32, 26, 14, 9, 23, 17, 30, 25, 23
            |28, 30, 32, 44, 21, 4, 32, 0, 2, 42, 37, 11, 27, 11, 32, 17, 34, 19, 25, 16, 25, 42, 17, 45, 46, 9, 10, 37, 13, 18, 46, 22, 39, 28, 26, 40, 39, 13, 11, 44, 17, 28, 43, 44, 11, 21, 10, 40, 14, 25, 36, 39, 14, 37, 36, 38, 23, 40, 50, 7, 24
            |26, 28, 30, 42, 18, 5, 31, 2, 0, 41, 35, 9, 26, 9, 30, 19, 33, 16, 23, 14, 25, 41, 16, 44, 45, 8, 8, 35, 15, 18, 46, 20, 39, 28, 24, 39, 37, 12, 12, 44, 18, 27, 42, 43, 9, 22, 8, 39, 16, 25, 36, 37, 16, 35, 36, 36, 21, 40, 49, 7, 22
            |44, 17, 25, 2, 33, 45, 15, 42, 41, 0, 19, 36, 15, 44, 11, 42, 12, 29, 29, 26, 37, 21, 27, 10, 6, 33, 36, 8, 49, 27, 28, 21, 33, 29, 16, 10, 12, 30, 40, 19, 39, 14, 12, 12, 40, 38, 40, 4, 43, 37, 17, 6, 46, 18, 28, 6, 24, 29, 15, 36, 23
            |27, 8, 7, 21, 19, 38, 27, 37, 35, 19, 0, 27, 15, 34, 12, 44, 24, 19, 15, 24, 44, 37, 28, 29, 25, 29, 28, 12, 48, 30, 45, 17, 46, 38, 16, 27, 7, 29, 40, 37, 42, 21, 30, 30, 30, 42, 31, 21, 44, 44, 32, 22, 46, 1, 41, 21, 13, 43, 16, 33, 13
            |19, 22, 22, 38, 10, 11, 30, 11, 9, 36, 27, 0, 21, 8, 25, 25, 31, 9, 14, 12, 30, 41, 17, 41, 41, 9, 1, 30, 24, 19, 47, 15, 42, 30, 20, 37, 30, 13, 19, 43, 24, 25, 40, 41, 4, 27, 4, 35, 23, 30, 35, 34, 24, 28, 38, 33, 14, 42, 42, 11, 15
            |31, 7, 16, 17, 19, 30, 13, 27, 26, 15, 15, 21, 0, 29, 5, 31, 12, 15, 17, 12, 29, 25, 14, 21, 20, 18, 21, 9, 36, 16, 32, 6, 31, 23, 1, 17, 13, 16, 28, 25, 28, 7, 21, 21, 25, 28, 25, 14, 31, 29, 19, 14, 33, 15, 26, 12, 11, 30, 24, 22, 10
            |18, 29, 28, 46, 15, 8, 37, 11, 9, 44, 34, 8, 29, 0, 33, 28, 39, 16, 20, 20, 35, 48, 24, 49, 49, 15, 8, 37, 23, 26, 54, 23, 48, 36, 28, 45, 38, 20, 21, 51, 27, 32, 48, 49, 4, 31, 4, 43, 25, 35, 42, 42, 25, 35, 44, 41, 21, 49, 49, 16, 22
            |33, 6, 16, 13, 22, 35, 14, 32, 30, 11, 12, 25, 5, 33, 0, 35, 12, 18, 19, 17, 33, 25, 19, 19, 16, 23, 25, 4, 41, 20, 33, 10, 33, 26, 6, 16, 9, 21, 33, 25, 32, 9, 19, 19, 29, 32, 29, 11, 35, 33, 19, 11, 38, 12, 28, 10, 13, 31, 19, 27, 12
            |44, 36, 42, 43, 34, 21, 27, 17, 19, 42, 44, 25, 31, 28, 35, 0, 31, 30, 37, 21, 9, 33, 16, 41, 44, 17, 25, 39, 11, 15, 35, 28, 25, 16, 29, 36, 44, 16, 7, 36, 3, 28, 38, 39, 28, 6, 27, 38, 4, 9, 29, 36, 6, 45, 24, 36, 33, 28, 54, 14, 33
            |43, 18, 27, 13, 31, 38, 4, 34, 33, 12, 24, 31, 12, 39, 12, 31, 0, 26, 29, 19, 26, 13, 17, 11, 13, 25, 31, 13, 39, 17, 21, 17, 22, 17, 12, 6, 19, 21, 30, 13, 28, 6, 9, 10, 35, 26, 35, 8, 32, 26, 7, 6, 35, 24, 17, 6, 23, 19, 26, 27, 22
            |18, 13, 14, 31, 5, 20, 26, 19, 16, 29, 19, 9, 15, 16, 18, 30, 26, 0, 7, 11, 33, 38, 17, 36, 34, 13, 9, 22, 31, 19, 45, 9, 41, 30, 14, 31, 22, 15, 25, 39, 28, 20, 35, 35, 12, 30, 12, 29, 28, 33, 31, 28, 30, 19, 36, 27, 5, 40, 34, 16, 6
            |14, 13, 8, 31, 5, 26, 30, 25, 23, 29, 15, 14, 17, 20, 19, 37, 29, 7, 0, 17, 39, 42, 24, 38, 35, 20, 15, 22, 38, 26, 49, 13, 47, 36, 17, 34, 20, 22, 32, 43, 35, 23, 37, 38, 16, 37, 17, 30, 36, 39, 35, 30, 37, 16, 42, 29, 6, 45, 31, 24, 7
            |28, 16, 21, 28, 16, 19, 18, 16, 14, 26, 24, 12, 12, 20, 17, 21, 19, 11, 17, 0, 22, 29, 6, 30, 30, 7, 12, 21, 25, 9, 35, 7, 31, 20, 10, 25, 24, 5, 17, 31, 18, 13, 28, 29, 16, 20, 16, 24, 20, 22, 23, 23, 22, 24, 26, 22, 12, 30, 35, 10, 12
            |49, 36, 43, 38, 37, 29, 22, 25, 25, 37, 44, 30, 29, 35, 33, 9, 26, 33, 39, 22, 0, 25, 16, 34, 38, 21, 30, 36, 20, 14, 26, 28, 16, 9, 28, 30, 41, 18, 14, 28, 8, 24, 31, 32, 33, 4, 32, 33, 13, 0, 22, 31, 15, 44, 15, 31, 34, 19, 51, 19, 34
            |55, 31, 40, 21, 43, 46, 12, 42, 41, 21, 37, 41, 25, 48, 25, 33, 13, 38, 42, 29, 25, 0, 25, 13, 18, 34, 41, 25, 43, 24, 8, 29, 13, 16, 25, 11, 31, 29, 35, 4, 30, 18, 9, 10, 45, 27, 45, 17, 35, 25, 6, 15, 38, 37, 10, 16, 35, 9, 36, 35, 35
            |34, 20, 27, 29, 22, 21, 15, 17, 16, 27, 28, 17, 14, 24, 19, 16, 17, 17, 24, 6, 16, 25, 0, 28, 30, 9, 16, 23, 22, 2, 30, 12, 25, 14, 13, 23, 27, 4, 14, 27, 13, 13, 26, 27, 21, 14, 20, 24, 16, 16, 19, 22, 19, 29, 21, 22, 18, 25, 38, 10, 18
            |52, 25, 34, 9, 40, 49, 14, 45, 44, 10, 29, 41, 21, 49, 19, 41, 11, 36, 38, 30, 34, 13, 28, 0, 6, 36, 41, 17, 50, 28, 19, 27, 25, 26, 22, 5, 22, 32, 41, 10, 38, 17, 4, 2, 46, 36, 45, 8, 43, 34, 12, 8, 46, 28, 22, 9, 32, 22, 24, 38, 31
            |49, 22, 31, 4, 38, 50, 16, 46, 45, 6, 25, 41, 20, 49, 16, 44, 13, 34, 35, 30, 38, 18, 30, 6, 0, 37, 41, 13, 52, 30, 25, 26, 31, 30, 21, 9, 18, 34, 43, 16, 41, 18, 9, 8, 45, 39, 45, 6, 45, 38, 17, 8, 48, 24, 27, 8, 30, 27, 18, 40, 29
            |28, 22, 26, 35, 17, 13, 23, 9, 8, 33, 29, 9, 18, 15, 23, 17, 25, 13, 20, 7, 21, 34, 9, 36, 37, 0, 9, 28, 19, 10, 39, 13, 33, 21, 17, 31, 30, 4, 11, 36, 15, 19, 34, 35, 13, 18, 12, 31, 15, 21, 28, 29, 17, 30, 29, 29, 17, 33, 42, 4, 17
            |20, 22, 23, 38, 11, 11, 29, 10, 8, 36, 28, 1, 21, 8, 25, 25, 31, 9, 15, 12, 30, 41, 16, 41, 41, 9, 0, 30, 23, 18, 47, 15, 41, 30, 20, 36, 31, 13, 18, 43, 23, 24, 40, 41, 4, 26, 4, 35, 22, 30, 35, 34, 23, 29, 37, 33, 14, 41, 42, 10, 15
            |36, 9, 17, 9, 25, 40, 16, 37, 35, 8, 12, 30, 9, 37, 4, 39, 13, 22, 22, 21, 36, 25, 23, 17, 13, 28, 30, 0, 45, 24, 33, 15, 35, 29, 11, 15, 6, 26, 37, 25, 36, 12, 18, 18, 33, 36, 34, 9, 40, 36, 20, 10, 42, 12, 30, 9, 17, 32, 15, 31, 16
            |41, 40, 44, 51, 34, 15, 36, 13, 15, 49, 48, 24, 36, 23, 41, 11, 39, 31, 38, 25, 20, 43, 22, 50, 52, 19, 23, 45, 0, 22, 46, 32, 36, 27, 35, 45, 49, 20, 9, 47, 13, 35, 47, 48, 24, 17, 23, 47, 8, 20, 39, 45, 5, 49, 35, 44, 35, 39, 60, 15, 36
            |36, 22, 29, 29, 24, 23, 14, 18, 18, 27, 30, 19, 16, 26, 20, 15, 17, 19, 26, 9, 14, 24, 2, 28, 30, 10, 18, 24, 22, 0, 29, 14, 23, 11, 14, 23, 29, 6, 13, 26, 12, 13, 25, 26, 23, 12, 22, 24, 16, 14, 18, 22, 19, 30, 19, 22, 20, 23, 39, 11, 20
            |62, 39, 48, 28, 50, 51, 19, 46, 46, 28, 45, 47, 32, 54, 33, 35, 21, 45, 49, 35, 26, 8, 30, 19, 25, 39, 47, 33, 46, 29, 0, 36, 11, 19, 32, 18, 39, 34, 38, 9, 33, 26, 16, 17, 51, 29, 51, 25, 38, 26, 14, 23, 41, 44, 11, 24, 43, 7, 43, 40, 42
            |26, 9, 15, 23, 14, 25, 17, 22, 20, 21, 17, 15, 6, 23, 10, 28, 17, 9, 13, 7, 28, 29, 12, 27, 26, 13, 15, 15, 32, 14, 36, 0, 34, 24, 5, 22, 17, 13, 24, 30, 25, 11, 26, 27, 19, 26, 19, 20, 27, 28, 23, 19, 30, 17, 29, 18, 7, 32, 29, 17, 6
            |59, 38, 47, 33, 46, 43, 19, 39, 39, 33, 46, 42, 31, 48, 33, 25, 22, 41, 47, 31, 16, 13, 25, 25, 31, 33, 41, 35, 36, 23, 11, 34, 0, 11, 31, 23, 41, 28, 30, 16, 24, 25, 22, 23, 45, 19, 45, 28, 29, 16, 15, 26, 31, 46, 5, 27, 40, 4, 48, 32, 40
            |48, 30, 38, 30, 35, 32, 14, 28, 28, 29, 38, 30, 23, 36, 26, 16, 17, 30, 36, 20, 9, 16, 14, 26, 30, 21, 30, 29, 27, 11, 19, 24, 11, 0, 22, 21, 35, 17, 19, 20, 14, 17, 22, 24, 34, 10, 33, 25, 19, 9, 14, 23, 22, 38, 8, 23, 30, 13, 43, 21, 30
            |31, 8, 17, 18, 18, 29, 13, 26, 24, 16, 16, 20, 1, 28, 6, 29, 12, 14, 17, 10, 28, 25, 13, 22, 21, 17, 20, 11, 35, 14, 32, 5, 31, 22, 0, 17, 14, 15, 26, 26, 26, 6, 21, 22, 24, 27, 24, 15, 29, 28, 18, 14, 32, 16, 26, 13, 11, 29, 25, 20, 10
            |48, 22, 31, 10, 36, 44, 9, 40, 39, 10, 27, 37, 17, 45, 16, 36, 6, 31, 34, 25, 30, 11, 23, 5, 9, 31, 36, 15, 45, 23, 18, 22, 23, 21, 17, 0, 21, 27, 36, 10, 33, 12, 4, 4, 41, 31, 41, 6, 38, 30, 8, 4, 41, 26, 18, 6, 28, 19, 25, 33, 27
            |34, 9, 14, 13, 24, 41, 22, 39, 37, 12, 7, 30, 13, 38, 9, 44, 19, 22, 20, 24, 41, 31, 27, 22, 18, 30, 31, 6, 49, 29, 39, 17, 41, 35, 14, 21, 0, 29, 40, 30, 41, 17, 24, 23, 34, 41, 34, 15, 44, 41, 26, 16, 46, 6, 36, 15, 17, 38, 12, 34, 16
            |31, 21, 27, 32, 20, 17, 19, 13, 12, 30, 29, 13, 16, 20, 21, 16, 21, 15, 22, 5, 18, 29, 4, 32, 34, 4, 13, 26, 20, 6, 34, 13, 28, 17, 15, 27, 29, 0, 11, 32, 13, 16, 30, 31, 17, 15, 16, 28, 15, 18, 23, 26, 17, 30, 24, 25, 17, 29, 40, 6, 17
            |38, 32, 37, 42, 28, 15, 28, 11, 12, 40, 40, 19, 28, 21, 33, 7, 30, 25, 32, 17, 14, 35, 14, 41, 43, 11, 18, 37, 9, 13, 38, 24, 30, 19, 26, 36, 40, 11, 0, 38, 6, 26, 38, 40, 21, 11, 20, 38, 4, 14, 30, 36, 6, 41, 27, 35, 28, 32, 52, 8, 28
            |56, 31, 41, 19, 44, 49, 13, 44, 44, 19, 37, 43, 25, 51, 25, 36, 13, 39, 43, 31, 28, 4, 27, 10, 16, 36, 43, 25, 47, 26, 9, 30, 16, 20, 26, 10, 30, 32, 38, 0, 34, 19, 7, 8, 47, 30, 47, 16, 39, 28, 8, 14, 42, 36, 14, 16, 36, 12, 34, 37, 35
            |43, 34, 40, 40, 32, 21, 25, 17, 18, 39, 42, 24, 28, 27, 32, 3, 28, 28, 35, 18, 8, 30, 13, 38, 41, 15, 23, 36, 13, 12, 33, 25, 24, 14, 26, 33, 41, 13, 6, 34, 0, 25, 35, 36, 26, 4, 25, 36, 5, 8, 27, 34, 8, 42, 22, 33, 30, 26, 51, 13, 31
            |37, 14, 23, 16, 24, 32, 6, 28, 27, 14, 21, 25, 7, 32, 9, 28, 6, 20, 23, 13, 24, 18, 13, 17, 18, 19, 24, 12, 35, 13, 26, 11, 25, 17, 6, 12, 17, 16, 26, 19, 25, 0, 16, 16, 29, 24, 28, 12, 28, 24, 12, 10, 31, 21, 20, 9, 17, 23, 27, 22, 16
            |52, 25, 35, 12, 39, 47, 11, 43, 42, 12, 30, 40, 21, 48, 19, 38, 9, 35, 37, 28, 31, 9, 26, 4, 9, 34, 40, 18, 47, 25, 16, 26, 22, 22, 21, 4, 24, 30, 38, 7, 35, 16, 0, 1, 44, 32, 44, 9, 40, 31, 9, 8, 43, 30, 18, 9, 31, 18, 27, 36, 31
            |52, 26, 35, 11, 40, 48, 12, 44, 43, 12, 30, 41, 21, 49, 19, 39, 10, 35, 38, 29, 32, 10, 27, 2, 8, 35, 41, 18, 48, 26, 17, 27, 23, 24, 22, 4, 23, 31, 40, 8, 36, 16, 1, 0, 45, 34, 45, 9, 41, 32, 10, 8, 44, 29, 19, 9, 32, 19, 26, 37, 31
            |17, 25, 24, 42, 11, 10, 34, 11, 9, 40, 30, 4, 25, 4, 29, 28, 35, 12, 16, 16, 33, 45, 21, 46, 45, 13, 4, 33, 24, 23, 51, 19, 45, 34, 24, 41, 34, 17, 21, 47, 26, 29, 44, 45, 0, 30, 1, 39, 25, 33, 39, 38, 25, 31, 41, 37, 17, 46, 45, 14, 18
            |46, 34, 41, 39, 35, 25, 23, 21, 22, 38, 42, 27, 28, 31, 32, 6, 26, 30, 37, 20, 4, 27, 14, 36, 39, 18, 26, 36, 17, 12, 29, 26, 19, 10, 27, 31, 41, 15, 11, 30, 4, 24, 32, 34, 30, 0, 29, 34, 9, 4, 24, 32, 12, 43, 18, 32, 32, 22, 51, 16, 32
            |18, 25, 25, 42, 12, 9, 34, 10, 8, 40, 31, 4, 25, 4, 29, 27, 35, 12, 17, 16, 32, 45, 20, 45, 45, 12, 4, 34, 23, 22, 51, 19, 45, 33, 24, 41, 34, 16, 20, 47, 25, 28, 44, 45, 1, 29, 0, 39, 24, 32, 39, 38, 24, 31, 41, 37, 17, 45, 46, 13, 18
            |44, 17, 26, 5, 33, 44, 11, 40, 39, 4, 21, 35, 14, 43, 11, 38, 8, 29, 30, 24, 33, 17, 24, 8, 6, 31, 35, 9, 47, 24, 25, 20, 28, 25, 15, 6, 15, 28, 38, 16, 36, 12, 9, 9, 39, 34, 39, 0, 40, 33, 13, 2, 43, 21, 24, 2, 24, 25, 19, 34, 23
            |42, 36, 41, 44, 32, 18, 29, 14, 16, 43, 44, 23, 31, 25, 35, 4, 32, 28, 36, 20, 13, 35, 16, 43, 45, 15, 22, 40, 8, 16, 38, 27, 29, 19, 29, 38, 44, 15, 4, 39, 5, 28, 40, 41, 25, 9, 24, 40, 0, 13, 31, 38, 3, 44, 27, 37, 32, 31, 55, 12, 32
            |49, 36, 43, 38, 37, 29, 22, 25, 25, 37, 44, 30, 29, 35, 33, 9, 26, 33, 39, 22, 0, 25, 16, 34, 38, 21, 30, 36, 20, 14, 26, 28, 16, 9, 28, 30, 41, 18, 14, 28, 8, 24, 31, 32, 33, 4, 32, 33, 13, 0, 22, 31, 15, 44, 15, 31, 34, 19, 51, 19, 34
            |49, 25, 34, 18, 36, 40, 6, 36, 36, 17, 32, 35, 19, 42, 19, 29, 7, 31, 35, 23, 22, 6, 19, 12, 17, 28, 35, 20, 39, 18, 14, 23, 15, 14, 18, 8, 26, 23, 30, 8, 27, 12, 9, 10, 39, 24, 39, 13, 31, 22, 0, 11, 34, 31, 10, 12, 29, 12, 33, 29, 28
            |44, 18, 27, 7, 32, 42, 9, 39, 37, 6, 22, 34, 14, 42, 11, 36, 6, 28, 30, 23, 31, 15, 22, 8, 8, 29, 34, 10, 45, 22, 23, 19, 26, 23, 14, 4, 16, 26, 36, 14, 34, 10, 8, 8, 38, 32, 38, 2, 38, 31, 11, 0, 41, 22, 22, 1, 24, 23, 21, 32, 23
            |42, 38, 43, 47, 33, 17, 32, 14, 16, 46, 46, 24, 33, 25, 38, 6, 35, 30, 37, 22, 15, 38, 19, 46, 48, 17, 23, 42, 5, 19, 41, 30, 31, 22, 32, 41, 46, 17, 6, 42, 8, 31, 43, 44, 25, 12, 24, 43, 3, 15, 34, 41, 0, 47, 30, 40, 34, 34, 57, 14, 34
            |28, 9, 8, 20, 20, 39, 26, 37, 35, 18, 1, 28, 15, 35, 12, 45, 24, 19, 16, 24, 44, 37, 29, 28, 24, 30, 29, 12, 49, 30, 44, 17, 46, 38, 16, 26, 6, 30, 41, 36, 42, 21, 30, 29, 31, 43, 31, 21, 44, 44, 31, 22, 47, 0, 40, 21, 14, 43, 15, 34, 13
            |54, 33, 42, 28, 41, 40, 14, 36, 36, 28, 41, 38, 26, 44, 28, 24, 17, 36, 42, 26, 15, 10, 21, 22, 27, 29, 37, 30, 35, 19, 11, 29, 5, 8, 26, 18, 36, 24, 27, 14, 22, 20, 18, 19, 41, 18, 41, 24, 27, 15, 10, 22, 30, 40, 0, 22, 35, 4, 43, 29, 35
            |43, 16, 25, 7, 31, 41, 9, 38, 36, 6, 21, 33, 12, 41, 10, 36, 6, 27, 29, 22, 31, 16, 22, 9, 8, 29, 33, 9, 44, 22, 24, 18, 27, 23, 13, 6, 15, 25, 35, 16, 33, 9, 9, 9, 37, 32, 37, 2, 37, 31, 12, 1, 40, 21, 22, 0, 23, 24, 21, 31, 22
            |20, 8, 9, 26, 8, 25, 23, 23, 21, 24, 13, 14, 11, 21, 13, 33, 23, 5, 6, 12, 34, 35, 18, 32, 30, 17, 14, 17, 35, 20, 43, 7, 40, 30, 11, 28, 17, 17, 28, 36, 30, 17, 31, 32, 17, 32, 17, 24, 32, 34, 29, 24, 34, 14, 35, 23, 0, 39, 28, 20, 1
            |58, 36, 46, 29, 45, 45, 17, 40, 40, 29, 43, 42, 30, 49, 31, 28, 19, 40, 45, 30, 19, 9, 25, 22, 27, 33, 41, 32, 39, 23, 7, 32, 4, 13, 29, 19, 38, 29, 32, 12, 26, 23, 18, 19, 46, 22, 45, 25, 31, 19, 12, 23, 34, 43, 4, 24, 39, 0, 44, 34, 39
            |43, 21, 23, 15, 35, 53, 30, 50, 49, 15, 16, 42, 24, 49, 19, 54, 26, 34, 31, 35, 51, 36, 38, 24, 18, 42, 42, 15, 60, 39, 43, 29, 48, 43, 25, 25, 12, 40, 52, 34, 51, 27, 27, 26, 45, 51, 46, 19, 55, 51, 33, 21, 57, 15, 43, 21, 28, 44, 0, 45, 27
            |30, 25, 30, 38, 20, 11, 25, 7, 7, 36, 33, 11, 22, 16, 27, 14, 27, 16, 24, 10, 19, 35, 10, 38, 40, 4, 10, 31, 15, 11, 40, 17, 32, 21, 20, 33, 34, 6, 8, 37, 13, 22, 36, 37, 14, 16, 13, 34, 12, 19, 29, 32, 14, 34, 29, 31, 20, 34, 45, 0, 21
            |21, 7, 9, 25, 9, 26, 23, 24, 22, 23, 13, 15, 10, 22, 12, 33, 22, 6, 7, 12, 34, 35, 18, 31, 29, 17, 15, 16, 36, 20, 42, 6, 40, 30, 10, 27, 16, 17, 28, 35, 31, 16, 31, 31, 18, 32, 18, 23, 32, 34, 28, 23, 34, 13, 35, 22, 1, 39, 27, 21, 0|];