% n60w120.002    19.92 663
n = 61;
duration = [|0, 32, 19, 4, 33, 40, 6, 56, 14, 35, 36, 33, 44, 32, 34, 17, 38, 49, 38, 48, 58, 44, 38, 48, 45, 35, 5, 31, 40, 52, 26, 43, 33, 24, 34, 58, 11, 47, 19, 42, 46, 14, 40, 37, 25, 26, 48, 51, 30, 42, 26, 42, 8, 21, 4, 47, 34, 52, 22, 14, 43
            |32, 0, 14, 28, 42, 47, 35, 34, 32, 40, 38, 34, 13, 3, 5, 17, 13, 24, 17, 26, 33, 13, 19, 19, 33, 20, 27, 20, 18, 31, 37, 31, 20, 29, 24, 36, 21, 33, 25, 33, 16, 31, 44, 8, 9, 36, 32, 23, 6, 11, 21, 44, 27, 12, 28, 25, 27, 29, 13, 18, 23
            |19, 14, 0, 16, 30, 36, 24, 38, 18, 30, 28, 24, 27, 16, 15, 12, 25, 30, 19, 30, 39, 26, 20, 29, 30, 18, 14, 15, 21, 34, 24, 28, 16, 17, 18, 40, 11, 31, 11, 28, 30, 17, 34, 22, 13, 23, 31, 32, 11, 23, 12, 35, 18, 11, 16, 28, 20, 33, 3, 9, 25
            |4, 28, 16, 0, 33, 40, 8, 53, 15, 35, 35, 32, 40, 28, 30, 13, 34, 45, 35, 45, 55, 40, 35, 44, 43, 33, 3, 29, 37, 49, 26, 41, 30, 23, 31, 55, 7, 45, 18, 40, 42, 14, 40, 33, 21, 26, 45, 48, 26, 38, 24, 42, 5, 17, 0, 44, 32, 49, 19, 10, 40
            |33, 42, 30, 33, 0, 7, 39, 42, 19, 4, 7, 10, 52, 45, 40, 40, 54, 40, 33, 38, 46, 50, 31, 46, 26, 27, 30, 24, 34, 37, 7, 25, 25, 13, 22, 44, 35, 28, 19, 20, 57, 19, 8, 50, 43, 7, 30, 47, 36, 46, 21, 11, 39, 40, 33, 36, 18, 40, 30, 36, 33
            |40, 47, 36, 40, 7, 0, 46, 43, 26, 7, 9, 14, 57, 50, 45, 47, 60, 42, 36, 40, 47, 54, 34, 49, 27, 31, 37, 29, 38, 38, 14, 26, 29, 20, 26, 44, 42, 28, 25, 21, 62, 26, 5, 55, 49, 14, 31, 50, 42, 50, 26, 7, 46, 47, 40, 38, 22, 41, 36, 43, 36
            |6, 35, 24, 8, 39, 46, 0, 62, 20, 41, 42, 40, 48, 35, 38, 19, 40, 54, 43, 54, 63, 48, 44, 52, 52, 41, 11, 37, 45, 57, 32, 49, 38, 31, 40, 64, 14, 53, 25, 48, 49, 20, 46, 40, 27, 32, 54, 56, 34, 46, 32, 49, 8, 24, 8, 52, 40, 57, 27, 17, 49
            |56, 34, 38, 53, 42, 43, 62, 0, 48, 38, 35, 33, 32, 36, 28, 48, 43, 9, 19, 8, 4, 28, 18, 17, 16, 21, 51, 25, 17, 5, 43, 17, 24, 36, 24, 2, 48, 15, 38, 22, 37, 47, 38, 37, 42, 42, 12, 15, 30, 26, 30, 36, 55, 44, 53, 9, 26, 4, 35, 47, 13
            |14, 32, 18, 15, 19, 26, 20, 48, 0, 21, 22, 20, 45, 34, 32, 24, 42, 42, 31, 41, 50, 43, 31, 44, 35, 27, 12, 23, 34, 43, 12, 33, 24, 12, 24, 49, 18, 36, 9, 30, 48, 1, 26, 39, 29, 12, 38, 46, 28, 40, 17, 28, 20, 26, 15, 39, 23, 44, 19, 20, 35
            |35, 40, 30, 35, 4, 7, 41, 38, 21, 0, 3, 7, 50, 43, 38, 40, 53, 36, 30, 34, 42, 47, 28, 42, 22, 24, 32, 22, 31, 33, 9, 21, 22, 13, 19, 39, 36, 23, 19, 16, 55, 21, 5, 48, 42, 9, 26, 43, 35, 44, 19, 7, 40, 40, 35, 32, 15, 36, 29, 37, 30
            |36, 38, 28, 35, 7, 9, 42, 35, 22, 3, 0, 4, 48, 41, 35, 40, 51, 34, 27, 31, 39, 45, 25, 40, 19, 21, 32, 19, 28, 30, 11, 18, 19, 12, 16, 36, 35, 20, 18, 13, 52, 22, 6, 46, 41, 10, 23, 41, 33, 41, 17, 7, 40, 39, 35, 29, 13, 33, 27, 36, 27
            |33, 34, 24, 32, 10, 14, 40, 33, 20, 7, 4, 0, 44, 37, 31, 36, 47, 30, 23, 28, 36, 40, 21, 36, 17, 17, 29, 15, 24, 27, 11, 16, 15, 9, 12, 34, 32, 18, 15, 11, 48, 20, 10, 42, 37, 10, 21, 37, 28, 37, 13, 11, 37, 35, 32, 26, 9, 30, 23, 32, 23
            |44, 13, 27, 40, 52, 57, 48, 32, 45, 50, 48, 44, 0, 12, 13, 28, 13, 24, 22, 26, 30, 4, 24, 15, 37, 27, 40, 29, 22, 32, 48, 36, 28, 40, 32, 34, 34, 38, 37, 40, 5, 44, 53, 9, 20, 47, 35, 18, 17, 7, 32, 53, 40, 24, 40, 27, 35, 28, 25, 31, 26
            |32, 3, 16, 28, 45, 50, 35, 36, 34, 43, 41, 37, 12, 0, 8, 16, 10, 27, 20, 28, 35, 13, 22, 21, 36, 23, 28, 23, 21, 34, 39, 34, 23, 31, 27, 38, 21, 36, 27, 36, 14, 33, 47, 5, 8, 39, 35, 25, 9, 12, 24, 47, 27, 12, 28, 28, 30, 32, 15, 18, 26
            |34, 5, 15, 30, 40, 45, 38, 28, 32, 38, 35, 31, 13, 8, 0, 21, 17, 19, 12, 21, 28, 11, 14, 15, 28, 16, 29, 16, 13, 26, 35, 26, 16, 27, 20, 31, 24, 29, 24, 29, 17, 31, 41, 11, 14, 34, 27, 18, 4, 8, 19, 41, 31, 16, 30, 20, 23, 24, 13, 21, 18
            |17, 17, 12, 13, 40, 47, 19, 48, 24, 40, 40, 36, 28, 16, 21, 0, 21, 39, 29, 39, 48, 29, 30, 35, 42, 29, 14, 26, 31, 44, 34, 40, 27, 28, 30, 50, 7, 43, 22, 40, 29, 23, 45, 20, 8, 33, 43, 39, 18, 27, 24, 47, 11, 4, 13, 38, 32, 43, 14, 4, 35
            |38, 13, 25, 34, 54, 60, 40, 43, 42, 53, 51, 47, 13, 10, 17, 21, 0, 34, 29, 36, 42, 16, 31, 26, 45, 33, 35, 33, 30, 42, 49, 43, 33, 41, 37, 45, 27, 46, 36, 46, 10, 42, 57, 6, 14, 48, 44, 30, 19, 17, 34, 57, 32, 17, 34, 36, 40, 39, 25, 25, 35
            |49, 24, 30, 45, 40, 42, 54, 9, 42, 36, 34, 30, 24, 27, 19, 39, 34, 0, 11, 3, 9, 19, 11, 9, 17, 15, 44, 19, 9, 9, 39, 17, 18, 32, 19, 11, 40, 16, 32, 22, 29, 41, 38, 28, 33, 38, 13, 8, 21, 17, 24, 36, 47, 35, 45, 4, 22, 5, 27, 38, 7
            |38, 17, 19, 35, 33, 36, 43, 19, 31, 30, 27, 23, 22, 20, 12, 29, 29, 11, 0, 11, 20, 18, 2, 13, 16, 5, 33, 9, 2, 15, 30, 14, 8, 22, 11, 21, 30, 16, 22, 18, 27, 30, 32, 23, 25, 29, 15, 15, 12, 15, 14, 31, 37, 26, 35, 9, 14, 14, 16, 28, 6
            |48, 26, 30, 45, 38, 40, 54, 8, 41, 34, 31, 28, 26, 28, 21, 39, 36, 3, 11, 0, 9, 22, 10, 12, 14, 13, 43, 18, 9, 6, 37, 14, 17, 30, 17, 10, 40, 14, 31, 19, 31, 40, 35, 30, 34, 36, 11, 11, 22, 19, 23, 34, 48, 36, 45, 2, 20, 4, 27, 39, 5
            |58, 33, 39, 55, 46, 47, 63, 4, 50, 42, 39, 36, 30, 35, 28, 48, 42, 9, 20, 9, 0, 26, 19, 15, 20, 23, 53, 27, 18, 9, 46, 21, 26, 39, 27, 5, 50, 19, 41, 26, 35, 49, 42, 36, 42, 45, 16, 12, 30, 25, 33, 40, 57, 44, 55, 11, 29, 6, 36, 48, 15
            |44, 13, 26, 40, 50, 54, 48, 28, 43, 47, 45, 40, 4, 13, 11, 29, 16, 19, 18, 22, 26, 0, 21, 11, 33, 23, 40, 26, 18, 28, 46, 32, 25, 37, 29, 30, 34, 34, 35, 36, 9, 42, 50, 11, 21, 45, 31, 14, 15, 4, 29, 50, 40, 25, 40, 22, 32, 24, 24, 31, 22
            |38, 19, 20, 35, 31, 34, 44, 18, 31, 28, 25, 21, 24, 22, 14, 30, 31, 11, 2, 10, 19, 21, 0, 15, 14, 4, 33, 8, 3, 14, 29, 12, 7, 21, 9, 20, 31, 14, 22, 16, 29, 30, 30, 25, 26, 28, 13, 16, 14, 17, 14, 29, 38, 27, 35, 8, 13, 13, 17, 29, 5
            |48, 19, 29, 44, 46, 49, 52, 17, 44, 42, 40, 36, 15, 21, 15, 35, 26, 9, 13, 12, 15, 11, 15, 0, 25, 18, 43, 22, 11, 17, 43, 24, 21, 35, 24, 19, 38, 25, 34, 29, 20, 43, 44, 21, 28, 42, 22, 4, 18, 9, 27, 43, 45, 31, 44, 13, 27, 14, 26, 36, 14
            |45, 33, 30, 43, 26, 27, 52, 16, 35, 22, 19, 17, 37, 36, 28, 42, 45, 17, 16, 14, 20, 33, 14, 25, 0, 13, 41, 16, 16, 11, 28, 2, 14, 23, 12, 17, 40, 1, 26, 6, 43, 34, 22, 39, 39, 27, 4, 24, 27, 30, 19, 20, 47, 39, 43, 12, 12, 15, 28, 40, 11
            |35, 20, 18, 33, 27, 31, 41, 21, 27, 24, 21, 17, 27, 23, 16, 29, 33, 15, 5, 13, 23, 23, 4, 18, 13, 0, 30, 4, 7, 16, 25, 11, 3, 17, 5, 23, 29, 14, 18, 13, 32, 26, 27, 27, 26, 24, 14, 20, 14, 20, 10, 26, 36, 26, 33, 12, 9, 17, 15, 27, 8
            |5, 27, 14, 3, 30, 37, 11, 51, 12, 32, 32, 29, 40, 28, 29, 14, 35, 44, 33, 43, 53, 40, 33, 43, 41, 30, 0, 26, 35, 47, 23, 39, 28, 20, 29, 53, 8, 42, 15, 37, 42, 11, 37, 33, 21, 23, 43, 46, 25, 37, 22, 39, 8, 17, 3, 42, 29, 47, 17, 10, 38
            |31, 20, 15, 29, 24, 29, 37, 25, 23, 22, 19, 15, 29, 23, 16, 26, 33, 19, 9, 18, 27, 26, 8, 22, 16, 4, 26, 0, 11, 21, 21, 13, 1, 13, 4, 27, 25, 17, 13, 14, 33, 22, 25, 27, 24, 20, 17, 24, 14, 22, 5, 25, 32, 24, 29, 16, 7, 21, 12, 24, 13
            |40, 18, 21, 37, 34, 38, 45, 17, 34, 31, 28, 24, 22, 21, 13, 31, 30, 9, 2, 9, 18, 18, 3, 11, 16, 7, 35, 11, 0, 14, 32, 14, 10, 24, 12, 19, 32, 16, 24, 18, 27, 33, 33, 24, 26, 31, 14, 13, 14, 14, 16, 32, 39, 27, 37, 8, 16, 12, 18, 30, 5
            |52, 31, 34, 49, 37, 38, 57, 5, 43, 33, 30, 27, 32, 34, 26, 44, 42, 9, 15, 6, 9, 28, 14, 17, 11, 16, 47, 21, 14, 0, 38, 12, 19, 31, 19, 7, 45, 10, 34, 17, 37, 42, 33, 36, 40, 37, 7, 16, 27, 25, 26, 31, 52, 41, 49, 6, 21, 4, 31, 43, 9
            |26, 37, 24, 26, 7, 14, 32, 43, 12, 9, 11, 11, 48, 39, 35, 34, 49, 39, 30, 37, 46, 46, 29, 43, 28, 25, 23, 21, 32, 38, 0, 26, 22, 9, 20, 44, 28, 29, 13, 22, 52, 12, 14, 45, 37, 1, 31, 45, 32, 42, 17, 17, 32, 34, 26, 35, 17, 40, 24, 30, 32
            |43, 31, 28, 41, 25, 26, 49, 17, 33, 21, 18, 16, 36, 34, 26, 40, 43, 17, 14, 14, 21, 32, 12, 24, 2, 11, 39, 13, 14, 12, 26, 0, 12, 21, 10, 18, 38, 4, 24, 5, 41, 32, 21, 37, 37, 25, 5, 24, 25, 29, 17, 20, 45, 37, 41, 12, 10, 15, 25, 37, 11
            |33, 20, 16, 30, 25, 29, 38, 24, 24, 22, 19, 15, 28, 23, 16, 27, 33, 18, 8, 17, 26, 25, 7, 21, 14, 3, 28, 1, 10, 19, 22, 12, 0, 14, 4, 26, 26, 16, 15, 13, 33, 23, 25, 27, 25, 21, 16, 23, 14, 22, 7, 25, 33, 25, 30, 15, 7, 20, 13, 25, 11
            |24, 29, 17, 23, 13, 20, 31, 36, 12, 13, 12, 9, 40, 31, 27, 28, 41, 32, 22, 30, 39, 37, 21, 35, 23, 17, 20, 13, 24, 31, 9, 21, 14, 0, 13, 38, 23, 24, 6, 18, 44, 11, 18, 36, 29, 8, 26, 37, 23, 34, 8, 19, 28, 27, 23, 28, 11, 33, 16, 24, 25
            |34, 24, 18, 31, 22, 26, 40, 24, 24, 19, 16, 12, 32, 27, 20, 30, 37, 19, 11, 17, 27, 29, 9, 24, 12, 5, 29, 4, 12, 19, 20, 10, 4, 13, 0, 26, 28, 13, 15, 10, 37, 23, 21, 31, 28, 19, 14, 25, 18, 25, 7, 21, 35, 28, 31, 16, 4, 20, 16, 28, 12
            |58, 36, 40, 55, 44, 44, 64, 2, 49, 39, 36, 34, 34, 38, 31, 50, 45, 11, 21, 10, 5, 30, 20, 19, 17, 23, 53, 27, 19, 7, 44, 18, 26, 38, 26, 0, 51, 16, 40, 23, 39, 49, 39, 39, 44, 43, 13, 16, 32, 28, 32, 37, 58, 46, 55, 11, 27, 7, 37, 49, 15
            |11, 21, 11, 7, 35, 42, 14, 48, 18, 36, 35, 32, 34, 21, 24, 7, 27, 40, 30, 40, 50, 34, 31, 38, 40, 29, 8, 25, 32, 45, 28, 38, 26, 23, 28, 51, 0, 42, 17, 38, 35, 17, 41, 26, 14, 28, 42, 42, 20, 31, 22, 42, 7, 10, 7, 39, 30, 44, 14, 3, 36
            |47, 33, 31, 45, 28, 28, 53, 15, 36, 23, 20, 18, 38, 36, 29, 43, 46, 16, 16, 14, 19, 34, 14, 25, 1, 14, 42, 17, 16, 10, 29, 4, 16, 24, 13, 16, 42, 0, 28, 7, 43, 35, 23, 40, 40, 28, 3, 24, 28, 30, 21, 21, 48, 40, 45, 12, 13, 14, 29, 41, 12
            |19, 25, 11, 18, 19, 25, 25, 38, 9, 19, 18, 15, 37, 27, 24, 22, 36, 32, 22, 31, 41, 35, 22, 34, 26, 18, 15, 13, 24, 34, 13, 24, 15, 6, 15, 40, 17, 28, 0, 22, 40, 9, 24, 32, 24, 12, 29, 37, 20, 31, 8, 25, 22, 22, 18, 30, 14, 34, 12, 18, 26
            |42, 33, 28, 40, 20, 21, 48, 22, 30, 16, 13, 11, 40, 36, 29, 40, 46, 22, 18, 19, 26, 36, 16, 29, 6, 13, 37, 14, 18, 17, 22, 5, 13, 18, 10, 23, 38, 7, 22, 0, 45, 29, 16, 40, 38, 21, 10, 29, 28, 33, 16, 15, 44, 38, 40, 17, 8, 20, 26, 37, 15
            |46, 16, 30, 42, 57, 62, 49, 37, 48, 55, 52, 48, 5, 14, 17, 29, 10, 29, 27, 31, 35, 9, 29, 20, 43, 32, 42, 33, 27, 37, 52, 41, 33, 44, 37, 39, 35, 43, 40, 45, 0, 47, 58, 9, 21, 51, 41, 23, 21, 13, 36, 58, 40, 25, 42, 32, 40, 34, 29, 32, 31
            |14, 31, 17, 14, 19, 26, 20, 47, 1, 21, 22, 20, 44, 33, 31, 23, 42, 41, 30, 40, 49, 42, 30, 43, 34, 26, 11, 22, 33, 42, 12, 32, 23, 11, 23, 49, 17, 35, 9, 29, 47, 0, 26, 38, 28, 12, 37, 45, 27, 39, 17, 28, 20, 25, 14, 38, 22, 43, 18, 19, 34
            |40, 44, 34, 40, 8, 5, 46, 38, 26, 5, 6, 10, 53, 47, 41, 45, 57, 38, 32, 35, 42, 50, 30, 44, 22, 27, 37, 25, 33, 33, 14, 21, 25, 18, 21, 39, 41, 23, 24, 16, 58, 26, 0, 52, 47, 14, 26, 45, 38, 46, 23, 3, 45, 45, 40, 33, 18, 36, 33, 41, 31
            |37, 8, 22, 33, 50, 55, 40, 37, 39, 48, 46, 42, 9, 5, 11, 20, 6, 28, 23, 30, 36, 11, 25, 21, 39, 27, 33, 27, 24, 36, 45, 37, 27, 36, 31, 39, 26, 40, 32, 40, 9, 38, 52, 0, 12, 44, 38, 24, 13, 11, 29, 52, 32, 16, 33, 30, 34, 33, 21, 23, 28
            |25, 9, 13, 21, 43, 49, 27, 42, 29, 42, 41, 37, 20, 8, 14, 8, 14, 33, 25, 34, 42, 21, 26, 28, 39, 26, 21, 24, 26, 40, 37, 37, 25, 29, 28, 44, 14, 40, 24, 38, 21, 28, 47, 12, 0, 36, 39, 32, 12, 20, 24, 47, 19, 4, 21, 34, 31, 38, 13, 11, 31
            |26, 36, 23, 26, 7, 14, 32, 42, 12, 9, 10, 10, 47, 39, 34, 33, 48, 38, 29, 36, 45, 45, 28, 42, 27, 24, 23, 20, 31, 37, 1, 25, 21, 8, 19, 43, 28, 28, 12, 21, 51, 12, 14, 44, 36, 0, 30, 44, 31, 41, 16, 16, 31, 34, 26, 34, 16, 39, 23, 29, 31
            |48, 32, 31, 45, 30, 31, 54, 12, 38, 26, 23, 21, 35, 35, 27, 43, 44, 13, 15, 11, 16, 31, 13, 22, 4, 14, 43, 17, 14, 7, 31, 5, 16, 26, 14, 13, 42, 3, 29, 10, 41, 37, 26, 38, 39, 30, 0, 21, 27, 28, 21, 24, 49, 40, 45, 9, 15, 11, 29, 41, 9
            |51, 23, 32, 48, 47, 50, 56, 15, 46, 43, 41, 37, 18, 25, 18, 39, 30, 8, 15, 11, 12, 14, 16, 4, 24, 20, 46, 24, 13, 16, 45, 24, 23, 37, 25, 16, 42, 24, 37, 29, 23, 45, 45, 24, 32, 44, 21, 0, 21, 13, 29, 44, 49, 35, 48, 12, 28, 12, 29, 39, 14
            |30, 6, 11, 26, 36, 42, 34, 30, 28, 35, 33, 28, 17, 9, 4, 18, 19, 21, 12, 22, 30, 15, 14, 18, 27, 14, 25, 14, 14, 27, 32, 25, 14, 23, 18, 32, 20, 28, 20, 28, 21, 27, 38, 13, 12, 31, 27, 21, 0, 12, 16, 39, 27, 14, 26, 21, 21, 25, 9, 18, 18
            |42, 11, 23, 38, 46, 50, 46, 26, 40, 44, 41, 37, 7, 12, 8, 27, 17, 17, 15, 19, 25, 4, 17, 9, 30, 20, 37, 22, 14, 25, 42, 29, 22, 34, 25, 28, 31, 30, 31, 33, 13, 39, 46, 11, 20, 41, 28, 13, 12, 0, 26, 46, 38, 23, 38, 20, 29, 22, 21, 29, 19
            |26, 21, 12, 24, 21, 26, 32, 30, 17, 19, 17, 13, 32, 24, 19, 24, 34, 24, 14, 23, 33, 29, 14, 27, 19, 10, 22, 5, 16, 26, 17, 17, 7, 8, 7, 32, 22, 21, 8, 16, 36, 17, 23, 29, 24, 16, 21, 29, 16, 26, 0, 24, 28, 23, 24, 21, 8, 26, 10, 21, 18
            |42, 44, 35, 42, 11, 7, 49, 36, 28, 7, 7, 11, 53, 47, 41, 47, 57, 36, 31, 34, 40, 50, 29, 43, 20, 26, 39, 25, 32, 31, 17, 20, 25, 19, 21, 37, 42, 21, 25, 15, 58, 28, 3, 52, 47, 16, 24, 44, 39, 46, 24, 0, 47, 46, 42, 32, 18, 35, 34, 43, 30
            |8, 27, 18, 5, 39, 46, 8, 55, 20, 40, 40, 37, 40, 27, 31, 11, 32, 47, 37, 48, 57, 40, 38, 45, 47, 36, 8, 32, 39, 52, 32, 45, 33, 28, 35, 58, 7, 48, 22, 44, 40, 20, 45, 32, 19, 31, 49, 49, 27, 38, 28, 47, 0, 16, 5, 46, 36, 51, 21, 9, 43
            |21, 12, 11, 17, 40, 47, 24, 44, 26, 40, 39, 35, 24, 12, 16, 4, 17, 35, 26, 36, 44, 25, 27, 31, 39, 26, 17, 24, 27, 41, 34, 37, 25, 27, 28, 46, 10, 40, 22, 38, 25, 25, 45, 16, 4, 34, 40, 35, 14, 23, 23, 46, 16, 0, 17, 35, 30, 39, 12, 7, 32
            |4, 28, 16, 0, 33, 40, 8, 53, 15, 35, 35, 32, 40, 28, 30, 13, 34, 45, 35, 45, 55, 40, 35, 44, 43, 33, 3, 29, 37, 49, 26, 41, 30, 23, 31, 55, 7, 45, 18, 40, 42, 14, 40, 33, 21, 26, 45, 48, 26, 38, 24, 42, 5, 17, 0, 44, 32, 49, 19, 10, 40
            |47, 25, 28, 44, 36, 38, 52, 9, 39, 32, 29, 26, 27, 28, 20, 38, 36, 4, 9, 2, 11, 22, 8, 13, 12, 12, 42, 16, 8, 6, 35, 12, 15, 28, 16, 11, 39, 12, 30, 17, 32, 38, 33, 30, 34, 34, 9, 12, 21, 20, 21, 32, 46, 35, 44, 0, 18, 5, 26, 37, 4
            |34, 27, 20, 32, 18, 22, 40, 26, 23, 15, 13, 9, 35, 30, 23, 32, 40, 22, 14, 20, 29, 32, 13, 27, 12, 9, 29, 7, 16, 21, 17, 10, 7, 11, 4, 27, 30, 13, 14, 8, 40, 22, 18, 34, 31, 16, 15, 28, 21, 29, 8, 18, 36, 30, 32, 18, 0, 23, 18, 29, 15
            |52, 29, 33, 49, 40, 41, 57, 4, 44, 36, 33, 30, 28, 32, 24, 43, 39, 5, 14, 4, 6, 24, 13, 14, 15, 17, 47, 21, 12, 4, 40, 15, 20, 33, 20, 7, 44, 14, 34, 20, 34, 43, 36, 33, 38, 39, 11, 12, 25, 22, 26, 35, 51, 39, 49, 5, 23, 0, 30, 42, 9
            |22, 13, 3, 19, 30, 36, 27, 35, 19, 29, 27, 23, 25, 15, 13, 14, 25, 27, 16, 27, 36, 24, 17, 26, 28, 15, 17, 12, 18, 31, 24, 25, 13, 16, 16, 37, 14, 29, 12, 26, 29, 18, 33, 21, 13, 23, 29, 29, 9, 21, 10, 34, 21, 12, 19, 26, 18, 30, 0, 12, 22
            |14, 18, 9, 10, 36, 43, 17, 47, 20, 37, 36, 32, 31, 18, 21, 4, 25, 38, 28, 39, 48, 31, 29, 36, 40, 27, 10, 24, 30, 43, 30, 37, 25, 24, 28, 49, 3, 41, 18, 37, 32, 19, 41, 23, 11, 29, 41, 39, 18, 29, 21, 43, 9, 7, 10, 37, 29, 42, 12, 0, 34
            |43, 23, 25, 40, 33, 36, 49, 13, 35, 30, 27, 23, 26, 26, 18, 35, 35, 7, 6, 5, 15, 22, 5, 14, 11, 8, 38, 13, 5, 9, 32, 11, 11, 25, 12, 15, 36, 12, 26, 15, 31, 34, 31, 28, 31, 31, 9, 14, 18, 19, 18, 30, 43, 32, 40, 4, 15, 9, 22, 34, 0|];