% n60w140.003    39.80 690
n = 61;
duration = [|0, 21, 27, 13, 20, 28, 17, 24, 25, 25, 22, 22, 21, 16, 17, 14, 16, 15, 6, 22, 23, 23, 21, 23, 19, 25, 26, 11, 7, 20, 17, 18, 12, 9, 19, 9, 34, 32, 23, 17, 5, 27, 28, 13, 20, 6, 24, 21, 32, 13, 15, 37, 11, 20, 25, 18, 23, 13, 27, 27, 21
            |21, 0, 23, 16, 19, 50, 11, 18, 46, 35, 20, 37, 42, 18, 31, 20, 21, 33, 18, 21, 35, 27, 40, 27, 36, 35, 43, 18, 28, 31, 39, 19, 9, 24, 39, 30, 45, 47, 41, 30, 17, 20, 48, 26, 40, 27, 45, 40, 16, 13, 33, 48, 25, 34, 39, 6, 41, 29, 15, 33, 42
            |27, 23, 0, 32, 39, 50, 13, 5, 43, 19, 41, 49, 41, 36, 44, 14, 38, 42, 21, 5, 49, 46, 48, 9, 46, 18, 32, 16, 29, 17, 37, 38, 21, 22, 33, 30, 27, 33, 31, 43, 27, 4, 39, 19, 47, 32, 48, 48, 16, 16, 42, 30, 20, 47, 26, 18, 50, 40, 10, 51, 40
            |13, 16, 32, 0, 8, 38, 19, 28, 36, 36, 10, 21, 31, 4, 15, 22, 6, 18, 15, 28, 19, 13, 26, 31, 21, 36, 39, 19, 19, 31, 29, 6, 11, 20, 32, 21, 46, 44, 36, 14, 8, 30, 41, 24, 25, 16, 32, 25, 31, 16, 19, 49, 22, 18, 37, 16, 26, 14, 28, 19, 32
            |20, 19, 39, 8, 0, 42, 26, 34, 42, 44, 2, 21, 37, 4, 16, 30, 5, 21, 23, 35, 18, 9, 29, 39, 23, 44, 46, 26, 27, 39, 35, 2, 18, 28, 39, 28, 53, 52, 43, 15, 16, 37, 48, 32, 28, 23, 36, 27, 35, 23, 22, 56, 30, 18, 45, 22, 28, 17, 33, 14, 38
            |28, 50, 50, 38, 42, 0, 45, 48, 9, 36, 44, 26, 9, 39, 28, 37, 37, 22, 33, 45, 31, 39, 16, 42, 21, 37, 25, 36, 23, 35, 13, 40, 40, 29, 19, 21, 39, 30, 23, 29, 33, 51, 18, 31, 15, 23, 7, 18, 59, 40, 21, 40, 30, 28, 30, 46, 18, 25, 54, 40, 10
            |17, 11, 13, 19, 26, 45, 0, 9, 39, 25, 27, 38, 36, 23, 32, 10, 25, 32, 12, 10, 37, 33, 38, 16, 36, 24, 33, 9, 22, 20, 32, 25, 8, 16, 30, 23, 34, 37, 32, 31, 16, 11, 39, 16, 38, 23, 41, 38, 15, 5, 32, 37, 16, 35, 29, 5, 40, 29, 10, 38, 36
            |24, 18, 5, 28, 34, 48, 9, 0, 42, 21, 36, 45, 40, 31, 40, 11, 34, 39, 18, 4, 45, 41, 45, 11, 43, 20, 33, 13, 26, 18, 35, 34, 16, 19, 32, 27, 30, 35, 32, 39, 23, 3, 39, 18, 44, 29, 46, 45, 13, 12, 39, 33, 18, 43, 27, 13, 47, 36, 7, 47, 39
            |25, 46, 43, 36, 42, 9, 39, 42, 0, 28, 44, 30, 5, 38, 30, 30, 37, 24, 28, 38, 34, 41, 20, 34, 25, 29, 16, 30, 18, 26, 7, 40, 36, 23, 10, 16, 30, 21, 14, 31, 30, 45, 10, 24, 19, 20, 13, 22, 54, 34, 23, 31, 23, 31, 21, 41, 23, 26, 48, 43, 4
            |25, 35, 19, 36, 44, 36, 25, 21, 28, 0, 46, 45, 28, 40, 42, 15, 41, 37, 21, 17, 47, 48, 39, 10, 41, 1, 13, 18, 22, 5, 24, 42, 28, 16, 17, 21, 10, 14, 14, 41, 28, 23, 21, 12, 38, 26, 37, 41, 35, 23, 37, 13, 14, 44, 7, 29, 43, 37, 28, 52, 26
            |22, 20, 41, 10, 2, 44, 27, 36, 44, 46, 0, 22, 39, 7, 17, 32, 7, 23, 25, 37, 18, 9, 30, 41, 25, 46, 48, 28, 29, 41, 37, 4, 20, 30, 41, 31, 56, 54, 46, 16, 18, 38, 50, 34, 30, 25, 38, 29, 36, 25, 24, 59, 32, 19, 47, 23, 30, 19, 35, 14, 40
            |22, 37, 49, 21, 21, 26, 38, 45, 30, 45, 22, 0, 24, 20, 6, 36, 17, 8, 28, 44, 5, 15, 10, 44, 5, 46, 41, 33, 23, 41, 25, 20, 30, 30, 32, 24, 52, 47, 38, 7, 22, 48, 38, 34, 11, 19, 19, 8, 51, 33, 8, 55, 32, 4, 43, 36, 8, 9, 48, 14, 26
            |21, 42, 41, 31, 37, 9, 36, 40, 5, 28, 39, 24, 0, 33, 25, 28, 32, 18, 24, 37, 29, 35, 15, 33, 19, 29, 19, 28, 14, 26, 4, 35, 33, 21, 11, 13, 32, 25, 16, 25, 25, 43, 14, 22, 14, 16, 9, 17, 51, 31, 17, 34, 21, 26, 23, 38, 18, 21, 45, 37, 2
            |16, 18, 36, 4, 4, 39, 23, 31, 38, 40, 7, 20, 33, 0, 14, 26, 3, 18, 18, 31, 17, 10, 26, 35, 21, 40, 42, 22, 22, 35, 31, 3, 15, 24, 34, 24, 49, 47, 39, 13, 11, 34, 43, 28, 25, 18, 33, 25, 33, 20, 19, 52, 26, 16, 40, 19, 26, 14, 31, 16, 34
            |17, 31, 44, 15, 16, 28, 32, 40, 30, 42, 17, 6, 25, 14, 0, 31, 11, 6, 23, 39, 5, 11, 13, 40, 7, 42, 39, 28, 20, 37, 25, 14, 25, 26, 30, 21, 50, 45, 36, 1, 17, 43, 38, 30, 13, 15, 21, 11, 46, 28, 7, 52, 28, 3, 40, 30, 12, 5, 42, 13, 26
            |14, 20, 14, 22, 30, 37, 10, 11, 30, 15, 32, 36, 28, 26, 31, 0, 28, 29, 8, 9, 37, 35, 34, 9, 33, 15, 23, 4, 15, 10, 24, 29, 13, 8, 21, 16, 25, 27, 22, 31, 15, 14, 29, 7, 33, 18, 35, 35, 23, 8, 29, 28, 7, 34, 19, 14, 36, 27, 17, 40, 28
            |16, 21, 38, 6, 5, 37, 25, 34, 37, 41, 7, 17, 32, 3, 11, 28, 0, 16, 20, 34, 14, 7, 24, 37, 18, 41, 42, 24, 22, 36, 31, 3, 17, 25, 35, 24, 50, 48, 39, 10, 13, 36, 43, 29, 23, 18, 31, 22, 36, 22, 17, 53, 27, 13, 41, 22, 23, 12, 34, 13, 33
            |15, 33, 42, 18, 21, 22, 32, 39, 24, 37, 23, 8, 18, 18, 6, 29, 16, 0, 21, 37, 11, 17, 8, 37, 4, 38, 33, 26, 16, 33, 19, 19, 25, 22, 25, 17, 45, 40, 30, 7, 17, 42, 32, 26, 8, 11, 15, 7, 46, 27, 1, 47, 24, 8, 35, 31, 9, 4, 42, 19, 20
            |6, 18, 21, 15, 23, 33, 12, 18, 28, 21, 25, 28, 24, 18, 23, 8, 20, 21, 0, 16, 28, 27, 27, 17, 25, 21, 25, 5, 10, 16, 21, 21, 9, 6, 20, 12, 31, 30, 23, 22, 7, 21, 29, 9, 26, 11, 29, 27, 27, 7, 21, 34, 8, 26, 23, 13, 29, 19, 22, 32, 24
            |22, 21, 5, 28, 35, 45, 10, 4, 38, 17, 37, 44, 37, 31, 39, 9, 34, 37, 16, 0, 44, 41, 42, 7, 41, 16, 29, 11, 24, 14, 32, 34, 17, 17, 28, 25, 26, 31, 28, 38, 22, 6, 36, 14, 41, 27, 43, 43, 17, 12, 37, 29, 15, 42, 23, 15, 45, 35, 11, 47, 36
            |23, 35, 49, 19, 18, 31, 37, 45, 34, 47, 18, 5, 29, 17, 5, 37, 14, 11, 28, 44, 0, 10, 15, 45, 9, 47, 44, 33, 26, 43, 29, 16, 29, 31, 35, 27, 55, 50, 41, 6, 22, 48, 42, 35, 16, 21, 24, 13, 50, 33, 11, 57, 33, 3, 45, 35, 13, 10, 47, 9, 31
            |23, 27, 46, 13, 9, 39, 33, 41, 41, 48, 9, 15, 35, 10, 11, 35, 7, 17, 27, 41, 10, 0, 24, 44, 18, 48, 47, 31, 28, 43, 35, 8, 25, 31, 39, 29, 57, 54, 45, 10, 20, 44, 47, 36, 24, 23, 32, 22, 43, 29, 18, 59, 33, 11, 47, 29, 23, 15, 41, 6, 37
            |21, 40, 48, 26, 29, 16, 38, 45, 20, 39, 30, 10, 15, 26, 13, 34, 24, 8, 27, 42, 15, 24, 0, 41, 6, 40, 33, 32, 19, 36, 17, 27, 32, 26, 24, 19, 46, 39, 30, 14, 24, 48, 29, 30, 1, 16, 8, 2, 53, 34, 7, 48, 28, 13, 36, 38, 4, 12, 48, 24, 17
            |23, 27, 9, 31, 39, 42, 16, 11, 34, 10, 41, 44, 33, 35, 40, 9, 37, 37, 17, 7, 45, 44, 41, 0, 41, 9, 22, 13, 22, 8, 29, 37, 21, 15, 24, 22, 19, 24, 22, 39, 24, 13, 30, 11, 40, 26, 41, 42, 24, 16, 37, 22, 13, 43, 17, 21, 44, 36, 18, 49, 32
            |19, 36, 46, 21, 23, 21, 36, 43, 25, 41, 25, 5, 19, 21, 7, 33, 18, 4, 25, 41, 9, 18, 6, 41, 0, 41, 36, 30, 19, 37, 21, 21, 29, 26, 27, 20, 48, 42, 33, 9, 21, 46, 33, 30, 6, 15, 14, 4, 50, 31, 4, 50, 28, 7, 38, 35, 5, 7, 46, 18, 21
            |25, 35, 18, 36, 44, 37, 24, 20, 29, 1, 46, 46, 29, 40, 42, 15, 41, 38, 21, 16, 47, 48, 40, 9, 41, 0, 15, 18, 22, 5, 25, 42, 28, 17, 19, 22, 10, 15, 15, 42, 28, 22, 23, 12, 39, 27, 38, 42, 33, 22, 38, 14, 14, 45, 8, 28, 44, 37, 27, 53, 28
            |26, 43, 32, 39, 46, 25, 33, 33, 16, 13, 48, 41, 19, 42, 39, 23, 42, 33, 25, 29, 44, 47, 33, 22, 36, 15, 0, 25, 20, 15, 16, 44, 34, 19, 9, 18, 14, 6, 3, 39, 31, 35, 8, 17, 32, 24, 28, 34, 46, 30, 33, 15, 18, 41, 6, 37, 36, 34, 40, 51, 16
            |11, 18, 16, 19, 26, 36, 9, 13, 30, 18, 28, 33, 28, 22, 28, 4, 24, 26, 5, 11, 33, 31, 32, 13, 30, 18, 25, 0, 14, 13, 23, 25, 10, 7, 22, 15, 28, 29, 23, 27, 12, 16, 30, 8, 31, 16, 33, 32, 23, 5, 26, 31, 7, 31, 21, 12, 34, 24, 18, 37, 27
            |7, 28, 29, 19, 27, 23, 22, 26, 18, 22, 29, 23, 14, 22, 20, 15, 22, 16, 10, 24, 26, 28, 19, 22, 19, 22, 20, 14, 0, 17, 11, 25, 18, 7, 12, 2, 29, 26, 17, 20, 12, 30, 21, 11, 18, 5, 20, 20, 37, 17, 16, 32, 9, 23, 20, 23, 22, 15, 31, 32, 14
            |20, 31, 17, 31, 39, 35, 20, 18, 26, 5, 41, 41, 26, 35, 37, 10, 36, 33, 16, 14, 43, 43, 36, 8, 37, 5, 15, 13, 17, 0, 22, 37, 23, 12, 16, 17, 15, 17, 14, 37, 23, 20, 22, 7, 35, 22, 35, 37, 31, 18, 33, 18, 9, 40, 9, 25, 39, 32, 25, 48, 25
            |17, 39, 37, 29, 35, 13, 32, 35, 7, 24, 37, 25, 4, 31, 25, 24, 31, 19, 21, 32, 29, 35, 17, 29, 21, 25, 16, 23, 11, 22, 0, 33, 29, 16, 7, 9, 29, 22, 13, 25, 22, 38, 13, 18, 16, 13, 13, 19, 47, 27, 18, 31, 17, 26, 19, 34, 21, 20, 41, 37, 4
            |18, 19, 38, 6, 2, 40, 25, 34, 40, 42, 4, 20, 35, 3, 14, 29, 3, 19, 21, 34, 16, 8, 27, 37, 21, 42, 44, 25, 25, 37, 33, 0, 17, 26, 37, 27, 52, 50, 42, 13, 14, 36, 46, 30, 27, 21, 34, 25, 35, 22, 20, 55, 28, 16, 43, 21, 26, 16, 33, 14, 36
            |12, 9, 21, 11, 18, 40, 8, 16, 36, 28, 20, 30, 33, 15, 25, 13, 17, 25, 9, 17, 29, 25, 32, 21, 29, 28, 34, 10, 18, 23, 29, 17, 0, 15, 29, 20, 38, 39, 32, 24, 9, 19, 38, 17, 31, 18, 36, 32, 21, 6, 26, 41, 16, 28, 31, 6, 34, 22, 17, 30, 33
            |9, 24, 22, 20, 28, 29, 16, 19, 23, 16, 30, 30, 21, 24, 26, 8, 25, 22, 6, 17, 31, 31, 26, 15, 26, 17, 19, 7, 7, 12, 16, 26, 15, 0, 15, 8, 25, 24, 17, 25, 12, 22, 23, 4, 25, 11, 27, 27, 31, 12, 22, 28, 2, 28, 17, 19, 29, 21, 25, 36, 20
            |19, 39, 33, 32, 39, 19, 30, 32, 10, 17, 41, 32, 11, 34, 30, 21, 35, 25, 20, 28, 35, 39, 24, 24, 27, 19, 9, 22, 12, 16, 7, 37, 29, 15, 0, 10, 22, 15, 6, 31, 24, 35, 9, 14, 23, 17, 20, 26, 44, 26, 24, 23, 14, 33, 12, 33, 28, 26, 38, 43, 9
            |9, 30, 30, 21, 28, 21, 23, 27, 16, 21, 31, 24, 13, 24, 21, 16, 24, 17, 12, 25, 27, 29, 19, 22, 20, 22, 18, 15, 2, 17, 9, 27, 20, 8, 10, 0, 28, 24, 15, 21, 14, 31, 19, 11, 18, 6, 19, 20, 38, 19, 16, 31, 9, 24, 19, 25, 22, 16, 33, 33, 13
            |34, 45, 27, 46, 53, 39, 34, 30, 30, 10, 56, 52, 32, 49, 50, 25, 50, 45, 31, 26, 55, 57, 46, 19, 48, 10, 14, 28, 29, 15, 29, 52, 38, 25, 22, 28, 0, 10, 16, 49, 38, 31, 21, 21, 45, 34, 42, 47, 43, 33, 44, 3, 23, 52, 10, 39, 49, 45, 37, 61, 30
            |32, 47, 33, 44, 52, 30, 37, 35, 21, 14, 54, 47, 25, 47, 45, 27, 48, 40, 30, 31, 50, 54, 39, 24, 42, 15, 6, 29, 26, 17, 22, 50, 39, 24, 15, 24, 10, 0, 9, 45, 36, 37, 12, 21, 38, 31, 34, 41, 48, 34, 39, 10, 23, 47, 8, 41, 43, 40, 42, 57, 22
            |23, 41, 31, 36, 43, 23, 32, 32, 14, 14, 46, 38, 16, 39, 36, 22, 39, 30, 23, 28, 41, 45, 30, 22, 33, 15, 3, 23, 17, 14, 13, 42, 32, 17, 6, 15, 16, 9, 0, 36, 28, 34, 8, 15, 29, 22, 25, 32, 45, 28, 30, 18, 16, 38, 7, 35, 34, 31, 38, 48, 14
            |17, 30, 43, 14, 15, 29, 31, 39, 31, 41, 16, 7, 25, 13, 1, 31, 10, 7, 22, 38, 6, 10, 14, 39, 9, 42, 39, 27, 20, 37, 25, 13, 24, 25, 31, 21, 49, 45, 36, 0, 16, 42, 38, 30, 14, 15, 22, 13, 44, 27, 8, 52, 27, 4, 40, 29, 13, 5, 41, 12, 27
            |5, 17, 27, 8, 16, 33, 16, 23, 30, 28, 18, 22, 25, 11, 17, 15, 13, 17, 7, 22, 22, 20, 24, 24, 21, 28, 31, 12, 12, 23, 22, 14, 9, 12, 24, 14, 38, 36, 28, 16, 0, 26, 33, 16, 23, 10, 28, 23, 30, 11, 17, 41, 14, 20, 29, 14, 25, 14, 25, 25, 26
            |27, 20, 4, 30, 37, 51, 11, 3, 45, 23, 38, 48, 43, 34, 43, 14, 36, 42, 21, 6, 48, 44, 48, 13, 46, 22, 35, 16, 30, 20, 38, 36, 19, 22, 35, 31, 31, 37, 34, 42, 26, 0, 42, 21, 47, 32, 49, 48, 12, 15, 42, 34, 21, 46, 29, 15, 50, 39, 6, 50, 42
            |28, 48, 39, 41, 48, 18, 39, 39, 10, 21, 50, 38, 14, 43, 38, 29, 43, 32, 29, 36, 42, 47, 29, 30, 33, 23, 8, 30, 21, 22, 13, 46, 38, 23, 9, 19, 21, 12, 8, 38, 33, 42, 0, 22, 28, 25, 23, 31, 52, 35, 31, 22, 23, 39, 14, 42, 33, 33, 46, 50, 12
            |13, 26, 19, 24, 32, 31, 16, 18, 24, 12, 34, 34, 22, 28, 30, 7, 29, 26, 9, 14, 35, 36, 30, 11, 30, 12, 17, 8, 11, 7, 18, 30, 17, 4, 14, 11, 21, 21, 15, 30, 16, 21, 22, 0, 29, 15, 30, 31, 30, 13, 26, 24, 2, 33, 14, 20, 33, 25, 24, 40, 21
            |20, 40, 47, 25, 28, 15, 38, 44, 19, 38, 30, 11, 14, 25, 13, 33, 23, 8, 26, 41, 16, 24, 1, 40, 6, 39, 32, 31, 18, 35, 16, 27, 31, 25, 23, 18, 45, 38, 29, 14, 23, 47, 28, 29, 0, 15, 8, 3, 52, 33, 7, 47, 27, 13, 35, 37, 4, 11, 47, 25, 16
            |6, 27, 32, 16, 23, 23, 23, 29, 20, 26, 25, 19, 16, 18, 15, 18, 18, 11, 11, 27, 21, 23, 16, 26, 15, 27, 24, 16, 5, 22, 13, 21, 18, 11, 17, 6, 34, 31, 22, 15, 10, 32, 25, 15, 15, 0, 18, 16, 38, 18, 11, 37, 13, 18, 25, 23, 18, 10, 33, 27, 16
            |24, 45, 48, 32, 36, 7, 41, 46, 13, 37, 38, 19, 9, 33, 21, 35, 31, 15, 29, 43, 24, 32, 8, 41, 14, 38, 28, 33, 20, 35, 13, 34, 36, 27, 20, 19, 42, 34, 25, 22, 28, 49, 23, 30, 8, 18, 0, 10, 56, 36, 14, 43, 28, 21, 32, 42, 11, 18, 51, 33, 11
            |21, 40, 48, 25, 27, 18, 38, 45, 22, 41, 29, 8, 17, 25, 11, 35, 22, 7, 27, 43, 13, 22, 2, 42, 4, 42, 34, 32, 20, 37, 19, 25, 32, 27, 26, 20, 47, 41, 32, 13, 23, 48, 31, 31, 3, 16, 10, 0, 53, 34, 6, 49, 29, 11, 37, 38, 2, 11, 48, 22, 19
            |32, 16, 16, 31, 35, 59, 15, 13, 54, 35, 36, 51, 51, 33, 46, 23, 36, 46, 27, 17, 50, 43, 53, 24, 50, 33, 46, 23, 37, 31, 47, 35, 21, 31, 44, 38, 43, 48, 45, 44, 30, 12, 52, 30, 52, 38, 56, 53, 0, 20, 47, 46, 30, 48, 41, 15, 55, 43, 6, 49, 50
            |13, 13, 16, 16, 23, 40, 5, 12, 34, 23, 25, 33, 31, 20, 28, 8, 22, 27, 7, 12, 33, 29, 34, 16, 31, 22, 30, 5, 17, 18, 27, 22, 6, 12, 26, 19, 33, 34, 28, 27, 11, 15, 35, 13, 33, 18, 36, 34, 20, 0, 28, 36, 12, 31, 26, 7, 35, 25, 15, 35, 31
            |15, 33, 42, 19, 22, 21, 32, 39, 23, 37, 24, 8, 17, 19, 7, 29, 17, 1, 21, 37, 11, 18, 7, 37, 4, 38, 33, 26, 16, 33, 18, 20, 26, 22, 24, 16, 44, 39, 30, 8, 17, 42, 31, 26, 7, 11, 14, 6, 47, 28, 0, 47, 24, 9, 34, 31, 8, 4, 42, 20, 19
            |37, 48, 30, 49, 56, 40, 37, 33, 31, 13, 59, 55, 34, 52, 52, 28, 53, 47, 34, 29, 57, 59, 48, 22, 50, 14, 15, 31, 32, 18, 31, 55, 41, 28, 23, 31, 3, 10, 18, 52, 41, 34, 22, 24, 47, 37, 43, 49, 46, 36, 47, 0, 26, 55, 12, 42, 51, 47, 40, 64, 32
            |11, 25, 20, 22, 30, 30, 16, 18, 23, 14, 32, 32, 21, 26, 28, 7, 27, 24, 8, 15, 33, 33, 28, 13, 28, 14, 18, 7, 9, 9, 17, 28, 16, 2, 14, 9, 23, 23, 16, 27, 14, 21, 23, 2, 27, 13, 28, 29, 30, 12, 24, 26, 0, 31, 15, 19, 31, 23, 24, 38, 21
            |20, 34, 47, 18, 18, 28, 35, 43, 31, 44, 19, 4, 26, 16, 3, 34, 13, 8, 26, 42, 3, 11, 13, 43, 7, 45, 41, 31, 23, 40, 26, 16, 28, 28, 33, 24, 52, 47, 38, 4, 20, 46, 39, 33, 13, 18, 21, 11, 48, 31, 9, 55, 31, 0, 42, 33, 11, 8, 45, 11, 28
            |25, 39, 26, 37, 45, 30, 29, 27, 21, 7, 47, 43, 23, 40, 40, 19, 41, 35, 23, 23, 45, 47, 36, 17, 38, 8, 6, 21, 20, 9, 19, 43, 31, 17, 12, 19, 10, 8, 7, 40, 29, 29, 14, 14, 35, 25, 32, 37, 41, 26, 34, 12, 15, 42, 0, 33, 39, 35, 34, 52, 21
            |18, 6, 18, 16, 22, 46, 5, 13, 41, 29, 23, 36, 38, 19, 30, 14, 22, 31, 13, 15, 35, 29, 38, 21, 35, 28, 37, 12, 23, 25, 34, 21, 6, 19, 33, 25, 39, 41, 35, 29, 14, 15, 42, 20, 37, 23, 42, 38, 15, 7, 31, 42, 19, 33, 33, 0, 39, 28, 12, 35, 38
            |23, 41, 50, 26, 28, 18, 40, 47, 23, 43, 30, 8, 18, 26, 12, 36, 23, 9, 29, 45, 13, 23, 4, 44, 5, 44, 36, 34, 22, 39, 21, 26, 34, 29, 28, 22, 49, 43, 34, 13, 25, 50, 33, 33, 4, 18, 11, 2, 55, 35, 8, 51, 31, 11, 39, 39, 0, 12, 50, 22, 21
            |13, 29, 40, 14, 17, 25, 29, 36, 26, 37, 19, 9, 21, 14, 5, 27, 12, 4, 19, 35, 10, 15, 12, 36, 7, 37, 34, 24, 15, 32, 20, 16, 22, 21, 26, 16, 45, 40, 31, 5, 14, 39, 33, 25, 11, 10, 18, 11, 43, 25, 4, 47, 23, 8, 35, 28, 12, 0, 39, 17, 22
            |27, 15, 10, 28, 33, 54, 10, 7, 48, 28, 35, 48, 45, 31, 42, 17, 34, 42, 22, 11, 47, 41, 48, 18, 46, 27, 40, 18, 31, 25, 41, 33, 17, 25, 38, 33, 37, 42, 38, 41, 25, 6, 46, 24, 47, 33, 51, 48, 6, 15, 42, 40, 24, 45, 34, 12, 50, 39, 0, 47, 45
            |27, 33, 51, 19, 14, 40, 38, 47, 43, 52, 14, 14, 37, 16, 13, 40, 13, 19, 32, 47, 9, 6, 24, 49, 18, 53, 51, 37, 32, 48, 37, 14, 30, 36, 43, 33, 61, 57, 48, 12, 25, 50, 50, 40, 25, 27, 33, 22, 49, 35, 20, 64, 38, 11, 52, 35, 22, 17, 47, 0, 39
            |21, 42, 40, 32, 38, 10, 36, 39, 4, 26, 40, 26, 2, 34, 26, 28, 33, 20, 24, 36, 31, 37, 17, 32, 21, 28, 16, 27, 14, 25, 4, 36, 33, 20, 9, 13, 30, 22, 14, 27, 26, 42, 12, 21, 16, 16, 11, 19, 50, 31, 19, 32, 21, 28, 21, 38, 21, 22, 45, 39, 0|];
early = [0, 0, 42, 339, 325, 217, 31, 33, 210, 81, 430, 282, 226, 343, 282, 0, 340, 253, 0, 45, 302, 338, 400, 603, 354, 171, 121, 92, 0, 72, 256, 326, 0, 0, 18, 194, 189, 141, 92, 303, 0, 28, 142, 0, 267, 0, 460, 276, 519, 15, 303, 156, 0, 285, 109, 0, 281, 286, 48, 354, 549];
late = [769, 126, 196, 473, 479, 365, 171, 163, 365, 220, 575, 426, 341, 471, 431, 98, 468, 396, 84, 182, 473, 452, 551, 746, 392, 302, 259, 199, 123, 235, 364, 461, 130, 67, 268, 348, 326, 300, 255, 439, 141, 184, 272, 84, 383, 125, 584, 416, 637, 176, 428, 294, 114, 443, 232, 149, 414, 433, 198, 492, 691];