% n60w200.001    93.73 582
n = 61;
duration = [|0, 1, 19, 17, 25, 22, 3, 32, 36, 19, 17, 24, 19, 25, 16, 34, 34, 1, 26, 8, 27, 40, 28, 43, 31, 11, 26, 16, 37, 22, 33, 41, 12, 8, 33, 22, 6, 20, 24, 18, 45, 38, 26, 4, 41, 32, 27, 15, 40, 27, 9, 6, 19, 17, 38, 20, 19, 3, 20, 21, 20
            |1, 0, 18, 16, 26, 23, 4, 32, 36, 18, 17, 24, 19, 25, 15, 35, 34, 1, 27, 7, 28, 41, 27, 44, 30, 12, 26, 17, 37, 22, 34, 41, 11, 7, 34, 23, 6, 21, 24, 18, 46, 38, 26, 5, 42, 32, 27, 15, 41, 26, 10, 5, 18, 18, 38, 19, 20, 3, 20, 22, 21
            |19, 18, 0, 7, 41, 19, 20, 17, 22, 21, 34, 11, 21, 8, 20, 35, 19, 20, 29, 13, 29, 41, 10, 40, 12, 29, 16, 31, 28, 9, 36, 24, 9, 21, 25, 37, 13, 15, 12, 22, 40, 23, 8, 23, 40, 23, 14, 5, 34, 9, 27, 13, 7, 30, 28, 25, 25, 21, 13, 38, 35
            |17, 16, 7, 0, 42, 25, 19, 24, 29, 14, 34, 18, 25, 9, 13, 40, 26, 18, 34, 10, 34, 47, 11, 46, 16, 28, 23, 32, 35, 16, 41, 31, 5, 17, 32, 38, 13, 21, 19, 26, 47, 30, 11, 21, 47, 30, 21, 10, 41, 11, 26, 12, 1, 32, 35, 18, 29, 19, 19, 38, 36
            |25, 26, 41, 42, 0, 31, 23, 47, 49, 44, 10, 40, 24, 49, 41, 29, 49, 25, 24, 33, 25, 33, 51, 40, 52, 16, 38, 10, 44, 39, 25, 56, 37, 31, 40, 4, 29, 33, 39, 22, 44, 51, 49, 23, 35, 40, 42, 36, 42, 50, 17, 30, 43, 11, 45, 43, 20, 25, 34, 5, 6
            |22, 23, 19, 25, 31, 0, 21, 16, 18, 36, 29, 11, 7, 26, 34, 16, 18, 23, 11, 23, 11, 22, 27, 22, 26, 27, 7, 22, 15, 11, 18, 25, 23, 30, 11, 27, 18, 4, 9, 9, 23, 20, 24, 26, 22, 10, 12, 15, 18, 26, 25, 19, 25, 20, 16, 39, 11, 25, 6, 30, 26
            |3, 4, 20, 19, 23, 21, 0, 32, 35, 22, 14, 24, 16, 27, 19, 31, 34, 4, 23, 10, 24, 37, 29, 40, 32, 9, 25, 13, 36, 22, 30, 41, 14, 11, 32, 19, 7, 19, 23, 15, 43, 37, 28, 5, 38, 30, 26, 15, 38, 28, 7, 7, 21, 14, 36, 23, 16, 5, 19, 19, 17
            |32, 32, 17, 24, 47, 16, 32, 0, 4, 38, 43, 8, 23, 20, 37, 29, 2, 33, 27, 29, 26, 33, 19, 29, 16, 40, 9, 38, 14, 10, 32, 9, 26, 37, 13, 43, 26, 14, 9, 25, 28, 6, 16, 36, 32, 11, 5, 18, 22, 18, 38, 27, 24, 36, 14, 42, 28, 35, 13, 46, 42
            |36, 36, 22, 29, 49, 18, 35, 4, 0, 43, 46, 12, 25, 24, 41, 29, 3, 37, 28, 33, 27, 32, 23, 27, 19, 43, 11, 40, 11, 14, 32, 7, 30, 41, 12, 45, 30, 17, 12, 27, 25, 2, 21, 40, 31, 10, 9, 22, 20, 23, 41, 31, 28, 38, 11, 47, 29, 39, 16, 48, 44
            |19, 18, 21, 14, 44, 36, 22, 38, 43, 0, 34, 31, 35, 21, 3, 51, 40, 19, 43, 13, 44, 57, 23, 58, 28, 28, 36, 35, 48, 30, 51, 44, 13, 13, 45, 41, 19, 33, 32, 35, 59, 44, 24, 21, 57, 43, 34, 22, 54, 23, 27, 18, 15, 36, 49, 5, 37, 19, 31, 39, 39
            |17, 17, 34, 34, 10, 29, 14, 43, 46, 34, 0, 36, 22, 41, 31, 32, 45, 16, 25, 24, 26, 38, 43, 43, 46, 6, 35, 7, 43, 34, 29, 52, 29, 21, 39, 9, 21, 29, 35, 20, 47, 48, 42, 13, 39, 39, 38, 29, 43, 43, 8, 22, 35, 10, 44, 33, 19, 16, 30, 5, 7
            |24, 24, 11, 18, 40, 11, 24, 8, 12, 31, 36, 0, 17, 16, 30, 27, 10, 25, 23, 21, 23, 32, 16, 30, 15, 32, 6, 31, 17, 2, 29, 17, 18, 29, 14, 36, 18, 8, 2, 19, 30, 14, 13, 28, 32, 12, 3, 10, 24, 16, 30, 19, 18, 29, 18, 35, 22, 27, 6, 39, 35
            |19, 19, 21, 25, 24, 7, 16, 23, 25, 35, 22, 17, 0, 29, 32, 16, 24, 19, 9, 22, 9, 22, 30, 24, 31, 21, 14, 16, 21, 16, 16, 31, 22, 26, 17, 20, 16, 9, 15, 2, 27, 26, 28, 21, 23, 16, 18, 16, 22, 29, 19, 17, 26, 13, 22, 37, 5, 21, 10, 24, 19
            |25, 25, 8, 9, 49, 26, 27, 20, 24, 21, 41, 16, 29, 0, 21, 42, 21, 26, 37, 19, 37, 48, 2, 46, 7, 36, 22, 38, 32, 16, 44, 24, 14, 26, 30, 45, 20, 22, 18, 30, 46, 26, 4, 30, 48, 28, 18, 14, 40, 2, 34, 20, 8, 38, 33, 26, 34, 28, 20, 45, 43
            |16, 15, 20, 13, 41, 34, 19, 37, 41, 3, 31, 30, 32, 21, 0, 48, 39, 16, 41, 11, 41, 55, 23, 56, 28, 25, 35, 32, 46, 28, 48, 44, 12, 10, 43, 38, 17, 30, 31, 32, 57, 43, 24, 18, 55, 41, 33, 20, 52, 23, 24, 15, 14, 34, 47, 5, 34, 16, 29, 36, 36
            |34, 35, 35, 40, 29, 16, 31, 29, 29, 51, 32, 27, 16, 42, 48, 0, 30, 35, 8, 37, 7, 6, 43, 11, 42, 34, 21, 25, 19, 27, 4, 36, 38, 42, 17, 26, 32, 20, 25, 16, 15, 30, 40, 36, 7, 18, 26, 31, 13, 42, 32, 33, 41, 22, 20, 53, 15, 36, 22, 31, 26
            |34, 34, 19, 26, 49, 18, 34, 2, 3, 40, 45, 10, 24, 21, 39, 30, 0, 35, 28, 31, 27, 34, 21, 29, 17, 42, 11, 39, 13, 12, 33, 7, 28, 39, 13, 44, 28, 16, 10, 26, 27, 4, 18, 38, 32, 11, 7, 20, 22, 20, 40, 29, 25, 37, 13, 44, 29, 37, 15, 48, 43
            |1, 1, 20, 18, 25, 23, 4, 33, 37, 19, 16, 25, 19, 26, 16, 35, 35, 0, 27, 8, 28, 41, 28, 44, 32, 10, 27, 16, 38, 23, 33, 42, 13, 7, 34, 22, 7, 21, 25, 18, 46, 39, 27, 4, 42, 33, 28, 16, 41, 28, 9, 7, 19, 17, 39, 19, 20, 2, 21, 21, 20
            |26, 27, 29, 34, 24, 11, 23, 27, 28, 43, 25, 23, 9, 37, 41, 8, 28, 27, 0, 30, 1, 14, 38, 18, 38, 26, 18, 18, 21, 22, 7, 35, 31, 34, 17, 20, 24, 15, 21, 9, 21, 29, 35, 28, 15, 18, 23, 24, 18, 37, 25, 26, 35, 15, 21, 45, 7, 28, 17, 25, 20
            |8, 7, 13, 10, 33, 23, 10, 29, 33, 13, 24, 21, 22, 19, 11, 37, 31, 8, 30, 0, 31, 44, 21, 45, 25, 18, 25, 23, 37, 19, 37, 37, 5, 8, 33, 29, 6, 20, 22, 21, 47, 35, 20, 11, 44, 31, 25, 11, 41, 20, 17, 4, 11, 24, 38, 16, 24, 9, 19, 29, 27
            |27, 28, 29, 34, 25, 11, 24, 26, 27, 44, 26, 23, 9, 37, 41, 7, 27, 28, 1, 31, 0, 13, 38, 17, 37, 27, 17, 19, 20, 22, 7, 34, 31, 35, 16, 21, 25, 15, 21, 9, 20, 28, 35, 29, 14, 17, 22, 25, 17, 37, 25, 26, 35, 16, 21, 46, 8, 29, 17, 26, 21
            |40, 41, 41, 47, 33, 22, 37, 33, 32, 57, 38, 32, 22, 48, 55, 6, 34, 41, 14, 44, 13, 0, 49, 8, 47, 39, 26, 31, 22, 33, 9, 39, 44, 48, 20, 31, 38, 26, 30, 23, 13, 33, 46, 42, 2, 22, 31, 37, 14, 48, 38, 39, 47, 28, 22, 59, 21, 42, 28, 36, 31
            |28, 27, 10, 11, 51, 27, 29, 19, 23, 23, 43, 16, 30, 2, 23, 43, 21, 28, 38, 21, 38, 49, 0, 46, 5, 38, 23, 40, 32, 16, 45, 23, 16, 28, 30, 47, 22, 23, 18, 32, 46, 25, 3, 32, 48, 28, 18, 15, 40, 1, 36, 22, 10, 40, 33, 28, 35, 30, 21, 47, 45
            |43, 44, 40, 46, 40, 22, 40, 29, 27, 58, 43, 30, 24, 46, 56, 11, 29, 44, 18, 45, 17, 8, 46, 0, 44, 44, 24, 36, 16, 31, 15, 33, 45, 51, 16, 37, 40, 26, 28, 26, 4, 27, 43, 45, 6, 18, 28, 37, 7, 46, 43, 41, 47, 33, 16, 61, 25, 45, 27, 42, 37
            |31, 30, 12, 16, 52, 26, 32, 16, 19, 28, 46, 15, 31, 7, 28, 42, 17, 32, 38, 25, 37, 47, 5, 44, 0, 41, 21, 42, 29, 15, 44, 18, 20, 32, 28, 48, 25, 23, 17, 32, 43, 21, 4, 35, 46, 26, 16, 17, 38, 5, 39, 25, 14, 41, 30, 33, 35, 33, 21, 50, 47
            |11, 12, 29, 28, 16, 27, 9, 40, 43, 28, 6, 32, 21, 36, 25, 34, 42, 10, 26, 18, 27, 39, 38, 44, 41, 0, 33, 9, 42, 30, 31, 49, 23, 15, 38, 14, 16, 26, 32, 19, 47, 45, 37, 7, 41, 37, 35, 24, 43, 37, 2, 16, 29, 12, 43, 27, 19, 9, 27, 11, 12
            |26, 26, 16, 23, 38, 7, 25, 9, 11, 36, 35, 6, 14, 22, 35, 21, 11, 27, 18, 25, 17, 26, 23, 24, 21, 33, 0, 29, 12, 7, 24, 18, 23, 32, 8, 34, 21, 6, 4, 16, 24, 13, 20, 30, 25, 6, 5, 14, 18, 22, 30, 22, 23, 27, 13, 40, 18, 29, 6, 37, 33
            |16, 17, 31, 32, 10, 22, 13, 38, 40, 35, 7, 31, 16, 38, 32, 25, 39, 16, 18, 23, 19, 31, 40, 36, 42, 9, 29, 0, 37, 29, 22, 47, 27, 23, 33, 6, 19, 23, 29, 14, 40, 42, 38, 15, 32, 32, 32, 25, 36, 39, 9, 20, 33, 3, 38, 35, 12, 16, 24, 8, 4
            |37, 37, 28, 35, 44, 15, 36, 14, 11, 48, 43, 17, 21, 32, 46, 19, 13, 38, 21, 37, 20, 22, 32, 16, 29, 42, 12, 37, 0, 18, 23, 17, 35, 44, 4, 40, 32, 17, 16, 23, 14, 11, 29, 41, 20, 5, 14, 26, 9, 31, 40, 33, 35, 34, 1, 52, 25, 40, 17, 44, 40
            |22, 22, 9, 16, 39, 11, 22, 10, 14, 30, 34, 2, 16, 16, 28, 27, 12, 23, 22, 19, 22, 33, 16, 31, 15, 30, 7, 29, 18, 0, 29, 19, 17, 27, 16, 35, 16, 7, 3, 17, 31, 16, 13, 26, 32, 13, 5, 8, 25, 15, 28, 17, 16, 28, 19, 34, 21, 25, 5, 37, 33
            |33, 34, 36, 41, 25, 18, 30, 32, 32, 51, 29, 29, 16, 44, 48, 4, 33, 33, 7, 37, 7, 9, 45, 15, 44, 31, 24, 22, 23, 29, 0, 39, 38, 41, 21, 22, 31, 22, 27, 16, 19, 33, 42, 34, 10, 22, 29, 32, 18, 44, 30, 33, 42, 19, 24, 52, 14, 35, 24, 28, 23
            |41, 41, 24, 31, 56, 25, 41, 9, 7, 44, 52, 17, 31, 24, 44, 36, 7, 42, 35, 37, 34, 39, 23, 33, 18, 49, 18, 47, 17, 19, 39, 0, 33, 45, 19, 52, 35, 23, 17, 34, 31, 6, 21, 45, 37, 17, 14, 26, 26, 22, 47, 35, 30, 45, 17, 49, 36, 44, 22, 55, 50
            |12, 11, 9, 5, 37, 23, 14, 26, 30, 13, 29, 18, 22, 14, 12, 38, 28, 13, 31, 5, 31, 44, 16, 45, 20, 23, 23, 27, 35, 17, 38, 33, 0, 13, 31, 33, 8, 19, 19, 23, 46, 32, 15, 16, 44, 29, 22, 9, 40, 15, 21, 7, 6, 27, 36, 17, 25, 14, 18, 33, 31
            |8, 7, 21, 17, 31, 30, 11, 37, 41, 13, 21, 29, 26, 26, 10, 42, 39, 7, 34, 8, 35, 48, 28, 51, 32, 15, 32, 23, 44, 27, 41, 45, 13, 0, 40, 28, 12, 27, 29, 25, 53, 43, 28, 8, 49, 38, 32, 19, 48, 28, 14, 10, 18, 24, 45, 12, 27, 6, 26, 26, 26
            |33, 34, 25, 32, 40, 11, 32, 13, 12, 45, 39, 14, 17, 30, 43, 17, 13, 34, 17, 33, 16, 20, 30, 16, 28, 38, 8, 33, 4, 16, 21, 19, 31, 40, 0, 36, 28, 13, 13, 19, 16, 13, 27, 37, 19, 2, 12, 23, 10, 30, 36, 30, 32, 30, 5, 48, 21, 36, 14, 41, 36
            |22, 23, 37, 38, 4, 27, 19, 43, 45, 41, 9, 36, 20, 45, 38, 26, 44, 22, 20, 29, 21, 31, 47, 37, 48, 14, 34, 6, 40, 35, 22, 52, 33, 28, 36, 0, 25, 28, 35, 18, 41, 47, 44, 20, 33, 36, 38, 31, 38, 46, 14, 26, 39, 7, 41, 40, 16, 22, 30, 5, 2
            |6, 6, 13, 13, 29, 18, 7, 26, 30, 19, 21, 18, 16, 20, 17, 32, 28, 7, 24, 6, 25, 38, 22, 40, 25, 16, 21, 19, 32, 16, 31, 35, 8, 12, 28, 25, 0, 15, 18, 16, 41, 32, 21, 11, 38, 27, 21, 9, 36, 21, 14, 1, 14, 19, 33, 21, 18, 9, 15, 26, 23
            |20, 21, 15, 21, 33, 4, 19, 14, 17, 33, 29, 8, 9, 22, 30, 20, 16, 21, 15, 20, 15, 26, 23, 26, 23, 26, 6, 23, 17, 7, 22, 23, 19, 27, 13, 28, 15, 0, 6, 11, 27, 19, 20, 24, 26, 11, 9, 11, 21, 22, 24, 17, 21, 21, 18, 36, 14, 23, 2, 31, 27
            |24, 24, 12, 19, 39, 9, 23, 9, 12, 32, 35, 2, 15, 18, 31, 25, 10, 25, 21, 22, 21, 30, 18, 28, 17, 32, 4, 29, 16, 3, 27, 17, 19, 29, 13, 35, 18, 6, 0, 17, 28, 14, 15, 28, 30, 11, 3, 11, 22, 17, 29, 19, 19, 28, 16, 36, 20, 27, 5, 37, 33
            |18, 18, 22, 26, 22, 9, 15, 25, 27, 35, 20, 19, 2, 30, 32, 16, 26, 18, 9, 21, 9, 23, 32, 26, 32, 19, 16, 14, 23, 17, 16, 34, 23, 25, 19, 18, 16, 11, 17, 0, 28, 29, 29, 20, 23, 19, 20, 17, 24, 31, 17, 17, 27, 11, 24, 37, 3, 20, 12, 22, 17
            |45, 46, 40, 47, 44, 23, 43, 28, 25, 59, 47, 30, 27, 46, 57, 15, 27, 46, 21, 47, 20, 13, 46, 4, 43, 47, 24, 40, 14, 31, 19, 31, 46, 53, 16, 41, 41, 27, 28, 28, 0, 25, 43, 48, 10, 18, 28, 38, 6, 45, 46, 43, 47, 36, 14, 62, 28, 48, 28, 46, 41
            |38, 38, 23, 30, 51, 20, 37, 6, 2, 44, 48, 14, 26, 26, 43, 30, 4, 39, 29, 35, 28, 33, 25, 27, 21, 45, 13, 42, 11, 16, 33, 6, 32, 43, 13, 47, 32, 19, 14, 29, 25, 0, 22, 42, 31, 11, 11, 24, 20, 24, 43, 33, 30, 40, 11, 49, 31, 41, 18, 50, 46
            |26, 26, 8, 11, 49, 24, 28, 16, 21, 24, 42, 13, 28, 4, 24, 40, 18, 27, 35, 20, 35, 46, 3, 43, 4, 37, 20, 38, 29, 13, 42, 21, 15, 28, 27, 44, 21, 20, 15, 29, 43, 22, 0, 31, 45, 25, 15, 13, 37, 2, 35, 21, 10, 38, 30, 29, 32, 29, 18, 46, 43
            |4, 5, 23, 21, 23, 26, 5, 36, 40, 21, 13, 28, 21, 30, 18, 36, 38, 4, 28, 11, 29, 42, 32, 45, 35, 7, 30, 15, 41, 26, 34, 45, 16, 8, 37, 20, 11, 24, 28, 20, 48, 42, 31, 0, 43, 35, 31, 19, 43, 31, 6, 10, 23, 17, 42, 20, 21, 2, 24, 18, 18
            |41, 42, 40, 47, 35, 22, 38, 32, 31, 57, 39, 32, 23, 48, 55, 7, 32, 42, 15, 44, 14, 2, 48, 6, 46, 41, 25, 32, 20, 32, 10, 37, 44, 49, 19, 33, 38, 26, 30, 23, 10, 31, 45, 43, 0, 21, 30, 37, 12, 47, 39, 40, 47, 29, 20, 60, 22, 43, 28, 38, 33
            |32, 32, 23, 30, 40, 10, 30, 11, 10, 43, 39, 12, 16, 28, 41, 18, 11, 33, 18, 31, 17, 22, 28, 18, 26, 37, 6, 32, 5, 13, 22, 17, 29, 38, 2, 36, 27, 11, 11, 19, 18, 11, 25, 35, 21, 0, 10, 21, 12, 27, 35, 28, 30, 30, 6, 46, 21, 35, 12, 40, 35
            |27, 27, 14, 21, 42, 12, 26, 5, 9, 34, 38, 3, 18, 18, 33, 26, 7, 28, 23, 25, 22, 31, 18, 28, 16, 35, 5, 32, 14, 5, 29, 14, 22, 32, 12, 38, 21, 9, 3, 20, 28, 11, 15, 31, 30, 10, 0, 13, 22, 17, 33, 22, 21, 31, 15, 38, 23, 30, 8, 40, 36
            |15, 15, 5, 10, 36, 15, 15, 18, 22, 22, 29, 10, 16, 14, 20, 31, 20, 16, 24, 11, 25, 37, 15, 37, 17, 24, 14, 25, 26, 8, 32, 26, 9, 19, 23, 31, 9, 11, 11, 17, 38, 24, 13, 19, 37, 21, 13, 0, 32, 14, 22, 9, 10, 25, 27, 26, 20, 18, 9, 33, 30
            |40, 41, 34, 41, 42, 18, 38, 22, 20, 54, 43, 24, 22, 40, 52, 13, 22, 41, 18, 41, 17, 14, 40, 7, 38, 43, 18, 36, 9, 25, 18, 26, 40, 48, 10, 38, 36, 21, 22, 24, 6, 20, 37, 43, 12, 12, 22, 32, 0, 39, 41, 37, 41, 33, 9, 57, 24, 43, 23, 43, 38
            |27, 26, 9, 11, 50, 26, 28, 18, 23, 23, 43, 16, 29, 2, 23, 42, 20, 28, 37, 20, 37, 48, 1, 46, 5, 37, 22, 39, 31, 15, 44, 22, 15, 28, 30, 46, 21, 22, 17, 31, 45, 24, 2, 31, 47, 27, 17, 14, 39, 0, 35, 21, 9, 39, 32, 28, 34, 29, 20, 47, 44
            |9, 10, 27, 26, 17, 25, 7, 38, 41, 27, 8, 30, 19, 34, 24, 32, 40, 9, 25, 17, 25, 38, 36, 43, 39, 2, 30, 9, 40, 28, 30, 47, 21, 14, 36, 14, 14, 24, 29, 17, 46, 43, 35, 6, 39, 35, 33, 22, 41, 35, 0, 14, 27, 11, 41, 26, 17, 8, 25, 12, 12
            |6, 5, 13, 12, 30, 19, 7, 27, 31, 18, 22, 19, 17, 20, 15, 33, 29, 7, 26, 4, 26, 39, 22, 41, 25, 16, 22, 20, 33, 17, 33, 35, 7, 10, 30, 26, 1, 17, 19, 17, 43, 33, 21, 10, 40, 28, 22, 9, 37, 21, 14, 0, 13, 20, 34, 20, 19, 9, 16, 26, 24
            |19, 18, 7, 1, 43, 25, 21, 24, 28, 15, 35, 18, 26, 8, 14, 41, 25, 19, 35, 11, 35, 47, 10, 47, 14, 29, 23, 33, 35, 16, 42, 30, 6, 18, 32, 39, 14, 21, 19, 27, 47, 30, 10, 23, 47, 30, 21, 10, 41, 9, 27, 13, 0, 33, 35, 19, 30, 21, 19, 39, 37
            |17, 18, 30, 32, 11, 20, 14, 36, 38, 36, 10, 29, 13, 38, 34, 22, 37, 17, 15, 24, 16, 28, 40, 33, 41, 12, 27, 3, 34, 28, 19, 45, 27, 24, 30, 7, 19, 21, 28, 11, 36, 40, 38, 17, 29, 30, 31, 25, 33, 39, 11, 20, 33, 0, 35, 37, 9, 18, 23, 10, 6
            |38, 38, 28, 35, 45, 16, 36, 14, 11, 49, 44, 18, 22, 33, 47, 20, 13, 39, 21, 38, 21, 22, 33, 16, 30, 43, 13, 38, 1, 19, 24, 17, 36, 45, 5, 41, 33, 18, 16, 24, 14, 11, 30, 42, 20, 6, 15, 27, 9, 32, 41, 34, 35, 35, 0, 52, 26, 41, 18, 45, 41
            |20, 19, 25, 18, 43, 39, 23, 42, 47, 5, 33, 35, 37, 26, 5, 53, 44, 19, 45, 16, 46, 59, 28, 61, 33, 27, 40, 35, 52, 34, 52, 49, 17, 12, 48, 40, 21, 36, 36, 37, 62, 49, 29, 20, 60, 46, 38, 26, 57, 28, 26, 20, 19, 37, 52, 0, 39, 19, 34, 38, 38
            |19, 20, 25, 29, 20, 11, 16, 28, 29, 37, 19, 22, 5, 34, 34, 15, 29, 20, 7, 24, 8, 21, 35, 25, 35, 19, 18, 12, 25, 21, 14, 36, 25, 27, 21, 16, 18, 14, 20, 3, 28, 31, 32, 21, 22, 21, 23, 20, 24, 34, 17, 19, 30, 9, 26, 39, 0, 21, 15, 20, 15
            |3, 3, 21, 19, 25, 25, 5, 35, 39, 19, 16, 27, 21, 28, 16, 36, 37, 2, 28, 9, 29, 42, 30, 45, 33, 9, 29, 16, 40, 25, 35, 44, 14, 6, 36, 22, 9, 23, 27, 20, 48, 41, 29, 2, 43, 35, 30, 18, 43, 29, 8, 9, 21, 18, 41, 19, 21, 0, 23, 20, 20
            |20, 20, 13, 19, 34, 6, 19, 13, 16, 31, 30, 6, 10, 20, 29, 22, 15, 21, 17, 19, 17, 28, 21, 27, 21, 27, 6, 24, 17, 5, 24, 22, 18, 26, 14, 30, 15, 2, 5, 12, 28, 18, 18, 24, 28, 12, 8, 9, 23, 20, 25, 16, 19, 23, 18, 34, 15, 23, 0, 32, 28
            |21, 22, 38, 38, 5, 30, 19, 46, 48, 39, 5, 39, 24, 45, 36, 31, 48, 21, 25, 29, 26, 36, 47, 42, 50, 11, 37, 8, 44, 37, 28, 55, 33, 26, 41, 5, 26, 31, 37, 22, 46, 50, 46, 18, 38, 40, 40, 33, 43, 47, 12, 26, 39, 10, 45, 38, 20, 20, 32, 0, 5
            |20, 21, 35, 36, 6, 26, 17, 42, 44, 39, 7, 35, 19, 43, 36, 26, 43, 20, 20, 27, 21, 31, 45, 37, 47, 12, 33, 4, 40, 33, 23, 50, 31, 26, 36, 2, 23, 27, 33, 17, 41, 46, 43, 18, 33, 35, 36, 30, 38, 44, 12, 24, 37, 6, 41, 38, 15, 20, 28, 5, 0|];