% n60w200.003    99.93 650
n = 61;
duration = [|0, 14, 16, 11, 38, 26, 11, 10, 34, 5, 24, 31, 11, 9, 36, 16, 35, 34, 28, 14, 22, 28, 35, 23, 20, 16, 20, 25, 16, 27, 18, 33, 24, 26, 33, 39, 31, 26, 20, 26, 16, 12, 16, 16, 25, 15, 13, 10, 3, 31, 36, 21, 22, 34, 26, 9, 18, 15, 25, 31, 13
            |14, 0, 24, 4, 41, 36, 5, 24, 39, 13, 37, 39, 7, 13, 39, 29, 41, 42, 31, 20, 8, 33, 41, 32, 6, 12, 27, 39, 25, 34, 18, 32, 11, 39, 46, 41, 36, 24, 32, 39, 12, 24, 29, 29, 23, 29, 27, 16, 12, 44, 40, 34, 35, 47, 28, 9, 31, 29, 38, 39, 22
            |16, 24, 0, 19, 22, 12, 18, 20, 17, 12, 33, 16, 25, 25, 21, 25, 19, 18, 13, 4, 31, 12, 19, 9, 29, 15, 4, 21, 2, 11, 10, 21, 30, 22, 26, 24, 15, 17, 30, 34, 15, 10, 26, 15, 15, 22, 13, 26, 15, 25, 20, 17, 17, 25, 13, 14, 28, 21, 23, 15, 28
            |11, 4, 19, 0, 37, 31, 1, 21, 34, 9, 35, 35, 9, 13, 35, 27, 36, 37, 27, 16, 12, 28, 36, 28, 10, 9, 22, 35, 20, 29, 14, 28, 13, 35, 42, 37, 31, 21, 30, 37, 9, 20, 27, 25, 20, 26, 23, 16, 8, 40, 36, 30, 31, 42, 24, 5, 29, 26, 35, 34, 21
            |38, 41, 22, 37, 0, 20, 36, 42, 7, 33, 54, 16, 45, 46, 2, 47, 7, 14, 10, 24, 46, 10, 7, 22, 44, 29, 18, 36, 23, 13, 23, 13, 42, 38, 36, 3, 8, 19, 52, 54, 29, 32, 48, 35, 19, 43, 33, 48, 36, 37, 3, 35, 34, 33, 13, 33, 50, 43, 40, 14, 50
            |26, 36, 12, 31, 20, 0, 31, 26, 13, 23, 36, 5, 37, 36, 19, 30, 13, 9, 15, 16, 43, 12, 13, 4, 41, 27, 11, 17, 11, 7, 21, 25, 42, 18, 17, 22, 12, 25, 35, 36, 27, 16, 31, 17, 23, 26, 16, 36, 26, 17, 17, 16, 14, 15, 18, 26, 33, 25, 21, 6, 36
            |11, 5, 18, 1, 36, 31, 0, 21, 33, 9, 35, 34, 10, 13, 34, 27, 36, 36, 26, 15, 13, 27, 36, 27, 11, 8, 21, 34, 19, 28, 13, 28, 14, 35, 41, 36, 30, 20, 31, 37, 8, 20, 27, 25, 19, 26, 22, 16, 8, 40, 35, 30, 31, 42, 23, 4, 29, 26, 35, 33, 21
            |10, 24, 20, 21, 42, 26, 21, 0, 37, 14, 15, 32, 19, 14, 40, 6, 38, 35, 33, 19, 31, 32, 38, 23, 30, 25, 24, 19, 19, 30, 26, 40, 34, 19, 28, 44, 34, 34, 11, 16, 25, 11, 7, 10, 32, 5, 10, 13, 13, 25, 40, 15, 17, 30, 33, 18, 9, 6, 17, 32, 10
            |34, 39, 17, 34, 7, 13, 33, 37, 0, 29, 48, 9, 42, 42, 6, 41, 2, 8, 8, 20, 44, 6, 2, 16, 42, 27, 13, 30, 18, 7, 21, 16, 41, 31, 29, 9, 3, 20, 46, 48, 27, 26, 42, 29, 19, 37, 27, 44, 32, 30, 4, 28, 27, 26, 12, 30, 44, 37, 34, 7, 45
            |5, 13, 12, 9, 33, 23, 9, 14, 29, 0, 28, 28, 14, 13, 31, 20, 31, 30, 23, 9, 21, 23, 31, 20, 19, 11, 16, 26, 12, 23, 13, 28, 22, 26, 33, 34, 26, 21, 24, 30, 11, 11, 20, 16, 20, 18, 13, 15, 3, 31, 32, 21, 22, 33, 21, 5, 22, 18, 26, 27, 18
            |24, 37, 33, 35, 54, 36, 35, 15, 48, 28, 0, 41, 31, 25, 52, 8, 49, 44, 45, 33, 44, 44, 49, 32, 43, 40, 37, 22, 31, 40, 40, 53, 48, 20, 29, 56, 45, 48, 5, 2, 40, 23, 8, 18, 47, 11, 21, 23, 27, 26, 51, 20, 22, 32, 46, 33, 6, 11, 17, 42, 17
            |31, 39, 16, 35, 16, 5, 34, 32, 9, 28, 41, 0, 41, 40, 15, 35, 9, 3, 14, 19, 46, 11, 9, 9, 44, 29, 13, 21, 15, 6, 23, 24, 44, 23, 20, 19, 9, 26, 40, 41, 29, 21, 36, 23, 24, 31, 22, 41, 31, 21, 13, 21, 19, 17, 18, 30, 38, 30, 25, 2, 41
            |11, 7, 25, 9, 45, 37, 10, 19, 42, 14, 31, 41, 0, 6, 43, 24, 44, 44, 35, 22, 13, 36, 44, 33, 12, 17, 29, 37, 26, 36, 23, 37, 18, 37, 45, 46, 39, 30, 26, 34, 17, 23, 24, 27, 29, 25, 25, 9, 11, 42, 44, 32, 33, 46, 33, 12, 25, 25, 36, 41, 15
            |9, 13, 25, 13, 46, 36, 13, 14, 42, 13, 25, 40, 6, 0, 44, 18, 44, 43, 36, 22, 19, 36, 44, 32, 18, 21, 29, 33, 25, 36, 25, 40, 24, 33, 41, 47, 39, 32, 20, 28, 21, 20, 18, 23, 31, 19, 21, 3, 10, 39, 45, 28, 30, 43, 34, 14, 20, 20, 31, 40, 9
            |36, 39, 21, 35, 2, 19, 34, 40, 6, 31, 52, 15, 43, 44, 0, 46, 7, 14, 8, 22, 44, 9, 7, 21, 42, 27, 16, 35, 22, 12, 21, 11, 40, 37, 35, 4, 7, 17, 51, 53, 27, 30, 46, 34, 17, 42, 32, 46, 34, 36, 3, 34, 32, 33, 11, 31, 48, 41, 39, 13, 48
            |16, 29, 25, 27, 47, 30, 27, 6, 41, 20, 8, 35, 24, 18, 46, 0, 43, 39, 38, 25, 37, 37, 43, 26, 35, 31, 30, 19, 24, 34, 32, 46, 40, 18, 28, 49, 39, 40, 5, 10, 31, 16, 1, 13, 39, 4, 14, 16, 19, 25, 45, 16, 18, 30, 38, 25, 3, 5, 16, 36, 11
            |35, 41, 19, 36, 7, 13, 36, 38, 2, 31, 49, 9, 44, 44, 7, 43, 0, 7, 10, 22, 46, 8, 0, 16, 44, 29, 15, 30, 20, 9, 23, 17, 43, 31, 29, 10, 5, 22, 48, 49, 29, 27, 43, 30, 21, 39, 29, 46, 34, 30, 4, 29, 28, 26, 14, 32, 45, 38, 34, 7, 47
            |34, 42, 18, 37, 14, 9, 36, 35, 8, 30, 44, 3, 44, 43, 14, 39, 7, 0, 14, 22, 48, 11, 7, 12, 46, 31, 15, 24, 18, 8, 25, 23, 46, 25, 22, 17, 9, 26, 43, 44, 31, 24, 40, 26, 25, 35, 25, 44, 33, 23, 11, 24, 22, 19, 19, 33, 41, 34, 28, 3, 44
            |28, 31, 13, 27, 10, 15, 26, 33, 8, 23, 45, 14, 35, 36, 8, 38, 10, 14, 0, 14, 36, 3, 10, 16, 34, 19, 8, 30, 14, 8, 13, 10, 33, 32, 32, 11, 6, 12, 43, 46, 19, 23, 39, 27, 11, 35, 25, 38, 26, 32, 9, 28, 27, 30, 4, 23, 41, 34, 34, 12, 40
            |14, 20, 4, 16, 24, 16, 15, 19, 20, 9, 33, 19, 22, 22, 22, 25, 22, 22, 14, 0, 27, 14, 22, 13, 25, 12, 7, 23, 5, 14, 8, 21, 26, 24, 29, 25, 17, 16, 30, 34, 12, 10, 26, 16, 14, 22, 13, 24, 12, 28, 23, 19, 19, 28, 13, 11, 28, 21, 25, 19, 26
            |22, 8, 31, 12, 46, 43, 13, 31, 44, 21, 44, 46, 13, 19, 44, 37, 46, 48, 36, 27, 0, 38, 46, 40, 2, 17, 33, 47, 32, 40, 23, 35, 6, 47, 54, 45, 41, 27, 39, 46, 17, 32, 36, 37, 27, 37, 35, 22, 20, 52, 45, 42, 43, 54, 33, 17, 38, 37, 47, 45, 28
            |28, 33, 12, 28, 10, 12, 27, 32, 6, 23, 44, 11, 36, 36, 9, 37, 8, 11, 3, 14, 38, 0, 8, 13, 36, 21, 8, 28, 13, 5, 15, 13, 35, 29, 29, 12, 3, 15, 42, 45, 21, 21, 38, 25, 13, 33, 23, 38, 26, 29, 8, 26, 25, 27, 7, 24, 40, 33, 31, 9, 40
            |35, 41, 19, 36, 7, 13, 36, 38, 2, 31, 49, 9, 44, 44, 7, 43, 0, 7, 10, 22, 46, 8, 0, 16, 44, 29, 15, 30, 20, 9, 23, 17, 43, 31, 29, 10, 5, 22, 48, 49, 29, 27, 43, 30, 21, 39, 29, 46, 34, 30, 4, 29, 28, 26, 14, 32, 45, 38, 34, 7, 47
            |23, 32, 9, 28, 22, 4, 27, 23, 16, 20, 32, 9, 33, 32, 21, 26, 16, 12, 16, 13, 40, 13, 16, 0, 38, 24, 9, 15, 8, 9, 19, 25, 39, 16, 17, 24, 14, 24, 31, 33, 24, 12, 27, 14, 22, 22, 13, 32, 22, 17, 19, 13, 12, 16, 18, 23, 29, 21, 18, 10, 32
            |20, 6, 29, 10, 44, 41, 11, 30, 42, 19, 43, 44, 12, 18, 42, 35, 44, 46, 34, 25, 2, 36, 44, 38, 0, 15, 31, 45, 30, 38, 21, 33, 6, 45, 52, 43, 39, 25, 38, 45, 15, 30, 35, 35, 25, 35, 33, 21, 18, 50, 43, 40, 41, 52, 31, 15, 37, 35, 45, 43, 27
            |16, 12, 15, 9, 29, 27, 8, 25, 27, 11, 40, 29, 17, 21, 27, 31, 29, 31, 19, 12, 17, 21, 29, 24, 15, 0, 16, 34, 17, 23, 6, 20, 15, 35, 40, 29, 24, 12, 35, 41, 0, 20, 32, 26, 11, 29, 23, 23, 13, 39, 28, 30, 30, 40, 16, 7, 34, 29, 36, 28, 28
            |20, 27, 4, 22, 18, 11, 21, 24, 13, 16, 37, 13, 29, 29, 16, 30, 15, 15, 8, 7, 33, 8, 15, 9, 31, 16, 0, 23, 6, 7, 11, 17, 31, 24, 26, 19, 10, 15, 35, 38, 16, 14, 30, 19, 13, 26, 16, 31, 19, 26, 16, 20, 19, 25, 9, 17, 33, 25, 26, 12, 32
            |25, 39, 21, 35, 36, 17, 34, 19, 30, 26, 22, 21, 37, 33, 35, 19, 30, 24, 30, 23, 47, 28, 30, 15, 45, 34, 23, 0, 19, 23, 31, 40, 48, 1, 9, 39, 28, 38, 23, 21, 34, 15, 20, 10, 36, 16, 12, 32, 27, 6, 33, 5, 4, 11, 33, 30, 21, 15, 4, 23, 29
            |16, 25, 2, 20, 23, 11, 19, 19, 18, 12, 31, 15, 26, 25, 22, 24, 20, 18, 14, 5, 32, 13, 20, 8, 30, 17, 6, 19, 0, 11, 12, 22, 31, 20, 24, 25, 15, 19, 29, 32, 17, 8, 25, 13, 17, 21, 11, 26, 15, 23, 21, 15, 15, 23, 15, 15, 27, 20, 21, 15, 27
            |27, 34, 11, 29, 13, 7, 28, 30, 7, 23, 40, 6, 36, 36, 12, 34, 9, 8, 8, 14, 40, 5, 9, 9, 38, 23, 7, 23, 11, 0, 17, 18, 38, 25, 24, 16, 5, 19, 39, 41, 23, 19, 35, 22, 17, 30, 20, 37, 26, 25, 11, 21, 20, 22, 12, 25, 37, 29, 27, 5, 38
            |18, 18, 10, 14, 23, 21, 13, 26, 21, 13, 40, 23, 23, 25, 21, 32, 23, 25, 13, 8, 23, 15, 23, 19, 21, 6, 11, 31, 12, 17, 0, 15, 21, 32, 36, 23, 18, 9, 36, 41, 6, 18, 32, 24, 7, 29, 21, 27, 15, 35, 22, 27, 27, 35, 10, 11, 34, 29, 33, 22, 30
            |33, 32, 21, 28, 13, 25, 28, 40, 16, 28, 53, 24, 37, 40, 11, 46, 17, 23, 10, 21, 35, 13, 17, 25, 33, 20, 17, 40, 22, 18, 15, 0, 30, 41, 42, 11, 15, 8, 50, 54, 20, 31, 46, 36, 9, 42, 33, 42, 30, 42, 14, 37, 36, 40, 8, 26, 48, 42, 43, 22, 46
            |24, 11, 30, 13, 42, 42, 14, 34, 41, 22, 48, 44, 18, 24, 40, 40, 43, 46, 33, 26, 6, 35, 43, 39, 6, 15, 31, 48, 31, 38, 21, 30, 0, 48, 54, 41, 38, 23, 43, 50, 15, 33, 40, 39, 23, 39, 36, 27, 22, 53, 42, 43, 44, 54, 29, 17, 42, 40, 48, 43, 33
            |26, 39, 22, 35, 38, 18, 35, 19, 31, 26, 20, 23, 37, 33, 37, 18, 31, 25, 32, 24, 47, 29, 31, 16, 45, 35, 24, 1, 20, 25, 32, 41, 48, 0, 9, 40, 30, 39, 22, 20, 35, 15, 19, 10, 37, 15, 13, 32, 27, 6, 35, 5, 5, 12, 34, 31, 20, 14, 3, 24, 29
            |33, 46, 26, 42, 36, 17, 41, 28, 29, 33, 29, 20, 45, 41, 35, 28, 29, 22, 32, 29, 54, 29, 29, 17, 52, 40, 26, 9, 24, 24, 36, 42, 54, 9, 0, 39, 28, 42, 31, 28, 40, 22, 29, 18, 40, 24, 20, 40, 35, 3, 33, 13, 11, 4, 35, 37, 29, 23, 12, 22, 38
            |39, 41, 24, 37, 3, 22, 36, 44, 9, 34, 56, 19, 46, 47, 4, 49, 10, 17, 11, 25, 45, 12, 10, 24, 43, 29, 19, 39, 25, 16, 23, 11, 41, 40, 39, 0, 11, 18, 54, 57, 29, 33, 50, 37, 18, 45, 35, 49, 37, 40, 6, 37, 36, 36, 13, 34, 52, 45, 43, 17, 51
            |31, 36, 15, 31, 8, 12, 30, 34, 3, 26, 45, 9, 39, 39, 7, 39, 5, 9, 6, 17, 41, 3, 5, 14, 39, 24, 10, 28, 15, 5, 18, 15, 38, 30, 28, 11, 0, 18, 44, 46, 24, 23, 40, 27, 16, 35, 25, 41, 29, 29, 6, 26, 25, 26, 10, 27, 42, 34, 32, 7, 42
            |26, 24, 17, 21, 19, 25, 20, 34, 20, 21, 48, 26, 30, 32, 17, 40, 22, 26, 12, 16, 27, 15, 22, 24, 25, 12, 15, 38, 19, 19, 9, 8, 23, 39, 42, 18, 18, 0, 45, 50, 12, 26, 41, 32, 2, 38, 29, 35, 23, 41, 20, 34, 34, 40, 8, 19, 43, 37, 40, 24, 39
            |20, 32, 30, 30, 52, 35, 31, 11, 46, 24, 5, 40, 26, 20, 51, 5, 48, 43, 43, 30, 39, 42, 48, 31, 38, 35, 35, 23, 29, 39, 36, 50, 43, 22, 31, 54, 44, 45, 0, 8, 35, 21, 4, 17, 43, 9, 19, 17, 23, 28, 50, 20, 22, 34, 43, 28, 2, 10, 19, 41, 12
            |26, 39, 34, 37, 54, 36, 37, 16, 48, 30, 2, 41, 34, 28, 53, 10, 49, 44, 46, 34, 46, 45, 49, 33, 45, 41, 38, 21, 32, 41, 41, 54, 50, 20, 28, 57, 46, 50, 8, 0, 41, 24, 10, 19, 48, 12, 21, 25, 29, 25, 52, 20, 22, 32, 47, 35, 8, 13, 17, 42, 19
            |16, 12, 15, 9, 29, 27, 8, 25, 27, 11, 40, 29, 17, 21, 27, 31, 29, 31, 19, 12, 17, 21, 29, 24, 15, 0, 16, 34, 17, 23, 6, 20, 15, 35, 40, 29, 24, 12, 35, 41, 0, 20, 32, 26, 11, 29, 23, 23, 13, 39, 28, 30, 30, 40, 16, 7, 34, 29, 36, 28, 28
            |12, 24, 10, 20, 32, 16, 20, 11, 26, 11, 23, 21, 23, 20, 30, 16, 27, 24, 23, 10, 32, 21, 27, 12, 30, 20, 14, 15, 8, 19, 18, 31, 33, 15, 22, 33, 23, 26, 21, 24, 20, 0, 16, 6, 24, 12, 3, 20, 13, 20, 29, 10, 11, 23, 23, 16, 18, 11, 15, 22, 20
            |16, 29, 26, 27, 48, 31, 27, 7, 42, 20, 8, 36, 24, 18, 46, 1, 43, 40, 39, 26, 36, 38, 43, 27, 35, 32, 30, 20, 25, 35, 32, 46, 40, 19, 29, 50, 40, 41, 4, 10, 32, 16, 0, 14, 39, 5, 15, 16, 19, 26, 45, 17, 19, 31, 39, 25, 2, 6, 17, 37, 11
            |16, 29, 15, 25, 35, 17, 25, 10, 29, 16, 18, 23, 27, 23, 34, 13, 30, 26, 27, 16, 37, 25, 30, 14, 35, 26, 19, 10, 13, 22, 24, 36, 39, 10, 18, 37, 27, 32, 17, 19, 26, 6, 14, 0, 30, 9, 3, 22, 17, 16, 33, 5, 7, 20, 28, 21, 15, 8, 9, 24, 20
            |25, 23, 15, 20, 19, 23, 19, 32, 19, 20, 47, 24, 29, 31, 17, 39, 21, 25, 11, 14, 27, 13, 21, 22, 25, 11, 13, 36, 17, 17, 7, 9, 23, 37, 40, 18, 16, 2, 43, 48, 11, 24, 39, 30, 0, 36, 27, 34, 22, 39, 19, 32, 32, 38, 6, 17, 41, 35, 38, 22, 38
            |15, 29, 22, 26, 43, 26, 26, 5, 37, 18, 11, 31, 25, 19, 42, 4, 39, 35, 35, 22, 37, 33, 39, 22, 35, 29, 26, 16, 21, 30, 29, 42, 39, 15, 24, 45, 35, 38, 9, 12, 29, 12, 5, 9, 36, 0, 10, 18, 18, 21, 41, 12, 14, 26, 35, 23, 7, 1, 13, 32, 14
            |13, 27, 13, 23, 33, 16, 22, 10, 27, 13, 21, 22, 25, 21, 32, 14, 29, 25, 25, 13, 35, 23, 29, 13, 33, 23, 16, 12, 11, 20, 21, 33, 36, 13, 20, 35, 25, 29, 19, 21, 23, 3, 15, 3, 27, 10, 0, 21, 15, 18, 31, 7, 8, 21, 26, 18, 17, 9, 12, 22, 20
            |10, 16, 26, 16, 48, 36, 16, 13, 44, 15, 23, 41, 9, 3, 46, 16, 46, 44, 38, 24, 22, 38, 46, 32, 21, 23, 31, 32, 26, 37, 27, 42, 27, 32, 40, 49, 41, 35, 17, 25, 23, 20, 16, 22, 34, 18, 21, 0, 12, 38, 46, 27, 29, 42, 36, 16, 17, 18, 30, 41, 6
            |3, 12, 15, 8, 36, 26, 8, 13, 32, 3, 27, 31, 11, 10, 34, 19, 34, 33, 26, 12, 20, 26, 34, 22, 18, 13, 19, 27, 15, 26, 15, 30, 22, 27, 35, 37, 29, 23, 23, 29, 13, 13, 19, 17, 22, 18, 15, 12, 0, 33, 35, 22, 23, 35, 24, 5, 22, 18, 27, 30, 16
            |31, 44, 25, 40, 37, 17, 40, 25, 30, 31, 26, 21, 42, 39, 36, 25, 30, 23, 32, 28, 52, 29, 30, 17, 50, 39, 26, 6, 23, 25, 35, 42, 53, 6, 3, 40, 29, 41, 28, 25, 39, 20, 26, 16, 39, 21, 18, 38, 33, 0, 34, 11, 9, 6, 35, 36, 26, 20, 9, 23, 35
            |36, 40, 20, 36, 3, 17, 35, 40, 4, 32, 51, 13, 44, 45, 3, 45, 4, 11, 9, 23, 45, 8, 4, 19, 43, 28, 16, 33, 21, 11, 22, 14, 42, 35, 33, 6, 6, 20, 50, 52, 28, 29, 45, 33, 19, 41, 31, 46, 35, 34, 0, 32, 31, 30, 13, 32, 47, 40, 37, 11, 48
            |21, 34, 17, 30, 35, 16, 30, 15, 28, 21, 20, 21, 32, 28, 34, 16, 29, 24, 28, 19, 42, 26, 29, 13, 40, 30, 20, 5, 15, 21, 27, 37, 43, 5, 13, 37, 26, 34, 20, 20, 30, 10, 17, 5, 32, 12, 7, 27, 22, 11, 32, 0, 2, 15, 29, 25, 18, 11, 6, 22, 25
            |22, 35, 17, 31, 34, 14, 31, 17, 27, 22, 22, 19, 33, 30, 32, 18, 28, 22, 27, 19, 43, 25, 28, 12, 41, 30, 19, 4, 15, 20, 27, 36, 44, 5, 11, 36, 25, 34, 22, 22, 30, 11, 19, 7, 32, 14, 8, 29, 23, 9, 31, 2, 0, 13, 29, 26, 20, 13, 7, 21, 27
            |34, 47, 25, 42, 33, 15, 42, 30, 26, 33, 32, 17, 46, 43, 33, 30, 26, 19, 30, 28, 54, 27, 26, 16, 52, 40, 25, 11, 23, 22, 35, 40, 54, 12, 4, 36, 26, 40, 34, 32, 40, 23, 31, 20, 38, 26, 21, 42, 35, 6, 30, 15, 13, 0, 33, 38, 32, 25, 15, 19, 40
            |26, 28, 13, 24, 13, 18, 23, 33, 12, 21, 46, 18, 33, 34, 11, 38, 14, 19, 4, 13, 33, 7, 14, 18, 31, 16, 9, 33, 15, 12, 10, 8, 29, 34, 35, 13, 10, 8, 43, 47, 16, 23, 39, 28, 6, 35, 26, 36, 24, 35, 13, 29, 29, 33, 0, 21, 41, 34, 35, 16, 39
            |9, 9, 14, 5, 33, 26, 4, 18, 30, 5, 33, 30, 12, 14, 31, 25, 32, 33, 23, 11, 17, 24, 32, 23, 15, 7, 17, 30, 15, 25, 11, 26, 17, 31, 37, 34, 27, 19, 28, 35, 7, 16, 25, 21, 17, 23, 18, 16, 5, 36, 32, 25, 26, 38, 21, 0, 27, 23, 31, 29, 21
            |18, 31, 28, 29, 50, 33, 29, 9, 44, 22, 6, 38, 25, 20, 48, 3, 45, 41, 41, 28, 38, 40, 45, 29, 37, 34, 33, 21, 27, 37, 34, 48, 42, 20, 29, 52, 42, 43, 2, 8, 34, 18, 2, 15, 41, 7, 17, 17, 22, 26, 47, 18, 20, 32, 41, 27, 0, 8, 17, 39, 12
            |15, 29, 21, 26, 43, 25, 26, 6, 37, 18, 11, 30, 25, 20, 41, 5, 38, 34, 34, 21, 37, 33, 38, 21, 35, 29, 25, 15, 20, 29, 29, 42, 40, 14, 23, 45, 34, 37, 10, 13, 29, 11, 6, 8, 35, 1, 9, 18, 18, 20, 40, 11, 13, 25, 34, 23, 8, 0, 12, 31, 15
            |25, 38, 23, 35, 40, 21, 35, 17, 34, 26, 17, 25, 36, 31, 39, 16, 34, 28, 34, 25, 47, 31, 34, 18, 45, 36, 26, 4, 21, 27, 33, 43, 48, 3, 12, 43, 32, 40, 19, 17, 36, 15, 17, 9, 38, 13, 12, 30, 27, 9, 37, 6, 7, 15, 35, 31, 17, 12, 0, 27, 26
            |31, 39, 15, 34, 14, 6, 33, 32, 7, 27, 42, 2, 41, 40, 13, 36, 7, 3, 12, 19, 45, 9, 7, 10, 43, 28, 12, 23, 15, 5, 22, 22, 43, 24, 22, 17, 7, 24, 41, 42, 28, 22, 37, 24, 22, 32, 22, 41, 30, 23, 11, 22, 21, 19, 16, 29, 39, 31, 27, 0, 42
            |13, 22, 28, 21, 50, 36, 21, 10, 45, 18, 17, 41, 15, 9, 48, 11, 47, 44, 40, 26, 28, 40, 47, 32, 27, 28, 32, 29, 27, 38, 30, 46, 33, 29, 38, 51, 42, 39, 12, 19, 28, 20, 11, 20, 38, 14, 20, 6, 16, 35, 48, 25, 27, 40, 39, 21, 12, 15, 26, 42, 0|];
early = [0, 0, 281, 0, 255, 48, 0, 135, 8, 0, 355, 47, 200, 197, 24, 163, 0, 0, 248, 27, 172, 0, 4, 341, 0, 398, 100, 339, 65, 71, 0, 263, 0, 101, 470, 13, 6, 503, 103, 114, 0, 76, 77, 62, 0, 136, 146, 223, 134, 362, 0, 96, 73, 304, 0, 0, 144, 157, 50, 0, 487];
late = [701, 83, 459, 109, 464, 253, 150, 408, 170, 118, 584, 238, 429, 468, 242, 357, 144, 249, 505, 244, 421, 151, 165, 542, 97, 590, 274, 591, 220, 206, 129, 493, 143, 302, 644, 180, 227, 675, 306, 314, 143, 269, 334, 298, 174, 281, 302, 363, 352, 504, 213, 247, 292, 571, 204, 129, 365, 368, 306, 237, 651];