% n60w160.001    54.37 729
n = 61;
duration = [|0, 17, 22, 35, 11, 20, 32, 17, 11, 31, 29, 16, 21, 29, 29, 21, 14, 21, 15, 23, 24, 21, 13, 27, 28, 29, 7, 12, 11, 19, 16, 28, 9, 30, 25, 18, 13, 12, 15, 10, 17, 35, 12, 8, 29, 6, 22, 10, 25, 6, 21, 24, 20, 33, 13, 26, 25, 20, 17, 39, 27
            |17, 0, 37, 44, 25, 36, 33, 33, 27, 46, 46, 25, 33, 45, 41, 21, 29, 32, 17, 39, 39, 35, 21, 13, 45, 43, 23, 17, 9, 30, 6, 43, 8, 42, 42, 26, 14, 11, 24, 26, 6, 51, 4, 24, 45, 19, 39, 9, 40, 23, 13, 37, 36, 42, 12, 31, 32, 32, 9, 55, 43
            |22, 37, 0, 22, 22, 16, 49, 13, 16, 26, 16, 31, 10, 8, 12, 29, 20, 31, 35, 1, 2, 24, 30, 45, 19, 8, 18, 24, 29, 12, 35, 22, 31, 12, 7, 32, 27, 29, 18, 16, 39, 28, 33, 14, 25, 18, 5, 29, 25, 16, 37, 29, 2, 22, 35, 41, 22, 28, 34, 29, 11
            |35, 44, 22, 0, 41, 38, 67, 34, 35, 49, 38, 49, 15, 25, 11, 25, 40, 51, 50, 23, 22, 45, 47, 45, 41, 16, 35, 27, 35, 16, 39, 45, 41, 11, 28, 51, 30, 33, 21, 34, 48, 50, 41, 30, 48, 28, 27, 35, 47, 32, 36, 50, 24, 2, 47, 60, 12, 49, 36, 50, 33
            |11, 25, 22, 41, 0, 12, 27, 11, 6, 21, 22, 9, 26, 28, 33, 32, 4, 10, 14, 23, 24, 10, 8, 37, 20, 31, 6, 23, 22, 25, 27, 18, 17, 33, 23, 10, 25, 23, 25, 7, 23, 26, 21, 11, 19, 16, 20, 21, 14, 9, 33, 12, 20, 40, 16, 19, 34, 9, 28, 30, 22
            |20, 36, 16, 38, 12, 0, 36, 4, 9, 12, 10, 19, 23, 18, 27, 37, 8, 17, 26, 15, 17, 8, 20, 47, 9, 24, 13, 29, 30, 24, 36, 9, 28, 28, 13, 20, 31, 31, 27, 10, 35, 16, 32, 14, 11, 21, 11, 30, 9, 14, 41, 13, 14, 37, 28, 28, 34, 14, 36, 19, 10
            |32, 33, 49, 67, 27, 36, 0, 37, 33, 37, 45, 18, 52, 54, 59, 51, 30, 20, 18, 49, 51, 29, 20, 45, 42, 57, 32, 43, 37, 50, 39, 37, 29, 60, 49, 17, 43, 40, 47, 34, 27, 42, 32, 37, 36, 39, 47, 36, 31, 35, 46, 25, 47, 65, 22, 8, 57, 23, 41, 47, 47
            |17, 33, 13, 34, 11, 4, 37, 0, 6, 16, 13, 19, 19, 17, 24, 33, 8, 18, 25, 13, 14, 11, 19, 43, 12, 21, 10, 25, 27, 20, 33, 13, 25, 25, 12, 21, 27, 28, 23, 7, 33, 20, 29, 10, 15, 17, 9, 26, 13, 11, 37, 16, 11, 34, 26, 29, 30, 16, 33, 23, 11
            |11, 27, 16, 35, 6, 9, 33, 6, 0, 21, 19, 15, 20, 22, 26, 29, 5, 16, 19, 17, 18, 12, 14, 37, 18, 24, 4, 20, 21, 19, 27, 17, 19, 27, 17, 16, 22, 22, 20, 1, 26, 25, 22, 6, 19, 13, 14, 21, 16, 5, 32, 16, 14, 34, 20, 25, 29, 14, 27, 28, 17
            |31, 46, 26, 49, 21, 12, 37, 16, 21, 0, 12, 24, 35, 25, 38, 49, 17, 18, 33, 25, 27, 11, 26, 57, 8, 34, 24, 41, 42, 36, 47, 4, 37, 38, 21, 24, 43, 43, 39, 21, 44, 5, 42, 26, 1, 33, 21, 41, 7, 26, 52, 12, 25, 48, 36, 29, 46, 16, 47, 10, 17
            |29, 46, 16, 38, 22, 10, 45, 13, 19, 12, 0, 29, 26, 14, 27, 43, 18, 26, 36, 15, 16, 16, 30, 56, 4, 22, 22, 36, 39, 28, 45, 9, 38, 27, 10, 30, 39, 40, 33, 19, 45, 12, 41, 22, 12, 29, 11, 39, 15, 23, 49, 21, 16, 38, 38, 37, 38, 23, 45, 12, 5
            |16, 25, 31, 49, 9, 19, 18, 19, 15, 24, 29, 0, 34, 36, 41, 37, 12, 6, 9, 31, 33, 13, 4, 38, 26, 39, 14, 28, 25, 33, 29, 23, 18, 42, 31, 1, 29, 27, 31, 16, 21, 29, 22, 19, 22, 22, 29, 24, 17, 17, 36, 12, 29, 48, 14, 11, 41, 8, 30, 34, 30
            |21, 33, 10, 15, 26, 23, 52, 19, 20, 35, 26, 34, 0, 16, 8, 20, 25, 36, 35, 11, 11, 30, 32, 38, 28, 10, 20, 17, 24, 3, 29, 31, 28, 9, 17, 35, 20, 23, 10, 19, 36, 37, 29, 15, 34, 15, 15, 24, 33, 17, 29, 35, 10, 14, 34, 45, 12, 34, 27, 38, 21
            |29, 45, 8, 25, 28, 18, 54, 17, 22, 25, 14, 36, 16, 0, 14, 36, 24, 35, 41, 6, 6, 26, 35, 52, 17, 9, 24, 31, 37, 19, 42, 22, 38, 14, 5, 37, 34, 36, 26, 21, 46, 26, 41, 21, 25, 26, 7, 36, 26, 23, 44, 31, 9, 25, 41, 46, 27, 32, 41, 25, 9
            |29, 41, 12, 11, 33, 27, 59, 24, 26, 38, 27, 41, 8, 14, 0, 27, 31, 42, 43, 12, 11, 35, 39, 46, 30, 5, 27, 25, 32, 11, 37, 34, 37, 1, 17, 42, 28, 31, 18, 25, 44, 39, 38, 22, 37, 23, 16, 32, 37, 24, 37, 40, 13, 11, 42, 52, 15, 39, 35, 39, 22
            |21, 21, 29, 25, 32, 37, 51, 33, 29, 49, 43, 37, 20, 36, 27, 0, 34, 42, 33, 30, 30, 41, 34, 20, 44, 30, 26, 9, 14, 17, 15, 45, 22, 28, 35, 38, 9, 12, 11, 28, 27, 53, 20, 23, 48, 16, 33, 15, 44, 24, 11, 44, 28, 23, 29, 47, 13, 41, 12, 55, 39
            |14, 29, 20, 40, 4, 8, 30, 8, 5, 17, 18, 12, 25, 24, 31, 34, 0, 11, 18, 20, 21, 7, 12, 40, 16, 28, 7, 25, 25, 24, 30, 14, 21, 31, 19, 13, 27, 26, 25, 6, 27, 22, 25, 11, 16, 17, 17, 24, 11, 10, 35, 11, 18, 39, 20, 22, 34, 9, 31, 26, 18
            |21, 32, 31, 51, 10, 17, 20, 18, 16, 18, 26, 6, 36, 35, 42, 42, 11, 0, 16, 31, 33, 9, 10, 44, 22, 40, 17, 33, 31, 35, 35, 18, 24, 43, 30, 6, 34, 32, 35, 17, 28, 24, 28, 22, 17, 26, 28, 30, 12, 20, 41, 6, 29, 50, 20, 11, 44, 3, 36, 29, 27
            |15, 17, 35, 50, 14, 26, 18, 25, 19, 33, 36, 9, 35, 41, 43, 33, 18, 16, 0, 35, 37, 22, 6, 30, 34, 43, 17, 25, 20, 33, 22, 31, 11, 44, 36, 9, 25, 22, 30, 19, 13, 38, 15, 21, 31, 21, 34, 19, 26, 19, 29, 21, 33, 48, 5, 14, 40, 17, 24, 43, 36
            |23, 39, 1, 23, 23, 15, 49, 13, 17, 25, 15, 31, 11, 6, 12, 30, 20, 31, 35, 0, 1, 24, 30, 46, 18, 9, 19, 25, 30, 14, 36, 22, 32, 13, 5, 33, 28, 30, 20, 16, 40, 27, 34, 15, 25, 20, 4, 30, 25, 17, 38, 29, 3, 23, 35, 42, 23, 28, 35, 27, 10
            |24, 39, 2, 22, 24, 17, 51, 14, 18, 27, 16, 33, 11, 6, 11, 30, 21, 33, 37, 1, 0, 25, 32, 47, 19, 7, 20, 25, 31, 13, 37, 23, 33, 11, 6, 34, 29, 31, 20, 17, 41, 28, 35, 16, 26, 20, 5, 31, 26, 18, 38, 30, 4, 22, 36, 43, 22, 30, 35, 28, 11
            |21, 35, 24, 45, 10, 8, 29, 11, 12, 11, 16, 13, 30, 26, 35, 41, 7, 9, 22, 24, 25, 0, 16, 47, 13, 32, 15, 32, 32, 31, 37, 9, 27, 36, 21, 14, 34, 33, 32, 13, 33, 16, 31, 18, 9, 25, 20, 31, 4, 17, 42, 5, 22, 45, 25, 21, 40, 6, 38, 21, 18
            |13, 21, 30, 47, 8, 20, 20, 19, 14, 26, 30, 4, 32, 35, 39, 34, 12, 10, 6, 30, 32, 16, 0, 34, 28, 38, 12, 25, 21, 30, 25, 25, 14, 40, 31, 5, 25, 23, 28, 14, 18, 32, 18, 17, 25, 19, 28, 20, 20, 15, 31, 16, 28, 45, 10, 13, 38, 11, 26, 36, 30
            |27, 13, 45, 45, 37, 47, 45, 43, 37, 57, 56, 38, 38, 52, 46, 20, 40, 44, 30, 46, 47, 47, 34, 0, 55, 49, 34, 21, 16, 35, 11, 54, 21, 47, 50, 39, 18, 16, 28, 37, 18, 62, 16, 34, 56, 27, 47, 17, 51, 33, 9, 49, 43, 43, 25, 44, 33, 45, 11, 66, 53
            |28, 45, 19, 41, 20, 9, 42, 12, 18, 8, 4, 26, 28, 17, 30, 44, 16, 22, 34, 18, 19, 13, 28, 55, 0, 26, 21, 37, 39, 30, 45, 5, 36, 30, 13, 27, 39, 40, 34, 18, 43, 9, 40, 22, 8, 29, 14, 38, 11, 23, 49, 17, 18, 41, 36, 34, 40, 19, 45, 11, 9
            |29, 43, 8, 16, 31, 24, 57, 21, 24, 34, 22, 39, 10, 9, 5, 30, 28, 40, 43, 9, 7, 32, 38, 49, 26, 0, 26, 27, 34, 14, 39, 30, 37, 5, 12, 41, 31, 33, 21, 24, 45, 34, 39, 22, 33, 24, 13, 34, 33, 24, 40, 37, 11, 16, 42, 50, 20, 37, 38, 34, 17
            |7, 23, 18, 35, 6, 13, 32, 10, 4, 24, 22, 14, 20, 24, 27, 26, 7, 17, 17, 19, 20, 15, 12, 34, 21, 26, 0, 17, 18, 19, 23, 21, 15, 28, 20, 16, 19, 19, 18, 3, 23, 28, 19, 5, 22, 10, 17, 17, 18, 3, 28, 18, 16, 34, 17, 25, 28, 15, 24, 32, 21
            |12, 17, 24, 27, 23, 29, 43, 25, 20, 41, 36, 28, 17, 31, 25, 9, 25, 33, 25, 25, 25, 32, 25, 21, 37, 27, 17, 0, 8, 14, 12, 37, 15, 26, 29, 30, 3, 6, 7, 19, 21, 45, 14, 15, 39, 8, 26, 8, 36, 15, 13, 35, 22, 25, 21, 38, 16, 32, 10, 47, 33
            |11, 9, 29, 35, 22, 30, 37, 27, 21, 42, 39, 25, 24, 37, 32, 14, 25, 31, 20, 30, 31, 32, 21, 16, 39, 34, 18, 8, 0, 21, 6, 38, 9, 33, 34, 26, 6, 2, 15, 21, 14, 46, 6, 17, 40, 11, 31, 1, 36, 16, 11, 34, 28, 33, 15, 33, 23, 30, 6, 50, 36
            |19, 30, 12, 16, 25, 24, 50, 20, 19, 36, 28, 33, 3, 19, 11, 17, 24, 35, 33, 14, 13, 31, 30, 35, 30, 14, 19, 14, 21, 0, 26, 32, 26, 12, 19, 34, 17, 20, 7, 18, 34, 39, 27, 14, 35, 13, 17, 21, 33, 16, 26, 35, 12, 15, 31, 44, 10, 33, 24, 40, 23
            |16, 6, 35, 39, 27, 36, 39, 33, 27, 47, 45, 29, 29, 42, 37, 15, 30, 35, 22, 36, 37, 37, 25, 11, 45, 39, 23, 12, 6, 26, 0, 44, 11, 38, 40, 30, 9, 6, 19, 26, 13, 52, 7, 23, 46, 17, 37, 6, 41, 22, 7, 39, 33, 37, 17, 36, 27, 35, 3, 55, 42
            |28, 43, 22, 45, 18, 9, 37, 13, 17, 4, 9, 23, 31, 22, 34, 45, 14, 18, 31, 22, 23, 9, 25, 54, 5, 30, 21, 37, 38, 32, 44, 0, 35, 34, 17, 23, 39, 39, 35, 18, 41, 8, 39, 22, 3, 30, 17, 38, 6, 22, 49, 12, 21, 44, 34, 29, 42, 15, 44, 12, 13
            |9, 8, 31, 41, 17, 28, 29, 25, 19, 37, 38, 18, 28, 38, 37, 22, 21, 24, 11, 32, 33, 27, 14, 21, 36, 37, 15, 15, 9, 26, 11, 35, 0, 38, 35, 18, 14, 11, 21, 18, 8, 43, 4, 17, 36, 14, 31, 8, 31, 15, 18, 28, 29, 40, 7, 25, 30, 24, 13, 46, 36
            |30, 42, 12, 11, 33, 28, 60, 25, 27, 38, 27, 42, 9, 14, 1, 28, 31, 43, 44, 13, 11, 36, 40, 47, 30, 5, 28, 26, 33, 12, 38, 34, 38, 0, 17, 43, 29, 32, 19, 26, 45, 39, 39, 23, 37, 24, 17, 33, 37, 25, 38, 41, 14, 11, 43, 52, 16, 40, 36, 39, 22
            |25, 42, 7, 28, 23, 13, 49, 12, 17, 21, 10, 31, 17, 5, 17, 35, 19, 30, 36, 5, 6, 21, 31, 50, 13, 12, 20, 29, 34, 19, 40, 17, 35, 17, 0, 32, 32, 34, 25, 17, 42, 22, 37, 17, 21, 23, 3, 34, 21, 19, 42, 26, 7, 28, 37, 41, 28, 27, 39, 22, 5
            |18, 26, 32, 51, 10, 20, 17, 21, 16, 24, 30, 1, 35, 37, 42, 38, 13, 6, 9, 33, 34, 14, 5, 39, 27, 41, 16, 30, 26, 34, 30, 23, 18, 43, 32, 0, 30, 28, 33, 17, 22, 30, 23, 21, 23, 24, 30, 25, 18, 19, 36, 13, 30, 49, 14, 9, 42, 9, 31, 34, 31
            |13, 14, 27, 30, 25, 31, 43, 27, 22, 43, 39, 29, 20, 34, 28, 9, 27, 34, 25, 28, 29, 34, 25, 18, 39, 31, 19, 3, 6, 17, 9, 39, 14, 29, 32, 30, 0, 4, 10, 21, 19, 47, 12, 17, 42, 10, 29, 6, 38, 17, 10, 37, 26, 28, 21, 38, 18, 33, 7, 50, 35
            |12, 11, 29, 33, 23, 31, 40, 28, 22, 43, 40, 27, 23, 36, 31, 12, 26, 32, 22, 30, 31, 33, 23, 16, 40, 33, 19, 6, 2, 20, 6, 39, 11, 32, 34, 28, 4, 0, 13, 21, 16, 47, 8, 18, 41, 11, 31, 3, 37, 17, 9, 36, 27, 31, 17, 36, 21, 32, 5, 50, 37
            |15, 24, 18, 21, 25, 27, 47, 23, 20, 39, 33, 31, 10, 26, 18, 11, 25, 35, 30, 20, 20, 32, 28, 28, 34, 21, 18, 7, 15, 7, 19, 35, 21, 19, 25, 33, 10, 13, 0, 19, 28, 43, 21, 14, 38, 9, 22, 15, 35, 15, 19, 36, 18, 19, 27, 42, 10, 33, 17, 45, 29
            |10, 26, 16, 34, 7, 10, 34, 7, 1, 21, 19, 16, 19, 21, 25, 28, 6, 17, 19, 16, 17, 13, 14, 37, 18, 24, 3, 19, 21, 18, 26, 18, 18, 26, 17, 17, 21, 21, 19, 0, 26, 26, 22, 5, 20, 12, 14, 20, 16, 4, 31, 17, 13, 33, 20, 26, 28, 15, 26, 29, 17
            |17, 6, 39, 48, 23, 35, 27, 33, 26, 44, 45, 21, 36, 46, 44, 27, 27, 28, 13, 40, 41, 33, 18, 18, 43, 45, 23, 21, 14, 34, 13, 41, 8, 45, 42, 22, 19, 16, 28, 26, 0, 49, 7, 25, 42, 21, 39, 13, 37, 23, 19, 33, 37, 47, 8, 26, 37, 29, 15, 53, 43
            |35, 51, 28, 50, 26, 16, 42, 20, 25, 5, 12, 29, 37, 26, 39, 53, 22, 24, 38, 27, 28, 16, 32, 62, 9, 34, 28, 45, 46, 39, 52, 8, 43, 39, 22, 30, 47, 47, 43, 26, 49, 0, 47, 30, 7, 37, 23, 45, 12, 30, 57, 17, 27, 50, 41, 34, 49, 21, 52, 5, 17
            |12, 4, 33, 41, 21, 32, 32, 29, 22, 42, 41, 22, 29, 41, 38, 20, 25, 28, 15, 34, 35, 31, 18, 16, 40, 39, 19, 14, 6, 27, 7, 39, 4, 39, 37, 23, 12, 8, 21, 22, 7, 47, 0, 20, 40, 15, 34, 6, 35, 18, 14, 33, 31, 39, 10, 29, 30, 29, 9, 50, 39
            |8, 24, 14, 30, 11, 14, 37, 10, 6, 26, 22, 19, 15, 21, 22, 23, 11, 22, 21, 15, 16, 18, 17, 34, 22, 22, 5, 15, 17, 14, 23, 22, 17, 23, 17, 21, 17, 18, 14, 5, 25, 30, 20, 0, 25, 7, 14, 17, 21, 2, 27, 22, 12, 29, 20, 30, 23, 20, 23, 33, 19
            |29, 45, 25, 48, 19, 11, 36, 15, 19, 1, 12, 22, 34, 25, 37, 48, 16, 17, 31, 25, 26, 9, 25, 56, 8, 33, 22, 39, 40, 35, 46, 3, 36, 37, 21, 23, 42, 41, 38, 20, 42, 7, 40, 25, 0, 32, 21, 39, 5, 25, 51, 11, 24, 48, 35, 28, 45, 15, 46, 11, 16
            |6, 19, 18, 28, 16, 21, 39, 17, 13, 33, 29, 22, 15, 26, 23, 16, 17, 26, 21, 20, 20, 25, 19, 27, 29, 24, 10, 8, 11, 13, 17, 30, 14, 24, 23, 24, 10, 11, 9, 12, 21, 37, 15, 7, 32, 0, 20, 10, 28, 7, 20, 28, 17, 27, 19, 33, 19, 25, 16, 40, 26
            |22, 39, 5, 27, 20, 11, 47, 9, 14, 21, 11, 29, 15, 7, 16, 33, 17, 28, 34, 4, 5, 20, 28, 47, 14, 13, 17, 26, 31, 17, 37, 17, 31, 17, 3, 30, 29, 31, 22, 14, 39, 23, 34, 14, 21, 20, 0, 30, 21, 16, 39, 25, 4, 27, 34, 39, 26, 25, 36, 24, 7
            |10, 9, 29, 35, 21, 30, 36, 26, 21, 41, 39, 24, 24, 36, 32, 15, 24, 30, 19, 30, 31, 31, 20, 17, 38, 34, 17, 8, 1, 21, 6, 38, 8, 33, 34, 25, 6, 3, 15, 20, 13, 45, 6, 17, 39, 10, 30, 0, 35, 16, 12, 33, 27, 34, 14, 32, 24, 29, 7, 49, 36
            |25, 40, 25, 47, 14, 9, 31, 13, 16, 7, 15, 17, 33, 26, 37, 44, 11, 12, 26, 25, 26, 4, 20, 51, 11, 33, 18, 36, 36, 33, 41, 6, 31, 37, 21, 18, 38, 37, 35, 16, 37, 12, 35, 21, 5, 28, 21, 35, 0, 21, 47, 6, 23, 47, 29, 23, 43, 9, 42, 17, 18
            |6, 23, 16, 32, 9, 14, 35, 11, 5, 26, 23, 17, 17, 23, 24, 24, 10, 20, 19, 17, 18, 17, 15, 33, 23, 24, 3, 15, 16, 16, 22, 22, 15, 25, 19, 19, 17, 17, 15, 4, 23, 30, 18, 2, 25, 7, 16, 16, 21, 0, 26, 21, 14, 31, 18, 28, 24, 18, 22, 33, 21
            |21, 13, 37, 36, 33, 41, 46, 37, 32, 52, 49, 36, 29, 44, 37, 11, 35, 41, 29, 38, 38, 42, 31, 9, 49, 40, 28, 13, 11, 26, 7, 49, 18, 38, 42, 36, 10, 9, 19, 31, 19, 57, 14, 27, 51, 20, 39, 12, 47, 26, 0, 45, 36, 34, 24, 43, 24, 41, 5, 60, 45
            |24, 37, 29, 50, 12, 13, 25, 16, 16, 12, 21, 12, 35, 31, 40, 44, 11, 6, 21, 29, 30, 5, 16, 49, 17, 37, 18, 35, 34, 35, 39, 12, 28, 41, 26, 13, 37, 36, 36, 17, 33, 17, 33, 22, 11, 28, 25, 33, 6, 21, 45, 0, 27, 49, 25, 17, 45, 4, 40, 22, 23
            |20, 36, 2, 24, 20, 14, 47, 11, 14, 25, 16, 29, 10, 9, 13, 28, 18, 29, 33, 3, 4, 22, 28, 43, 18, 11, 16, 22, 28, 12, 33, 21, 29, 14, 7, 30, 26, 27, 18, 13, 37, 27, 31, 12, 24, 17, 4, 27, 23, 14, 36, 27, 0, 23, 32, 39, 22, 26, 32, 28, 11
            |33, 42, 22, 2, 40, 37, 65, 34, 34, 48, 38, 48, 14, 25, 11, 23, 39, 50, 48, 23, 22, 45, 45, 43, 41, 16, 34, 25, 33, 15, 37, 44, 40, 11, 28, 49, 28, 31, 19, 33, 47, 50, 39, 29, 48, 27, 27, 34, 47, 31, 34, 49, 23, 0, 46, 59, 10, 48, 34, 50, 33
            |13, 12, 35, 47, 16, 28, 22, 26, 20, 36, 38, 14, 34, 41, 42, 29, 20, 20, 5, 35, 36, 25, 10, 25, 36, 42, 17, 21, 15, 31, 17, 34, 7, 43, 37, 14, 21, 17, 27, 20, 8, 41, 10, 20, 35, 19, 34, 14, 29, 18, 24, 25, 32, 46, 0, 19, 37, 21, 19, 46, 37
            |26, 31, 41, 60, 19, 28, 8, 29, 25, 29, 37, 11, 45, 46, 52, 47, 22, 11, 14, 42, 43, 21, 13, 44, 34, 50, 25, 38, 33, 44, 36, 29, 25, 52, 41, 9, 38, 36, 42, 26, 26, 34, 29, 30, 28, 33, 39, 32, 23, 28, 43, 17, 39, 59, 19, 0, 51, 15, 38, 39, 39
            |25, 32, 22, 12, 34, 34, 57, 30, 29, 46, 38, 41, 12, 27, 15, 13, 34, 44, 40, 23, 22, 40, 38, 33, 40, 20, 28, 16, 23, 10, 27, 42, 30, 16, 28, 42, 18, 21, 10, 28, 37, 49, 30, 23, 45, 19, 26, 24, 43, 24, 24, 45, 22, 10, 37, 51, 0, 42, 24, 50, 33
            |20, 32, 28, 49, 9, 14, 23, 16, 14, 16, 23, 8, 34, 32, 39, 41, 9, 3, 17, 28, 30, 6, 11, 45, 19, 37, 15, 32, 30, 33, 35, 15, 24, 40, 27, 9, 33, 32, 33, 15, 29, 21, 29, 20, 15, 25, 25, 29, 9, 18, 41, 4, 26, 48, 21, 15, 42, 0, 36, 26, 24
            |17, 9, 34, 36, 28, 36, 41, 33, 27, 47, 45, 30, 27, 41, 35, 12, 31, 36, 24, 35, 35, 38, 26, 11, 45, 38, 24, 10, 6, 24, 3, 44, 13, 36, 39, 31, 7, 5, 17, 26, 15, 52, 9, 23, 46, 16, 36, 7, 42, 22, 5, 40, 32, 34, 19, 38, 24, 36, 0, 55, 42
            |39, 55, 29, 50, 30, 19, 47, 23, 28, 10, 12, 34, 38, 25, 39, 55, 26, 29, 43, 27, 28, 21, 36, 66, 11, 34, 32, 47, 50, 40, 55, 12, 46, 39, 22, 34, 50, 50, 45, 29, 53, 5, 50, 33, 11, 40, 24, 49, 17, 33, 60, 22, 28, 50, 46, 39, 50, 26, 55, 0, 17
            |27, 43, 11, 33, 22, 10, 47, 11, 17, 17, 5, 30, 21, 9, 22, 39, 18, 27, 36, 10, 11, 18, 30, 53, 9, 17, 21, 33, 36, 23, 42, 13, 36, 22, 5, 31, 35, 37, 29, 17, 43, 17, 39, 19, 16, 26, 7, 36, 18, 21, 45, 23, 11, 33, 37, 39, 33, 24, 42, 17, 0|];
early = [0, 136, 0, 343, 165, 235, 624, 0, 0, 185, 363, 151, 0, 589, 0, 293, 0, 165, 160, 0, 0, 165, 121, 487, 208, 0, 0, 77, 127, 30, 69, 190, 135, 0, 0, 169, 260, 74, 82, 0, 126, 395, 131, 257, 206, 83, 0, 78, 184, 0, 320, 161, 0, 58, 242, 435, 49, 380, 276, 353, 559];
late = [798, 252, 145, 465, 299, 373, 766, 124, 91, 372, 503, 344, 185, 708, 153, 441, 100, 327, 269, 153, 138, 355, 310, 635, 347, 153, 79, 219, 232, 208, 222, 339, 268, 128, 122, 318, 450, 237, 225, 117, 275, 555, 234, 399, 360, 216, 101, 243, 365, 64, 481, 364, 131, 183, 447, 620, 181, 537, 412, 540, 685];