% n60w120.004    19.73 676
n = 61;
duration = [|0, 51, 40, 44, 39, 41, 44, 32, 6, 45, 15, 36, 20, 9, 42, 30, 59, 32, 48, 25, 35, 47, 44, 42, 34, 6, 31, 22, 36, 27, 37, 38, 55, 21, 38, 29, 47, 17, 39, 39, 21, 34, 40, 23, 38, 17, 34, 34, 9, 11, 35, 7, 7, 42, 36, 45, 9, 42, 26, 49, 34
            |51, 0, 13, 30, 21, 22, 8, 23, 48, 23, 49, 38, 45, 52, 14, 25, 13, 34, 9, 26, 33, 11, 20, 18, 22, 52, 44, 50, 29, 40, 24, 43, 15, 46, 15, 48, 30, 34, 33, 47, 39, 21, 25, 49, 13, 52, 24, 32, 44, 40, 17, 51, 57, 23, 22, 16, 45, 42, 49, 2, 18
            |40, 13, 0, 20, 9, 23, 8, 18, 36, 14, 36, 26, 32, 40, 16, 20, 19, 31, 8, 16, 31, 7, 11, 8, 18, 40, 31, 37, 17, 27, 12, 30, 16, 33, 2, 35, 21, 24, 21, 34, 32, 8, 26, 36, 8, 40, 22, 30, 32, 30, 6, 39, 45, 25, 9, 8, 33, 31, 36, 12, 7
            |44, 30, 20, 0, 11, 43, 27, 35, 38, 7, 33, 12, 27, 39, 35, 37, 26, 48, 21, 28, 48, 19, 10, 12, 36, 41, 19, 30, 8, 19, 10, 15, 20, 27, 19, 24, 4, 33, 6, 18, 45, 16, 45, 28, 27, 35, 39, 47, 35, 37, 23, 39, 46, 44, 13, 14, 35, 13, 27, 30, 22
            |39, 21, 9, 11, 0, 31, 17, 24, 34, 7, 31, 17, 26, 36, 24, 26, 22, 37, 13, 18, 37, 11, 5, 4, 25, 37, 23, 31, 8, 20, 3, 22, 17, 27, 8, 27, 13, 25, 12, 26, 35, 5, 34, 29, 16, 34, 28, 36, 30, 30, 12, 35, 42, 33, 3, 7, 30, 22, 29, 20, 11
            |41, 22, 23, 43, 31, 0, 18, 10, 40, 37, 45, 46, 44, 45, 8, 11, 35, 14, 27, 21, 11, 28, 34, 31, 8, 44, 48, 49, 38, 43, 33, 50, 36, 46, 24, 51, 44, 25, 42, 54, 22, 28, 3, 49, 16, 49, 7, 11, 36, 30, 20, 43, 48, 1, 30, 31, 38, 52, 51, 20, 21
            |44, 8, 8, 27, 17, 18, 0, 16, 40, 21, 42, 34, 38, 44, 9, 18, 18, 28, 9, 19, 27, 10, 18, 15, 15, 44, 38, 43, 24, 34, 19, 38, 18, 39, 9, 42, 28, 26, 29, 42, 31, 15, 21, 42, 6, 45, 18, 26, 36, 33, 9, 43, 49, 19, 16, 14, 37, 38, 43, 6, 10
            |32, 23, 18, 35, 24, 10, 16, 0, 30, 31, 35, 37, 34, 35, 10, 2, 34, 13, 24, 11, 13, 24, 28, 25, 2, 35, 39, 39, 29, 33, 26, 41, 33, 35, 17, 41, 37, 15, 34, 45, 16, 20, 11, 39, 11, 39, 4, 12, 26, 21, 13, 33, 38, 11, 22, 26, 28, 43, 40, 21, 13
            |6, 48, 36, 38, 34, 40, 40, 30, 0, 39, 9, 30, 14, 5, 40, 29, 54, 33, 44, 22, 36, 42, 39, 37, 32, 4, 25, 16, 30, 21, 32, 32, 50, 16, 34, 23, 42, 15, 33, 33, 22, 30, 40, 17, 35, 13, 33, 35, 4, 10, 31, 3, 9, 41, 31, 40, 4, 36, 21, 46, 30
            |45, 23, 14, 7, 7, 37, 21, 31, 39, 0, 36, 17, 30, 41, 29, 32, 19, 44, 14, 25, 44, 12, 3, 6, 31, 42, 25, 34, 10, 23, 8, 21, 14, 31, 13, 30, 7, 31, 11, 25, 42, 12, 39, 32, 21, 38, 35, 42, 36, 36, 18, 41, 47, 38, 10, 7, 36, 20, 32, 23, 18
            |15, 49, 36, 33, 31, 45, 42, 35, 9, 36, 0, 23, 6, 7, 43, 34, 53, 40, 43, 25, 43, 42, 36, 35, 37, 9, 17, 7, 26, 14, 29, 24, 48, 7, 34, 14, 37, 21, 28, 25, 31, 29, 46, 8, 37, 4, 38, 41, 11, 17, 32, 8, 13, 46, 29, 39, 9, 28, 11, 47, 31
            |36, 38, 26, 12, 17, 46, 34, 37, 30, 17, 23, 0, 17, 30, 40, 37, 37, 48, 30, 27, 49, 28, 19, 20, 38, 32, 8, 19, 9, 9, 14, 4, 31, 17, 24, 13, 15, 30, 6, 9, 42, 19, 48, 17, 31, 24, 41, 48, 28, 32, 26, 31, 36, 47, 17, 23, 27, 7, 16, 38, 26
            |20, 45, 32, 27, 26, 44, 38, 34, 14, 30, 6, 17, 0, 13, 41, 34, 48, 41, 39, 24, 43, 37, 31, 30, 36, 15, 11, 5, 21, 8, 24, 18, 43, 1, 30, 9, 31, 21, 22, 19, 33, 24, 45, 4, 34, 8, 38, 42, 14, 20, 29, 14, 19, 46, 24, 34, 12, 22, 7, 44, 28
            |9, 52, 40, 39, 36, 45, 44, 35, 5, 41, 7, 30, 13, 0, 44, 34, 57, 38, 47, 26, 41, 46, 41, 40, 37, 2, 24, 13, 32, 21, 34, 31, 53, 14, 37, 21, 43, 20, 34, 32, 28, 33, 45, 15, 39, 9, 38, 40, 9, 15, 35, 2, 6, 46, 33, 43, 7, 35, 18, 50, 34
            |42, 14, 16, 35, 24, 8, 9, 10, 40, 29, 43, 40, 41, 44, 0, 12, 27, 20, 19, 18, 18, 19, 26, 23, 8, 44, 43, 46, 31, 38, 26, 44, 27, 42, 16, 46, 36, 24, 36, 48, 25, 21, 11, 45, 9, 47, 10, 17, 35, 30, 13, 42, 48, 9, 23, 23, 37, 45, 47, 12, 14
            |30, 25, 20, 37, 26, 11, 18, 2, 29, 32, 34, 37, 34, 34, 12, 0, 36, 11, 26, 11, 12, 26, 30, 27, 4, 33, 39, 39, 30, 33, 27, 42, 35, 35, 19, 41, 39, 14, 35, 45, 14, 21, 11, 38, 13, 38, 4, 10, 25, 19, 14, 32, 37, 12, 23, 28, 27, 44, 40, 23, 15
            |59, 13, 19, 26, 22, 35, 18, 34, 54, 19, 53, 37, 48, 57, 27, 36, 0, 47, 11, 35, 45, 12, 18, 18, 34, 58, 44, 53, 29, 42, 25, 40, 6, 49, 21, 49, 24, 42, 31, 44, 49, 25, 38, 51, 23, 56, 36, 44, 50, 49, 25, 57, 63, 36, 24, 15, 51, 39, 51, 15, 25
            |32, 34, 31, 48, 37, 14, 28, 13, 33, 44, 40, 48, 41, 38, 20, 11, 47, 0, 37, 21, 3, 37, 41, 38, 13, 37, 48, 46, 41, 42, 38, 52, 46, 43, 31, 49, 50, 20, 46, 55, 11, 32, 11, 46, 24, 44, 10, 3, 30, 23, 26, 36, 39, 13, 35, 39, 32, 54, 48, 32, 26
            |48, 9, 8, 21, 13, 27, 9, 24, 44, 14, 43, 30, 39, 47, 19, 26, 11, 37, 0, 24, 36, 2, 11, 10, 24, 48, 36, 44, 21, 33, 16, 34, 9, 40, 10, 41, 21, 32, 24, 38, 39, 15, 30, 42, 13, 47, 27, 35, 40, 38, 14, 46, 52, 28, 15, 7, 40, 34, 42, 9, 14
            |25, 26, 16, 28, 18, 21, 19, 11, 22, 25, 25, 27, 24, 26, 18, 11, 35, 21, 24, 0, 22, 23, 23, 20, 13, 26, 28, 28, 21, 22, 18, 31, 32, 25, 14, 30, 30, 8, 25, 35, 17, 13, 22, 28, 13, 29, 15, 21, 17, 14, 10, 25, 30, 22, 15, 23, 19, 34, 30, 24, 9
            |35, 33, 31, 48, 37, 11, 27, 13, 36, 44, 43, 49, 43, 41, 18, 12, 45, 3, 36, 22, 0, 36, 41, 38, 12, 39, 50, 48, 42, 44, 38, 53, 45, 45, 30, 51, 50, 22, 47, 57, 14, 33, 9, 48, 23, 47, 9, 1, 32, 26, 26, 39, 42, 11, 35, 39, 34, 55, 50, 30, 26
            |47, 11, 7, 19, 11, 28, 10, 24, 42, 12, 42, 28, 37, 46, 19, 26, 12, 37, 2, 23, 36, 0, 9, 8, 24, 46, 34, 42, 19, 31, 14, 32, 9, 38, 9, 39, 19, 31, 22, 36, 38, 13, 30, 40, 13, 45, 27, 35, 38, 37, 13, 45, 51, 29, 13, 5, 39, 32, 40, 11, 13
            |44, 20, 11, 10, 5, 34, 18, 28, 39, 3, 36, 19, 31, 41, 26, 30, 18, 41, 11, 23, 41, 9, 0, 3, 29, 42, 26, 35, 11, 24, 7, 23, 13, 31, 11, 31, 10, 30, 13, 27, 40, 10, 37, 33, 18, 39, 32, 40, 35, 35, 16, 41, 47, 36, 9, 4, 35, 22, 33, 20, 15
            |42, 18, 8, 12, 4, 31, 15, 25, 37, 6, 35, 20, 30, 40, 23, 27, 18, 38, 10, 20, 38, 8, 3, 0, 26, 40, 26, 34, 11, 23, 6, 24, 13, 30, 8, 31, 13, 27, 14, 28, 37, 8, 34, 33, 15, 38, 29, 37, 33, 33, 12, 39, 45, 32, 6, 4, 33, 24, 33, 18, 12
            |34, 22, 18, 36, 25, 8, 15, 2, 32, 31, 37, 38, 36, 37, 8, 4, 34, 13, 24, 13, 12, 24, 29, 26, 0, 36, 40, 41, 30, 35, 27, 43, 33, 37, 18, 43, 38, 17, 35, 46, 17, 21, 9, 41, 11, 41, 3, 11, 28, 23, 13, 35, 40, 9, 23, 27, 30, 45, 42, 20, 14
            |6, 52, 40, 41, 37, 44, 44, 35, 4, 42, 9, 32, 15, 2, 44, 33, 58, 37, 48, 26, 39, 46, 42, 40, 36, 0, 26, 16, 33, 23, 35, 33, 54, 16, 38, 23, 44, 19, 35, 34, 26, 33, 44, 17, 39, 11, 37, 38, 9, 14, 35, 1, 5, 45, 34, 44, 7, 37, 20, 50, 34
            |31, 44, 31, 19, 23, 48, 38, 39, 25, 25, 17, 8, 11, 24, 43, 39, 44, 48, 36, 28, 50, 34, 26, 26, 40, 26, 0, 12, 15, 6, 20, 7, 38, 10, 29, 5, 23, 28, 14, 8, 41, 23, 50, 10, 35, 17, 43, 48, 24, 29, 30, 25, 30, 50, 22, 30, 23, 11, 8, 43, 29
            |22, 50, 37, 30, 31, 49, 43, 39, 16, 34, 7, 19, 5, 13, 46, 39, 53, 46, 44, 28, 48, 42, 35, 34, 41, 16, 12, 0, 24, 11, 28, 19, 48, 4, 35, 8, 34, 25, 25, 19, 36, 29, 50, 2, 39, 5, 43, 47, 17, 23, 34, 15, 19, 50, 29, 38, 15, 23, 5, 49, 33
            |36, 29, 17, 8, 8, 38, 24, 29, 30, 10, 26, 9, 21, 32, 31, 30, 29, 41, 21, 21, 42, 19, 11, 11, 30, 33, 15, 24, 0, 13, 5, 14, 23, 21, 15, 20, 11, 25, 5, 18, 37, 10, 40, 22, 22, 28, 33, 40, 27, 29, 18, 32, 38, 39, 8, 14, 27, 14, 22, 28, 17
            |27, 40, 27, 19, 20, 43, 34, 33, 21, 23, 14, 9, 8, 21, 38, 33, 42, 42, 33, 22, 44, 31, 24, 23, 35, 23, 6, 11, 13, 0, 17, 11, 36, 8, 25, 8, 23, 23, 14, 13, 35, 19, 44, 9, 30, 16, 37, 43, 19, 24, 25, 21, 27, 44, 18, 27, 18, 15, 9, 39, 24
            |37, 24, 12, 10, 3, 33, 19, 26, 32, 8, 29, 14, 24, 34, 26, 27, 25, 38, 16, 18, 38, 14, 7, 6, 27, 35, 20, 28, 5, 17, 0, 19, 19, 24, 10, 25, 12, 24, 9, 23, 35, 6, 35, 26, 18, 32, 30, 37, 28, 29, 13, 34, 40, 35, 4, 10, 28, 19, 26, 23, 13
            |38, 43, 30, 15, 22, 50, 38, 41, 32, 21, 24, 4, 18, 31, 44, 42, 40, 52, 34, 31, 53, 32, 23, 24, 43, 33, 7, 19, 14, 11, 19, 0, 35, 17, 29, 12, 17, 33, 10, 4, 46, 23, 52, 17, 36, 24, 45, 52, 30, 35, 31, 32, 37, 52, 22, 27, 29, 4, 15, 42, 30
            |55, 15, 16, 20, 17, 36, 18, 33, 50, 14, 48, 31, 43, 53, 27, 35, 6, 46, 9, 32, 45, 9, 13, 13, 33, 54, 38, 48, 23, 36, 19, 35, 0, 44, 17, 43, 18, 39, 25, 38, 48, 21, 39, 46, 22, 51, 36, 44, 46, 45, 22, 52, 59, 37, 20, 10, 47, 33, 45, 17, 22
            |21, 46, 33, 27, 27, 46, 39, 35, 16, 31, 7, 17, 1, 14, 42, 35, 49, 43, 40, 25, 45, 38, 31, 30, 37, 16, 10, 4, 21, 8, 24, 17, 44, 0, 31, 8, 31, 22, 21, 18, 34, 25, 46, 3, 35, 8, 39, 43, 15, 21, 30, 15, 20, 47, 25, 34, 13, 21, 6, 45, 29
            |38, 15, 2, 19, 8, 24, 9, 17, 34, 13, 34, 24, 30, 37, 16, 19, 21, 31, 10, 14, 30, 9, 11, 8, 18, 38, 29, 35, 15, 25, 10, 29, 17, 31, 0, 33, 20, 22, 20, 33, 30, 6, 26, 34, 8, 37, 21, 29, 30, 28, 5, 36, 43, 25, 7, 9, 31, 30, 34, 14, 5
            |29, 48, 35, 24, 27, 51, 42, 41, 23, 30, 14, 13, 9, 21, 46, 41, 49, 49, 41, 30, 51, 39, 31, 31, 43, 23, 5, 8, 20, 8, 25, 12, 43, 8, 33, 0, 28, 29, 19, 11, 41, 27, 52, 6, 38, 13, 45, 50, 23, 29, 33, 22, 27, 52, 26, 34, 21, 16, 3, 47, 32
            |47, 30, 21, 4, 13, 44, 28, 37, 42, 7, 37, 15, 31, 43, 36, 39, 24, 50, 21, 30, 50, 19, 10, 13, 38, 44, 23, 34, 11, 23, 12, 17, 18, 31, 20, 28, 0, 36, 9, 21, 47, 18, 46, 32, 28, 38, 41, 49, 39, 40, 25, 43, 49, 45, 16, 14, 38, 15, 30, 30, 24
            |17, 34, 24, 33, 25, 25, 26, 15, 15, 31, 21, 30, 21, 20, 24, 14, 42, 20, 32, 8, 22, 31, 30, 27, 17, 19, 28, 25, 25, 23, 24, 33, 39, 22, 22, 29, 36, 0, 30, 36, 13, 20, 25, 26, 21, 25, 18, 21, 11, 6, 18, 18, 23, 26, 21, 30, 13, 36, 28, 32, 17
            |39, 33, 21, 6, 12, 42, 29, 34, 33, 11, 28, 6, 22, 34, 36, 35, 31, 46, 24, 25, 47, 22, 13, 14, 35, 35, 14, 25, 5, 14, 9, 10, 25, 21, 20, 19, 9, 30, 0, 14, 42, 15, 45, 23, 27, 29, 38, 45, 30, 33, 23, 34, 40, 44, 13, 17, 30, 10, 21, 32, 22
            |39, 47, 34, 18, 26, 54, 42, 45, 33, 25, 25, 9, 19, 32, 48, 45, 44, 55, 38, 35, 57, 36, 27, 28, 46, 34, 8, 19, 18, 13, 23, 4, 38, 18, 33, 11, 21, 36, 14, 0, 49, 27, 56, 17, 40, 24, 49, 55, 32, 37, 35, 33, 38, 55, 26, 31, 31, 6, 14, 46, 34
            |21, 39, 32, 45, 35, 22, 31, 16, 22, 42, 31, 42, 33, 28, 25, 14, 49, 11, 39, 17, 14, 38, 40, 37, 17, 26, 41, 36, 37, 35, 35, 46, 48, 34, 30, 41, 47, 13, 42, 49, 0, 30, 21, 37, 26, 34, 16, 13, 20, 13, 25, 25, 28, 22, 32, 39, 22, 49, 40, 36, 25
            |34, 21, 8, 16, 5, 28, 15, 20, 30, 12, 29, 19, 24, 33, 21, 21, 25, 32, 15, 13, 33, 13, 10, 8, 21, 33, 23, 29, 10, 19, 6, 23, 21, 25, 6, 27, 18, 20, 15, 27, 30, 0, 30, 28, 13, 32, 24, 31, 26, 25, 8, 32, 38, 29, 2, 11, 26, 24, 28, 20, 7
            |40, 25, 26, 45, 34, 3, 21, 11, 40, 39, 46, 48, 45, 45, 11, 11, 38, 11, 30, 22, 9, 30, 37, 34, 9, 44, 50, 50, 40, 44, 35, 52, 39, 46, 26, 52, 46, 25, 45, 56, 21, 30, 0, 50, 18, 50, 7, 8, 36, 30, 22, 43, 47, 2, 32, 34, 38, 54, 52, 23, 23
            |23, 49, 36, 28, 29, 49, 42, 39, 17, 32, 8, 17, 4, 15, 45, 38, 51, 46, 42, 28, 48, 40, 33, 33, 41, 17, 10, 2, 22, 9, 26, 17, 46, 3, 34, 6, 32, 26, 23, 17, 37, 28, 50, 0, 38, 7, 42, 47, 18, 24, 33, 16, 21, 50, 27, 36, 16, 21, 3, 48, 32
            |38, 13, 8, 27, 16, 16, 6, 11, 35, 21, 37, 31, 34, 39, 9, 13, 23, 24, 13, 13, 23, 13, 18, 15, 11, 39, 35, 39, 22, 30, 18, 36, 22, 35, 8, 38, 28, 21, 27, 40, 26, 13, 18, 38, 0, 41, 14, 22, 30, 27, 5, 38, 43, 17, 14, 16, 32, 37, 39, 11, 6
            |17, 52, 40, 35, 34, 49, 45, 39, 13, 38, 4, 24, 8, 9, 47, 38, 56, 44, 47, 29, 47, 45, 39, 38, 41, 11, 17, 5, 28, 16, 32, 24, 51, 8, 37, 13, 38, 25, 29, 24, 34, 32, 50, 7, 41, 0, 43, 46, 15, 21, 36, 11, 14, 50, 32, 41, 13, 28, 10, 51, 35
            |34, 24, 22, 39, 28, 7, 18, 4, 33, 35, 38, 41, 38, 38, 10, 4, 36, 10, 27, 15, 9, 27, 32, 29, 3, 37, 43, 43, 33, 37, 30, 45, 36, 39, 21, 45, 41, 18, 38, 49, 16, 24, 7, 42, 14, 43, 0, 8, 29, 23, 17, 36, 41, 8, 26, 30, 31, 47, 44, 22, 17
            |34, 32, 30, 47, 36, 11, 26, 12, 35, 42, 41, 48, 42, 40, 17, 10, 44, 3, 35, 21, 1, 35, 40, 37, 11, 38, 48, 47, 40, 43, 37, 52, 44, 43, 29, 50, 49, 21, 45, 55, 13, 31, 8, 47, 22, 46, 8, 0, 31, 25, 24, 37, 41, 11, 34, 38, 33, 54, 49, 30, 25
            |9, 44, 32, 35, 30, 36, 36, 26, 4, 36, 11, 28, 14, 9, 35, 25, 50, 30, 40, 17, 32, 38, 35, 33, 28, 9, 24, 17, 27, 19, 28, 30, 46, 15, 30, 23, 39, 11, 30, 32, 20, 26, 36, 18, 30, 15, 29, 31, 0, 7, 27, 7, 13, 37, 27, 36, 2, 34, 21, 42, 26
            |11, 40, 30, 37, 30, 30, 33, 21, 10, 36, 17, 32, 20, 15, 30, 19, 49, 23, 38, 14, 26, 37, 35, 33, 23, 14, 29, 23, 29, 24, 29, 35, 45, 21, 28, 29, 40, 6, 33, 37, 13, 25, 30, 24, 27, 21, 23, 25, 7, 0, 24, 13, 17, 31, 27, 36, 9, 38, 27, 38, 23
            |35, 17, 6, 23, 12, 20, 9, 13, 31, 18, 32, 26, 29, 35, 13, 14, 25, 26, 14, 10, 26, 13, 16, 12, 13, 35, 30, 34, 18, 25, 13, 31, 22, 30, 5, 33, 25, 18, 23, 35, 25, 8, 22, 33, 5, 36, 17, 24, 27, 24, 0, 34, 40, 21, 10, 14, 28, 32, 34, 15, 1
            |7, 51, 39, 39, 35, 43, 43, 33, 3, 41, 8, 31, 14, 2, 42, 32, 57, 36, 46, 25, 39, 45, 41, 39, 35, 1, 25, 15, 32, 21, 34, 32, 52, 15, 36, 22, 43, 18, 34, 33, 25, 32, 43, 16, 38, 11, 36, 37, 7, 13, 34, 0, 6, 44, 33, 42, 6, 36, 20, 49, 33
            |7, 57, 45, 46, 42, 48, 49, 38, 9, 47, 13, 36, 19, 6, 48, 37, 63, 39, 52, 30, 42, 51, 47, 45, 40, 5, 30, 19, 38, 27, 40, 37, 59, 20, 43, 27, 49, 23, 40, 38, 28, 38, 47, 21, 43, 14, 41, 41, 13, 17, 40, 6, 0, 49, 39, 49, 12, 42, 24, 55, 39
            |42, 23, 25, 44, 33, 1, 19, 11, 41, 38, 46, 47, 46, 46, 9, 12, 36, 13, 28, 22, 11, 29, 36, 32, 9, 45, 50, 50, 39, 44, 35, 52, 37, 47, 25, 52, 45, 26, 44, 55, 22, 29, 2, 50, 17, 50, 8, 11, 37, 31, 21, 44, 49, 0, 31, 33, 39, 53, 52, 21, 22
            |36, 22, 9, 13, 3, 30, 16, 22, 31, 10, 29, 17, 24, 33, 23, 23, 24, 35, 15, 15, 35, 13, 9, 6, 23, 34, 22, 29, 8, 18, 4, 22, 20, 25, 7, 26, 16, 21, 13, 26, 32, 2, 32, 27, 14, 32, 26, 34, 27, 27, 10, 33, 39, 31, 0, 10, 27, 22, 27, 21, 9
            |45, 16, 8, 14, 7, 31, 14, 26, 40, 7, 39, 23, 34, 43, 23, 28, 15, 39, 7, 23, 39, 5, 4, 4, 27, 44, 30, 38, 14, 27, 10, 27, 10, 34, 9, 34, 14, 30, 17, 31, 39, 11, 34, 36, 16, 41, 30, 38, 36, 36, 14, 42, 49, 33, 10, 0, 37, 26, 36, 16, 14
            |9, 45, 33, 35, 30, 38, 37, 28, 4, 36, 9, 27, 12, 7, 37, 27, 51, 32, 40, 19, 34, 39, 35, 33, 30, 7, 23, 15, 27, 18, 28, 29, 47, 13, 31, 21, 38, 13, 30, 31, 22, 26, 38, 16, 32, 13, 31, 33, 2, 9, 28, 6, 12, 39, 27, 37, 0, 33, 19, 43, 27
            |42, 42, 31, 13, 22, 52, 38, 43, 36, 20, 28, 7, 22, 35, 45, 44, 39, 54, 34, 34, 55, 32, 22, 24, 45, 37, 11, 23, 14, 15, 19, 4, 33, 21, 30, 16, 15, 36, 10, 6, 49, 24, 54, 21, 37, 28, 47, 54, 34, 38, 32, 36, 42, 53, 22, 26, 33, 0, 19, 42, 31
            |26, 49, 36, 27, 29, 51, 43, 40, 21, 32, 11, 16, 7, 18, 47, 40, 51, 48, 42, 30, 50, 40, 33, 33, 42, 20, 8, 5, 22, 9, 26, 15, 45, 6, 34, 3, 30, 28, 21, 14, 40, 28, 52, 3, 39, 10, 44, 49, 21, 27, 34, 20, 24, 52, 27, 36, 19, 19, 0, 48, 33
            |49, 2, 12, 30, 20, 20, 6, 21, 46, 23, 47, 38, 44, 50, 12, 23, 15, 32, 9, 24, 30, 11, 20, 18, 20, 50, 43, 49, 28, 39, 23, 42, 17, 45, 14, 47, 30, 32, 32, 46, 36, 20, 23, 48, 11, 51, 22, 30, 42, 38, 15, 49, 55, 21, 21, 16, 43, 42, 48, 0, 16
            |34, 18, 7, 22, 11, 21, 10, 13, 30, 18, 31, 26, 28, 34, 14, 15, 25, 26, 14, 9, 26, 13, 15, 12, 14, 34, 29, 33, 17, 24, 13, 30, 22, 29, 5, 32, 24, 17, 22, 34, 25, 7, 23, 32, 6, 35, 17, 25, 26, 23, 1, 33, 39, 22, 9, 14, 27, 31, 33, 16, 0|];
early = [0, 152, 91, 52, 64, 171, 149, 189, 0, 53, 0, 30, 0, 0, 162, 187, 471, 201, 127, 249, 214, 119, 117, 64, 242, 0, 289, 8, 276, 29, 57, 282, 415, 0, 98, 17, 461, 351, 29, 288, 200, 66, 176, 0, 100, 301, 176, 191, 0, 0, 83, 533, 315, 381, 61, 104, 0, 565, 0, 428, 511];
late = [734, 265, 228, 159, 173, 286, 265, 309, 79, 171, 105, 157, 114, 63, 281, 298, 610, 311, 254, 370, 350, 228, 241, 184, 350, 66, 405, 125, 379, 139, 194, 407, 520, 114, 223, 140, 574, 476, 160, 410, 333, 163, 287, 119, 221, 427, 292, 315, 83, 74, 202, 656, 454, 483, 177, 230, 96, 692, 122, 555, 619];