% n60w180.003	   74.73 664
n = 61;
duration = [|0, 30, 17, 15, 18, 15, 36, 14, 25, 31, 19, 7, 15, 14, 17, 19, 36, 25, 33, 14, 28, 20, 16, 21, 27, 29, 34, 25, 25, 35, 18, 26, 10, 31, 17, 13, 28, 9, 14, 20, 12, 2, 27, 27, 11, 40, 5, 5, 6, 35, 24, 19, 8, 12, 18, 15, 10, 24, 12, 24, 33
            |30, 0, 32, 23, 14, 41, 35, 36, 52, 33, 48, 36, 21, 39, 40, 32, 6, 44, 3, 42, 7, 11, 39, 10, 8, 41, 15, 49, 16, 11, 33, 23, 41, 40, 18, 21, 42, 30, 43, 23, 30, 33, 51, 50, 30, 35, 30, 28, 24, 5, 32, 37, 36, 19, 19, 19, 40, 9, 42, 52, 33
            |17, 32, 0, 9, 18, 13, 20, 31, 23, 15, 21, 23, 11, 11, 34, 1, 37, 13, 34, 30, 26, 25, 9, 25, 25, 12, 27, 18, 18, 31, 35, 14, 21, 13, 14, 11, 12, 8, 29, 9, 29, 18, 20, 18, 6, 25, 22, 21, 16, 35, 7, 5, 25, 21, 30, 13, 20, 30, 20, 24, 17
            |15, 23, 9, 0, 9, 19, 22, 28, 31, 17, 27, 22, 2, 17, 32, 9, 28, 21, 26, 29, 18, 16, 16, 16, 16, 20, 20, 26, 11, 23, 30, 11, 23, 20, 5, 3, 20, 9, 29, 5, 24, 17, 28, 27, 8, 26, 19, 17, 11, 26, 12, 14, 23, 14, 23, 4, 22, 22, 23, 30, 19
            |18, 14, 18, 9, 0, 27, 27, 28, 38, 24, 34, 25, 7, 25, 32, 18, 20, 30, 17, 31, 10, 8, 25, 8, 9, 29, 16, 35, 9, 17, 27, 14, 28, 28, 4, 7, 29, 16, 32, 11, 22, 20, 37, 36, 16, 29, 19, 17, 12, 18, 20, 23, 25, 9, 17, 5, 27, 13, 29, 38, 24
            |15, 41, 13, 19, 27, 0, 32, 26, 11, 27, 8, 17, 20, 2, 28, 14, 47, 12, 44, 22, 37, 32, 4, 33, 36, 19, 39, 10, 30, 42, 33, 27, 12, 22, 24, 20, 17, 11, 21, 22, 27, 14, 12, 12, 12, 38, 20, 20, 19, 45, 19, 10, 19, 26, 33, 22, 10, 37, 9, 11, 30
            |36, 35, 20, 22, 27, 32, 0, 50, 40, 5, 40, 43, 24, 30, 53, 19, 39, 24, 37, 50, 28, 35, 28, 34, 27, 16, 22, 32, 19, 28, 52, 13, 41, 12, 24, 25, 18, 27, 49, 17, 46, 37, 33, 31, 25, 6, 40, 39, 33, 35, 13, 22, 44, 35, 43, 25, 40, 39, 40, 41, 3
            |14, 36, 31, 28, 28, 26, 50, 0, 33, 45, 27, 9, 27, 26, 4, 32, 40, 38, 38, 8, 36, 25, 28, 26, 36, 42, 44, 36, 36, 44, 8, 39, 16, 44, 28, 25, 41, 23, 10, 33, 6, 13, 38, 38, 25, 53, 9, 11, 17, 41, 38, 33, 7, 18, 18, 26, 17, 27, 19, 31, 47
            |25, 52, 23, 31, 38, 11, 40, 33, 0, 35, 6, 25, 32, 14, 34, 24, 58, 16, 55, 27, 48, 43, 14, 44, 47, 24, 50, 9, 41, 54, 41, 38, 17, 28, 35, 31, 22, 22, 25, 33, 35, 23, 9, 10, 23, 46, 29, 30, 30, 56, 28, 19, 26, 36, 43, 34, 16, 48, 14, 2, 38
            |31, 33, 15, 17, 24, 27, 5, 45, 35, 0, 34, 38, 19, 25, 48, 13, 38, 19, 36, 44, 26, 32, 23, 31, 25, 12, 22, 27, 17, 28, 47, 10, 36, 9, 20, 21, 14, 22, 44, 13, 41, 32, 29, 27, 20, 11, 35, 34, 29, 34, 8, 16, 39, 31, 40, 21, 34, 36, 35, 36, 3
            |19, 48, 21, 27, 34, 8, 40, 27, 6, 34, 0, 18, 28, 10, 28, 22, 54, 17, 51, 21, 44, 38, 12, 39, 43, 25, 47, 11, 38, 50, 35, 35, 11, 29, 31, 27, 23, 18, 19, 30, 29, 17, 13, 14, 19, 45, 23, 24, 25, 52, 27, 18, 20, 31, 38, 30, 10, 43, 8, 4, 37
            |7, 36, 23, 22, 25, 17, 43, 9, 25, 38, 18, 0, 22, 17, 11, 25, 41, 29, 39, 7, 35, 25, 20, 26, 34, 34, 41, 27, 33, 42, 16, 34, 7, 36, 24, 21, 33, 16, 7, 27, 11, 6, 29, 29, 18, 48, 7, 9, 13, 41, 30, 24, 2, 18, 21, 22, 8, 29, 10, 23, 40
            |15, 21, 11, 2, 7, 20, 24, 27, 32, 19, 28, 22, 0, 18, 31, 11, 27, 23, 24, 28, 17, 14, 18, 15, 15, 22, 20, 28, 11, 22, 28, 12, 23, 22, 4, 1, 22, 10, 29, 6, 23, 16, 30, 29, 9, 27, 17, 16, 10, 25, 14, 16, 22, 12, 21, 2, 22, 20, 23, 31, 21
            |14, 39, 11, 17, 25, 2, 30, 26, 14, 25, 10, 17, 18, 0, 28, 12, 45, 12, 42, 22, 35, 30, 3, 31, 33, 18, 37, 11, 28, 40, 32, 25, 12, 21, 22, 18, 16, 8, 21, 20, 26, 13, 14, 13, 9, 36, 19, 19, 17, 43, 17, 9, 19, 24, 32, 20, 11, 35, 10, 13, 28
            |17, 40, 34, 32, 32, 28, 53, 4, 34, 48, 28, 11, 31, 28, 0, 35, 44, 40, 42, 7, 41, 29, 31, 30, 40, 45, 48, 38, 40, 48, 10, 43, 17, 47, 32, 29, 44, 26, 9, 37, 10, 16, 40, 40, 28, 57, 13, 15, 21, 45, 41, 36, 9, 23, 21, 30, 18, 31, 20, 32, 50
            |19, 32, 1, 9, 18, 14, 19, 32, 24, 13, 22, 25, 11, 12, 35, 0, 37, 12, 35, 31, 26, 26, 10, 26, 25, 11, 26, 18, 18, 31, 36, 14, 22, 12, 14, 12, 11, 9, 31, 9, 30, 19, 20, 18, 7, 24, 23, 22, 18, 35, 6, 5, 26, 22, 31, 14, 21, 31, 21, 25, 16
            |36, 6, 37, 28, 20, 47, 39, 40, 58, 38, 54, 41, 27, 45, 44, 37, 0, 50, 3, 46, 12, 16, 45, 15, 13, 47, 18, 55, 21, 12, 36, 28, 46, 45, 23, 27, 47, 36, 48, 29, 34, 38, 57, 55, 35, 38, 35, 33, 30, 4, 38, 42, 41, 24, 23, 25, 46, 13, 48, 58, 37
            |25, 44, 13, 21, 30, 12, 24, 38, 16, 19, 17, 29, 23, 12, 40, 12, 50, 0, 47, 34, 38, 37, 9, 38, 37, 8, 38, 8, 30, 42, 44, 24, 24, 12, 26, 24, 6, 17, 33, 21, 37, 25, 9, 7, 16, 30, 30, 30, 27, 47, 14, 8, 31, 33, 41, 25, 22, 43, 21, 18, 22
            |33, 3, 34, 26, 17, 44, 37, 38, 55, 36, 51, 39, 24, 42, 42, 35, 3, 47, 0, 44, 9, 14, 42, 13, 10, 44, 16, 52, 19, 11, 34, 26, 43, 42, 21, 24, 45, 33, 45, 26, 32, 35, 54, 53, 33, 36, 32, 30, 27, 4, 35, 39, 38, 21, 21, 22, 43, 11, 45, 55, 35
            |14, 42, 30, 29, 31, 22, 50, 8, 27, 44, 21, 7, 28, 22, 7, 31, 46, 34, 44, 0, 41, 30, 25, 31, 40, 40, 48, 31, 39, 48, 16, 40, 11, 42, 31, 27, 39, 22, 2, 34, 13, 13, 33, 34, 24, 54, 12, 14, 19, 47, 37, 30, 6, 23, 25, 29, 12, 34, 14, 25, 47
            |28, 7, 26, 18, 10, 37, 28, 36, 48, 26, 44, 35, 17, 35, 41, 26, 12, 38, 9, 41, 0, 12, 34, 11, 1, 35, 9, 44, 9, 7, 35, 16, 38, 33, 13, 17, 36, 26, 42, 17, 31, 31, 46, 45, 25, 28, 29, 27, 22, 9, 26, 31, 35, 18, 22, 15, 38, 13, 39, 48, 26
            |20, 11, 25, 16, 8, 32, 35, 25, 43, 32, 38, 25, 14, 30, 29, 26, 16, 37, 14, 30, 12, 0, 31, 1, 12, 36, 21, 41, 16, 19, 22, 22, 30, 36, 12, 14, 37, 22, 32, 19, 19, 22, 43, 42, 21, 36, 19, 17, 14, 16, 28, 30, 25, 8, 10, 12, 30, 5, 32, 42, 32
            |16, 39, 9, 16, 25, 4, 28, 28, 14, 23, 12, 20, 18, 3, 31, 10, 45, 9, 42, 25, 34, 31, 0, 31, 33, 15, 36, 10, 27, 39, 34, 24, 15, 18, 21, 18, 13, 9, 24, 18, 28, 15, 13, 12, 9, 34, 21, 21, 19, 43, 15, 6, 22, 25, 33, 20, 13, 36, 13, 15, 25
            |21, 10, 25, 16, 8, 33, 34, 26, 44, 31, 39, 26, 15, 31, 30, 26, 15, 38, 13, 31, 11, 1, 31, 0, 11, 36, 20, 41, 16, 18, 23, 22, 31, 36, 12, 14, 37, 22, 33, 19, 20, 23, 44, 43, 22, 36, 20, 18, 14, 15, 28, 30, 26, 9, 11, 12, 31, 5, 32, 43, 32
            |27, 8, 25, 16, 9, 36, 27, 36, 47, 25, 43, 34, 15, 33, 40, 25, 13, 37, 10, 40, 1, 12, 33, 11, 0, 34, 9, 42, 8, 8, 34, 15, 37, 32, 12, 16, 34, 25, 41, 16, 30, 29, 45, 43, 24, 27, 28, 26, 21, 10, 25, 30, 34, 17, 22, 13, 36, 14, 38, 47, 25
            |29, 41, 12, 20, 29, 19, 16, 42, 24, 12, 25, 34, 22, 18, 45, 11, 47, 8, 44, 40, 35, 36, 15, 36, 34, 0, 33, 16, 26, 38, 47, 19, 30, 4, 25, 23, 2, 19, 39, 18, 40, 29, 17, 15, 18, 22, 34, 33, 29, 43, 9, 9, 36, 33, 42, 24, 28, 42, 28, 26, 15
            |34, 15, 27, 20, 16, 39, 22, 44, 50, 22, 47, 41, 20, 37, 48, 26, 18, 38, 16, 48, 9, 21, 36, 20, 9, 33, 0, 44, 9, 6, 43, 13, 43, 30, 17, 21, 34, 30, 48, 17, 39, 36, 46, 45, 28, 20, 36, 34, 28, 14, 24, 31, 41, 26, 31, 19, 42, 23, 43, 50, 21
            |25, 49, 18, 26, 35, 10, 32, 36, 9, 27, 11, 27, 28, 11, 38, 18, 55, 8, 52, 31, 44, 41, 10, 41, 42, 16, 44, 0, 36, 49, 43, 31, 21, 20, 31, 28, 14, 19, 30, 27, 37, 24, 2, 2, 19, 38, 30, 30, 29, 52, 21, 13, 29, 35, 43, 30, 19, 46, 18, 10, 30
            |25, 16, 18, 11, 9, 30, 19, 36, 41, 17, 38, 33, 11, 28, 40, 18, 21, 30, 19, 39, 9, 16, 27, 16, 8, 26, 9, 36, 0, 13, 36, 7, 34, 24, 8, 12, 27, 20, 40, 9, 31, 27, 38, 36, 19, 20, 28, 26, 20, 18, 17, 23, 33, 19, 26, 10, 33, 20, 34, 41, 17
            |35, 11, 31, 23, 17, 42, 28, 44, 54, 28, 50, 42, 22, 40, 48, 31, 12, 42, 11, 48, 7, 19, 39, 18, 8, 38, 6, 49, 13, 0, 41, 19, 45, 36, 19, 23, 39, 32, 49, 21, 38, 37, 51, 49, 31, 26, 36, 34, 29, 8, 29, 36, 42, 25, 29, 21, 44, 19, 46, 54, 27
            |18, 33, 35, 30, 27, 33, 52, 8, 41, 47, 35, 16, 28, 32, 10, 36, 36, 44, 34, 16, 35, 22, 34, 23, 34, 47, 43, 43, 36, 41, 0, 40, 24, 48, 29, 27, 46, 28, 18, 35, 6, 19, 45, 45, 29, 55, 13, 14, 19, 37, 41, 38, 14, 18, 13, 28, 24, 23, 26, 39, 49
            |26, 23, 14, 11, 14, 27, 13, 39, 38, 10, 35, 34, 12, 25, 43, 14, 28, 24, 26, 40, 16, 22, 24, 22, 15, 19, 13, 31, 7, 19, 40, 0, 34, 17, 11, 14, 21, 19, 40, 6, 35, 28, 33, 31, 17, 15, 30, 28, 22, 25, 11, 18, 34, 23, 31, 13, 32, 26, 33, 38, 10
            |10, 41, 21, 23, 28, 12, 41, 16, 17, 36, 11, 7, 23, 12, 17, 22, 46, 24, 43, 11, 38, 30, 15, 31, 37, 30, 43, 21, 34, 45, 24, 34, 0, 33, 26, 22, 28, 14, 9, 27, 18, 8, 22, 23, 16, 46, 13, 14, 17, 45, 28, 21, 9, 22, 28, 24, 1, 34, 3, 16, 38
            |31, 40, 13, 20, 28, 22, 12, 44, 28, 9, 29, 36, 22, 21, 47, 12, 45, 12, 42, 42, 33, 36, 18, 36, 32, 4, 30, 20, 24, 36, 48, 17, 33, 0, 24, 23, 6, 21, 42, 17, 42, 31, 21, 19, 19, 18, 35, 34, 30, 42, 8, 12, 38, 34, 43, 24, 31, 41, 31, 30, 11
            |17, 18, 14, 5, 4, 24, 24, 28, 35, 20, 31, 24, 4, 22, 32, 14, 23, 26, 21, 31, 13, 12, 21, 12, 12, 25, 17, 31, 8, 19, 29, 11, 26, 24, 0, 4, 25, 13, 31, 7, 24, 19, 33, 32, 12, 26, 19, 17, 12, 21, 16, 19, 25, 11, 20, 2, 25, 17, 27, 35, 21
            |13, 21, 11, 3, 7, 20, 25, 25, 31, 21, 27, 21, 1, 18, 29, 12, 27, 24, 24, 27, 17, 14, 18, 14, 16, 23, 21, 28, 12, 23, 27, 14, 22, 23, 4, 0, 23, 9, 28, 8, 21, 15, 30, 29, 8, 28, 16, 14, 9, 25, 15, 16, 21, 10, 19, 2, 21, 19, 23, 31, 22
            |28, 42, 12, 20, 29, 17, 18, 41, 22, 14, 23, 33, 22, 16, 44, 11, 47, 6, 45, 39, 36, 37, 13, 37, 34, 2, 34, 14, 27, 39, 46, 21, 28, 6, 25, 23, 0, 19, 38, 19, 40, 28, 15, 13, 17, 24, 33, 32, 28, 44, 10, 9, 34, 33, 42, 25, 27, 42, 26, 24, 17
            |9, 30, 8, 9, 16, 11, 27, 23, 22, 22, 18, 16, 10, 8, 26, 9, 36, 17, 33, 22, 26, 22, 9, 22, 25, 19, 30, 19, 20, 32, 28, 19, 14, 21, 13, 9, 19, 0, 22, 13, 21, 10, 21, 21, 2, 32, 14, 14, 10, 34, 15, 10, 17, 16, 24, 12, 13, 27, 14, 22, 25
            |14, 43, 29, 29, 32, 21, 49, 10, 25, 44, 19, 7, 29, 21, 9, 31, 48, 33, 45, 2, 42, 32, 24, 33, 41, 39, 48, 30, 40, 49, 18, 40, 9, 42, 31, 28, 38, 22, 0, 34, 15, 13, 31, 32, 24, 54, 13, 15, 20, 48, 37, 30, 7, 24, 26, 29, 11, 35, 12, 23, 47
            |20, 23, 9, 5, 11, 22, 17, 33, 33, 13, 30, 27, 6, 20, 37, 9, 29, 21, 26, 34, 17, 19, 18, 19, 16, 18, 17, 27, 9, 21, 35, 6, 27, 17, 7, 8, 19, 13, 34, 0, 29, 22, 29, 28, 11, 21, 24, 22, 16, 26, 9, 14, 28, 18, 27, 8, 26, 24, 27, 33, 14
            |12, 30, 29, 24, 22, 27, 46, 6, 35, 41, 29, 11, 23, 26, 10, 30, 34, 37, 32, 13, 31, 19, 28, 20, 30, 40, 39, 37, 31, 38, 6, 35, 18, 42, 24, 21, 40, 21, 15, 29, 0, 13, 39, 39, 23, 50, 7, 8, 13, 35, 35, 31, 9, 13, 12, 22, 19, 21, 21, 34, 43
            |2, 33, 18, 17, 20, 14, 37, 13, 23, 32, 17, 6, 16, 13, 16, 19, 38, 25, 35, 13, 31, 22, 15, 23, 29, 29, 36, 24, 27, 37, 19, 28, 8, 31, 19, 15, 28, 10, 13, 22, 13, 0, 26, 26, 12, 42, 6, 7, 9, 37, 25, 19, 7, 14, 20, 17, 8, 26, 10, 22, 34
            |27, 51, 20, 28, 37, 12, 33, 38, 9, 29, 13, 29, 30, 14, 40, 20, 57, 9, 54, 33, 46, 43, 13, 44, 45, 17, 46, 2, 38, 51, 45, 33, 22, 21, 33, 30, 15, 21, 31, 29, 39, 26, 0, 2, 22, 39, 32, 33, 31, 54, 23, 15, 31, 37, 45, 32, 21, 48, 19, 11, 32
            |27, 50, 18, 27, 36, 12, 31, 38, 10, 27, 14, 29, 29, 13, 40, 18, 55, 7, 53, 34, 45, 42, 12, 43, 43, 15, 45, 2, 36, 49, 45, 31, 23, 19, 32, 29, 13, 21, 32, 28, 39, 26, 2, 0, 21, 37, 32, 32, 30, 53, 21, 13, 31, 36, 45, 31, 22, 47, 20, 12, 30
            |11, 30, 6, 8, 16, 12, 25, 25, 23, 20, 19, 18, 9, 9, 28, 7, 35, 16, 33, 24, 25, 21, 9, 22, 24, 18, 28, 19, 19, 31, 29, 17, 16, 19, 12, 8, 17, 2, 24, 11, 23, 12, 22, 21, 0, 30, 16, 15, 11, 33, 13, 9, 19, 16, 25, 11, 15, 27, 16, 23, 22
            |40, 35, 25, 26, 29, 38, 6, 53, 46, 11, 45, 48, 27, 36, 57, 24, 38, 30, 36, 54, 28, 36, 34, 36, 27, 22, 20, 38, 20, 26, 55, 15, 46, 18, 26, 28, 24, 32, 54, 21, 50, 42, 39, 37, 30, 0, 44, 43, 37, 34, 18, 27, 49, 38, 45, 28, 45, 40, 45, 47, 8
            |5, 30, 22, 19, 19, 20, 40, 9, 29, 35, 23, 7, 17, 19, 13, 23, 35, 30, 32, 12, 29, 19, 21, 20, 28, 34, 36, 30, 28, 36, 13, 30, 13, 35, 19, 16, 33, 14, 13, 24, 7, 6, 32, 32, 16, 44, 0, 2, 8, 35, 29, 24, 6, 11, 15, 17, 13, 22, 15, 28, 37
            |5, 28, 21, 17, 17, 20, 39, 11, 30, 34, 24, 9, 16, 19, 15, 22, 33, 30, 30, 14, 27, 17, 21, 18, 26, 33, 34, 30, 26, 34, 14, 28, 14, 34, 17, 14, 32, 14, 15, 22, 8, 7, 33, 32, 15, 43, 2, 0, 6, 33, 27, 24, 8, 9, 14, 16, 14, 21, 16, 29, 36
            |6, 24, 16, 11, 12, 19, 33, 17, 30, 29, 25, 13, 10, 17, 21, 18, 30, 27, 27, 19, 22, 14, 19, 14, 21, 29, 28, 29, 20, 29, 19, 22, 17, 30, 12, 9, 28, 10, 20, 16, 13, 9, 31, 30, 11, 37, 8, 6, 0, 29, 22, 20, 13, 6, 14, 10, 16, 18, 18, 29, 30
            |35, 5, 35, 26, 18, 45, 35, 41, 56, 34, 52, 41, 25, 43, 45, 35, 4, 47, 4, 47, 9, 16, 43, 15, 10, 43, 14, 52, 18, 8, 37, 25, 45, 42, 21, 25, 44, 34, 48, 26, 35, 37, 54, 53, 33, 34, 35, 33, 29, 0, 34, 40, 41, 24, 24, 23, 45, 14, 47, 56, 34
            |24, 32, 7, 12, 20, 19, 13, 38, 28, 8, 27, 30, 14, 17, 41, 6, 38, 14, 35, 37, 26, 28, 15, 28, 25, 9, 24, 21, 17, 29, 41, 11, 28, 8, 16, 15, 10, 15, 37, 9, 35, 25, 23, 21, 13, 18, 29, 27, 22, 34, 0, 9, 32, 26, 35, 16, 27, 33, 27, 29, 10
            |19, 37, 5, 14, 23, 10, 22, 33, 19, 16, 18, 24, 16, 9, 36, 5, 42, 8, 39, 30, 31, 30, 6, 30, 30, 9, 31, 13, 23, 36, 38, 18, 21, 12, 19, 16, 9, 10, 30, 14, 31, 19, 15, 13, 9, 27, 24, 24, 20, 40, 9, 0, 26, 25, 34, 18, 19, 35, 19, 20, 19
            |8, 36, 25, 23, 25, 19, 44, 7, 26, 39, 20, 2, 22, 19, 9, 26, 41, 31, 38, 6, 35, 25, 22, 26, 34, 36, 41, 29, 33, 42, 14, 34, 9, 38, 25, 21, 34, 17, 7, 28, 9, 7, 31, 31, 19, 49, 6, 8, 13, 41, 32, 26, 0, 17, 20, 23, 10, 28, 12, 25, 41
            |12, 19, 21, 14, 9, 26, 35, 18, 36, 31, 31, 18, 12, 24, 23, 22, 24, 33, 21, 23, 18, 8, 25, 9, 17, 33, 26, 35, 19, 25, 18, 23, 22, 34, 11, 10, 33, 16, 24, 18, 13, 14, 37, 36, 16, 38, 11, 9, 6, 24, 26, 25, 17, 0, 9, 10, 22, 12, 24, 35, 32
            |18, 19, 30, 23, 17, 33, 43, 18, 43, 40, 38, 21, 21, 32, 21, 31, 23, 41, 21, 25, 22, 10, 33, 11, 22, 42, 31, 43, 26, 29, 13, 31, 28, 43, 20, 19, 42, 24, 26, 27, 12, 20, 45, 45, 25, 45, 15, 14, 14, 24, 35, 34, 20, 9, 0, 19, 28, 10, 30, 42, 41
            |15, 19, 13, 4, 5, 22, 25, 26, 34, 21, 30, 22, 2, 20, 30, 14, 25, 25, 22, 29, 15, 12, 20, 12, 13, 24, 19, 30, 10, 21, 28, 13, 24, 24, 2, 2, 25, 12, 29, 8, 22, 17, 32, 31, 11, 28, 17, 16, 10, 23, 16, 18, 23, 10, 19, 0, 23, 17, 25, 33, 22
            |10, 40, 20, 22, 27, 10, 40, 17, 16, 34, 10, 8, 22, 11, 18, 21, 46, 22, 43, 12, 38, 30, 13, 31, 36, 28, 42, 19, 33, 44, 24, 32, 1, 31, 25, 21, 27, 13, 11, 26, 19, 8, 21, 22, 15, 45, 13, 14, 16, 45, 27, 19, 10, 22, 28, 23, 0, 34, 2, 15, 37
            |24, 9, 30, 22, 13, 37, 39, 27, 48, 36, 43, 29, 20, 35, 31, 31, 13, 43, 11, 34, 13, 5, 36, 5, 14, 42, 23, 46, 20, 19, 23, 26, 34, 41, 17, 19, 42, 27, 35, 24, 21, 26, 48, 47, 27, 40, 22, 21, 18, 14, 33, 35, 28, 12, 10, 17, 34, 0, 36, 47, 37
            |12, 42, 20, 23, 29, 9, 40, 19, 14, 35, 8, 10, 23, 10, 20, 21, 48, 21, 45, 14, 39, 32, 13, 32, 38, 28, 43, 18, 34, 46, 26, 33, 3, 31, 27, 23, 26, 14, 12, 27, 21, 10, 19, 20, 16, 45, 15, 16, 18, 47, 27, 19, 12, 24, 30, 25, 2, 36, 0, 13, 37
            |24, 52, 24, 30, 38, 11, 41, 31, 2, 36, 4, 23, 31, 13, 32, 25, 58, 18, 55, 25, 48, 42, 15, 43, 47, 26, 50, 10, 41, 54, 39, 38, 16, 30, 35, 31, 24, 22, 23, 33, 34, 22, 11, 12, 23, 47, 28, 29, 29, 56, 29, 20, 25, 35, 42, 33, 15, 47, 13, 0, 39
            |33, 33, 17, 19, 24, 30, 3, 47, 38, 3, 37, 40, 21, 28, 50, 16, 37, 22, 35, 47, 26, 32, 25, 32, 25, 15, 21, 30, 17, 27, 49, 10, 38, 11, 21, 22, 17, 25, 47, 14, 43, 34, 32, 30, 22, 8, 37, 36, 30, 34, 10, 19, 41, 32, 41, 22, 37, 37, 37, 39, 0|];