% n60w160.004    56.47 653
n = 61;
duration = [|0, 31, 9, 41, 48, 18, 13, 17, 43, 48, 21, 21, 11, 41, 30, 28, 19, 24, 34, 27, 14, 23, 32, 12, 33, 24, 42, 6, 17, 19, 20, 15, 36, 42, 5, 25, 13, 14, 20, 33, 41, 9, 44, 46, 28, 6, 33, 24, 31, 2, 32, 29, 48, 39, 17, 27, 40, 38, 41, 49, 25
            |31, 0, 30, 38, 17, 13, 19, 36, 37, 43, 22, 11, 22, 10, 6, 41, 20, 47, 11, 4, 42, 47, 42, 41, 16, 34, 11, 36, 22, 45, 29, 23, 26, 11, 35, 22, 18, 18, 24, 24, 43, 39, 20, 42, 45, 37, 39, 46, 40, 33, 3, 45, 38, 9, 14, 40, 12, 40, 25, 42, 8
            |9, 30, 0, 33, 46, 19, 13, 8, 34, 39, 14, 23, 9, 40, 32, 19, 25, 18, 30, 26, 11, 17, 23, 12, 28, 15, 42, 8, 23, 14, 28, 9, 29, 40, 14, 18, 13, 17, 27, 26, 32, 11, 40, 37, 19, 12, 23, 17, 21, 9, 32, 20, 41, 38, 17, 18, 37, 28, 35, 41, 23
            |41, 38, 33, 0, 42, 36, 35, 29, 2, 6, 22, 41, 33, 42, 44, 21, 49, 34, 28, 34, 39, 35, 16, 41, 22, 19, 44, 40, 48, 37, 56, 28, 12, 39, 46, 19, 35, 41, 52, 14, 8, 43, 28, 5, 26, 44, 13, 32, 16, 41, 41, 25, 11, 38, 36, 20, 33, 8, 17, 8, 32
            |48, 17, 46, 42, 0, 30, 35, 50, 41, 45, 35, 28, 38, 8, 21, 52, 37, 61, 17, 21, 57, 61, 51, 57, 22, 45, 9, 52, 39, 60, 46, 38, 30, 6, 52, 33, 35, 35, 40, 30, 49, 55, 15, 45, 57, 54, 48, 59, 50, 50, 18, 57, 37, 9, 31, 51, 10, 47, 25, 43, 23
            |18, 13, 19, 36, 30, 0, 6, 26, 37, 42, 16, 5, 10, 23, 13, 33, 13, 36, 17, 9, 30, 36, 35, 29, 19, 26, 24, 23, 13, 33, 21, 13, 27, 23, 22, 18, 6, 6, 16, 23, 40, 26, 28, 41, 36, 24, 34, 35, 33, 20, 13, 36, 40, 21, 1, 32, 22, 36, 29, 43, 8
            |13, 19, 13, 35, 35, 6, 0, 20, 35, 41, 13, 11, 4, 29, 19, 28, 15, 30, 21, 15, 23, 30, 31, 23, 21, 22, 30, 17, 14, 27, 21, 8, 27, 29, 17, 16, 1, 6, 18, 23, 37, 20, 32, 40, 30, 18, 30, 29, 29, 14, 20, 31, 40, 27, 5, 27, 27, 33, 31, 42, 13
            |17, 36, 8, 29, 50, 26, 20, 0, 31, 35, 16, 30, 16, 45, 38, 11, 33, 11, 33, 32, 10, 11, 16, 13, 30, 10, 47, 13, 31, 10, 36, 13, 28, 45, 20, 19, 21, 25, 35, 26, 26, 14, 42, 33, 11, 17, 17, 10, 15, 15, 38, 12, 38, 42, 24, 11, 40, 23, 35, 37, 29
            |43, 37, 34, 2, 41, 37, 35, 31, 0, 6, 23, 41, 33, 41, 43, 23, 49, 36, 27, 34, 41, 37, 19, 43, 21, 20, 43, 42, 49, 39, 57, 29, 11, 38, 47, 19, 36, 41, 53, 14, 10, 44, 26, 5, 28, 46, 15, 34, 18, 42, 41, 28, 9, 37, 36, 22, 32, 10, 16, 7, 32
            |48, 43, 39, 6, 45, 42, 41, 35, 6, 0, 28, 47, 39, 46, 49, 26, 55, 39, 33, 40, 45, 40, 21, 47, 27, 25, 48, 47, 55, 43, 62, 34, 17, 43, 52, 25, 42, 47, 58, 20, 10, 49, 30, 2, 31, 51, 18, 37, 21, 48, 46, 30, 9, 42, 42, 25, 37, 12, 20, 4, 38
            |21, 22, 14, 22, 35, 16, 13, 16, 23, 28, 0, 20, 11, 31, 26, 19, 27, 26, 18, 18, 24, 26, 20, 25, 14, 11, 32, 22, 27, 26, 34, 6, 16, 29, 26, 4, 14, 19, 31, 12, 24, 25, 26, 27, 23, 25, 18, 25, 18, 21, 25, 23, 28, 27, 15, 18, 25, 21, 21, 29, 15
            |21, 11, 23, 41, 28, 5, 11, 30, 41, 47, 20, 0, 15, 21, 9, 38, 10, 41, 19, 9, 34, 40, 40, 33, 22, 31, 22, 27, 11, 38, 19, 18, 31, 22, 25, 22, 10, 7, 13, 27, 44, 30, 30, 46, 41, 27, 38, 40, 38, 23, 11, 41, 43, 20, 6, 37, 22, 41, 32, 47, 10
            |11, 22, 9, 33, 38, 10, 4, 16, 33, 39, 11, 15, 0, 32, 23, 24, 18, 26, 23, 18, 20, 25, 27, 19, 22, 18, 33, 14, 17, 23, 24, 5, 26, 32, 16, 15, 5, 10, 21, 22, 34, 17, 33, 37, 26, 16, 26, 25, 25, 12, 23, 27, 38, 30, 9, 23, 29, 30, 31, 40, 15
            |41, 10, 40, 42, 8, 23, 29, 45, 41, 46, 31, 21, 32, 0, 13, 49, 29, 56, 14, 14, 52, 56, 49, 51, 20, 42, 2, 46, 31, 54, 38, 33, 30, 4, 45, 30, 28, 28, 32, 28, 48, 49, 18, 46, 53, 47, 46, 55, 47, 43, 10, 54, 39, 4, 24, 48, 9, 46, 26, 45, 17
            |30, 6, 32, 44, 21, 13, 19, 38, 43, 49, 26, 9, 23, 13, 0, 45, 16, 49, 17, 9, 43, 49, 46, 42, 22, 37, 13, 36, 18, 46, 25, 26, 32, 15, 34, 27, 19, 16, 19, 29, 49, 39, 26, 48, 48, 36, 44, 48, 44, 33, 4, 49, 44, 14, 14, 44, 17, 45, 32, 48, 12
            |28, 41, 19, 21, 52, 33, 28, 11, 23, 26, 19, 38, 24, 49, 45, 0, 43, 13, 36, 37, 20, 14, 5, 23, 31, 8, 51, 24, 41, 17, 47, 20, 25, 48, 31, 20, 29, 34, 45, 24, 16, 25, 41, 24, 5, 28, 8, 11, 5, 27, 44, 5, 32, 46, 32, 1, 42, 14, 32, 29, 34
            |19, 20, 25, 49, 37, 13, 15, 33, 49, 55, 27, 10, 18, 29, 16, 43, 0, 42, 29, 19, 34, 42, 46, 31, 32, 36, 29, 26, 3, 38, 9, 23, 40, 31, 21, 30, 14, 9, 4, 36, 51, 28, 40, 54, 44, 24, 45, 42, 44, 22, 19, 45, 52, 29, 13, 42, 32, 48, 42, 55, 20
            |24, 47, 18, 34, 61, 36, 30, 11, 36, 39, 26, 41, 26, 56, 49, 13, 42, 0, 44, 42, 11, 1, 18, 14, 40, 17, 58, 18, 40, 6, 44, 24, 37, 55, 26, 29, 31, 35, 44, 35, 29, 18, 51, 37, 8, 22, 21, 2, 18, 22, 49, 9, 44, 53, 35, 14, 51, 27, 44, 42, 39
            |34, 11, 30, 28, 17, 17, 21, 33, 27, 33, 18, 19, 23, 14, 17, 36, 29, 44, 0, 9, 41, 44, 35, 42, 6, 28, 16, 37, 30, 43, 38, 21, 16, 12, 38, 16, 21, 23, 32, 14, 34, 40, 11, 32, 40, 39, 32, 42, 33, 35, 14, 40, 27, 10, 18, 34, 7, 31, 14, 32, 9
            |27, 4, 26, 34, 21, 9, 15, 32, 34, 40, 18, 9, 18, 14, 9, 37, 19, 42, 9, 0, 38, 42, 37, 37, 14, 29, 16, 32, 21, 40, 28, 19, 23, 14, 32, 18, 14, 15, 23, 20, 39, 35, 20, 39, 40, 33, 35, 41, 36, 29, 7, 41, 35, 12, 10, 35, 13, 36, 23, 39, 3
            |14, 42, 11, 39, 57, 30, 23, 10, 41, 45, 24, 34, 20, 52, 43, 20, 34, 11, 41, 38, 0, 9, 25, 4, 39, 20, 53, 8, 31, 5, 34, 20, 38, 51, 15, 28, 24, 27, 35, 36, 36, 7, 50, 43, 17, 11, 27, 12, 24, 12, 43, 18, 48, 49, 28, 20, 48, 33, 45, 47, 35
            |23, 47, 17, 35, 61, 36, 30, 11, 37, 40, 26, 40, 25, 56, 49, 14, 42, 1, 44, 42, 9, 0, 19, 13, 40, 18, 58, 17, 39, 4, 43, 24, 37, 55, 25, 29, 30, 34, 43, 35, 30, 17, 52, 38, 9, 21, 22, 3, 19, 21, 49, 11, 45, 53, 34, 15, 51, 28, 44, 43, 39
            |32, 42, 23, 16, 51, 35, 31, 16, 19, 21, 20, 40, 27, 49, 46, 5, 46, 18, 35, 37, 25, 19, 0, 28, 30, 9, 51, 29, 44, 22, 51, 23, 23, 47, 36, 20, 32, 37, 48, 22, 11, 31, 39, 19, 10, 33, 4, 16, 2, 31, 45, 9, 27, 45, 34, 5, 42, 9, 30, 24, 34
            |12, 41, 12, 41, 57, 29, 23, 13, 43, 47, 25, 33, 19, 51, 42, 23, 31, 14, 42, 37, 4, 13, 28, 0, 40, 23, 53, 6, 29, 9, 31, 20, 40, 51, 12, 29, 23, 26, 32, 37, 39, 4, 51, 46, 21, 8, 30, 15, 27, 10, 42, 22, 50, 49, 28, 23, 48, 36, 46, 50, 35
            |33, 16, 28, 22, 22, 19, 21, 30, 21, 27, 14, 22, 22, 20, 22, 31, 32, 40, 6, 14, 39, 40, 30, 40, 0, 23, 22, 36, 32, 40, 40, 19, 10, 18, 38, 11, 22, 25, 35, 8, 28, 39, 12, 26, 35, 38, 26, 38, 28, 34, 19, 35, 22, 16, 20, 29, 12, 25, 10, 26, 12
            |24, 34, 15, 19, 45, 26, 22, 10, 20, 25, 11, 31, 18, 42, 37, 8, 36, 17, 28, 29, 20, 18, 9, 23, 23, 0, 43, 22, 35, 19, 42, 13, 19, 40, 28, 12, 23, 28, 39, 17, 17, 24, 34, 23, 12, 26, 9, 16, 7, 23, 36, 12, 28, 38, 25, 6, 35, 14, 26, 27, 26
            |42, 11, 42, 44, 9, 24, 30, 47, 43, 48, 32, 22, 33, 2, 13, 51, 29, 58, 16, 16, 53, 58, 51, 53, 22, 43, 0, 47, 32, 56, 38, 34, 32, 5, 46, 31, 29, 29, 32, 30, 50, 50, 20, 48, 55, 48, 48, 57, 49, 44, 11, 55, 41, 6, 25, 50, 11, 48, 28, 47, 18
            |6, 36, 8, 40, 52, 23, 17, 13, 42, 47, 22, 27, 14, 46, 36, 24, 26, 18, 37, 32, 8, 17, 29, 6, 36, 22, 47, 0, 23, 13, 26, 16, 37, 46, 8, 26, 18, 20, 27, 34, 39, 3, 47, 45, 23, 4, 30, 19, 28, 4, 37, 24, 49, 44, 22, 24, 43, 36, 43, 48, 30
            |17, 22, 23, 48, 39, 13, 14, 31, 49, 55, 27, 11, 17, 31, 18, 41, 3, 40, 30, 21, 31, 39, 44, 29, 32, 35, 32, 23, 0, 36, 8, 22, 40, 33, 18, 30, 13, 8, 4, 36, 51, 25, 41, 53, 42, 21, 43, 40, 42, 19, 21, 43, 52, 31, 13, 40, 33, 47, 42, 55, 21
            |19, 45, 14, 37, 60, 33, 27, 10, 39, 43, 26, 38, 23, 54, 46, 17, 38, 6, 43, 40, 5, 4, 22, 9, 40, 19, 56, 13, 36, 0, 39, 22, 38, 54, 20, 29, 28, 31, 39, 36, 33, 12, 51, 41, 13, 16, 25, 7, 22, 17, 46, 14, 47, 52, 32, 17, 50, 31, 45, 45, 37
            |20, 29, 28, 56, 46, 21, 21, 36, 57, 62, 34, 19, 24, 38, 25, 47, 9, 44, 38, 28, 34, 43, 51, 31, 40, 42, 38, 26, 8, 39, 0, 29, 48, 40, 19, 37, 21, 16, 6, 44, 58, 27, 49, 61, 47, 23, 50, 44, 49, 22, 28, 49, 60, 38, 21, 46, 41, 54, 50, 63, 29
            |15, 23, 9, 28, 38, 13, 8, 13, 29, 34, 6, 18, 5, 33, 26, 20, 23, 24, 21, 19, 20, 24, 23, 20, 19, 13, 34, 16, 22, 22, 29, 0, 22, 32, 20, 10, 9, 15, 26, 18, 29, 19, 31, 33, 23, 19, 22, 23, 21, 15, 25, 23, 34, 30, 12, 19, 28, 25, 27, 35, 16
            |36, 26, 29, 12, 30, 27, 27, 28, 11, 17, 16, 31, 26, 30, 32, 25, 40, 37, 16, 23, 38, 37, 23, 40, 10, 19, 32, 37, 40, 38, 48, 22, 0, 27, 41, 11, 27, 32, 43, 4, 19, 40, 17, 16, 31, 41, 19, 35, 21, 37, 29, 30, 13, 26, 27, 24, 21, 17, 7, 16, 21
            |42, 11, 40, 39, 6, 23, 29, 45, 38, 43, 29, 22, 32, 4, 15, 48, 31, 55, 12, 14, 51, 55, 47, 51, 18, 40, 5, 46, 33, 54, 40, 32, 27, 0, 46, 28, 29, 29, 34, 26, 46, 49, 14, 43, 52, 47, 44, 54, 45, 43, 12, 52, 36, 2, 25, 46, 6, 43, 23, 41, 17
            |5, 35, 14, 46, 52, 22, 17, 20, 47, 52, 26, 25, 16, 45, 34, 31, 21, 26, 38, 32, 15, 25, 36, 12, 38, 28, 46, 8, 18, 20, 19, 20, 41, 46, 0, 30, 17, 17, 21, 38, 45, 8, 49, 51, 30, 4, 37, 26, 35, 5, 35, 32, 53, 44, 21, 31, 44, 42, 47, 54, 30
            |25, 22, 18, 19, 33, 18, 16, 19, 19, 25, 4, 22, 15, 30, 27, 20, 30, 29, 16, 18, 28, 29, 20, 29, 11, 12, 31, 26, 30, 29, 37, 10, 11, 28, 30, 0, 17, 22, 34, 8, 22, 29, 23, 24, 24, 29, 17, 27, 18, 25, 25, 24, 24, 26, 17, 18, 23, 18, 17, 25, 15
            |13, 18, 13, 35, 35, 6, 1, 21, 36, 42, 14, 10, 5, 28, 19, 29, 14, 31, 21, 14, 24, 30, 32, 23, 22, 23, 29, 18, 13, 28, 21, 9, 27, 29, 17, 17, 0, 5, 17, 24, 38, 21, 32, 40, 31, 19, 31, 30, 30, 15, 19, 32, 40, 26, 4, 28, 27, 34, 31, 42, 12
            |14, 18, 17, 41, 35, 6, 6, 25, 41, 47, 19, 7, 10, 28, 16, 34, 9, 35, 23, 15, 27, 34, 37, 26, 25, 28, 29, 20, 8, 31, 16, 15, 32, 29, 17, 22, 5, 0, 12, 28, 43, 23, 35, 46, 36, 20, 36, 35, 35, 16, 18, 37, 45, 27, 5, 33, 28, 39, 35, 47, 14
            |20, 24, 27, 52, 40, 16, 18, 35, 53, 58, 31, 13, 21, 32, 19, 45, 4, 44, 32, 23, 35, 43, 48, 32, 35, 39, 32, 27, 4, 39, 6, 26, 43, 34, 21, 34, 17, 12, 0, 40, 55, 28, 43, 57, 46, 25, 48, 44, 46, 23, 22, 47, 56, 32, 16, 44, 35, 51, 45, 59, 23
            |33, 24, 26, 14, 30, 23, 23, 26, 14, 20, 12, 27, 22, 28, 29, 24, 36, 35, 14, 20, 36, 35, 22, 37, 8, 17, 30, 34, 36, 36, 44, 18, 4, 26, 38, 8, 24, 28, 40, 0, 20, 37, 17, 19, 29, 37, 19, 33, 21, 34, 27, 29, 16, 24, 23, 23, 20, 17, 9, 19, 18
            |41, 43, 32, 8, 49, 40, 37, 26, 10, 10, 24, 44, 34, 48, 49, 16, 51, 29, 34, 39, 36, 30, 11, 39, 28, 17, 50, 39, 51, 33, 58, 29, 19, 46, 45, 22, 38, 43, 55, 20, 0, 41, 35, 8, 21, 43, 9, 27, 12, 40, 46, 20, 18, 44, 39, 16, 40, 4, 25, 14, 36
            |9, 39, 11, 43, 55, 26, 20, 14, 44, 49, 25, 30, 17, 49, 39, 25, 28, 18, 40, 35, 7, 17, 31, 4, 39, 24, 50, 3, 25, 12, 27, 19, 40, 49, 8, 29, 21, 23, 28, 37, 41, 0, 50, 47, 24, 4, 32, 19, 29, 6, 40, 25, 51, 47, 25, 26, 47, 38, 46, 51, 33
            |44, 20, 40, 28, 15, 28, 32, 42, 26, 30, 26, 30, 33, 18, 26, 41, 40, 51, 11, 20, 50, 52, 39, 51, 12, 34, 20, 47, 41, 51, 49, 31, 17, 14, 49, 23, 32, 35, 43, 17, 35, 50, 0, 31, 46, 49, 36, 50, 38, 45, 23, 46, 22, 14, 29, 40, 9, 33, 10, 28, 20
            |46, 42, 37, 5, 45, 41, 40, 33, 5, 2, 27, 46, 37, 46, 48, 24, 54, 37, 32, 39, 43, 38, 19, 46, 26, 23, 48, 45, 53, 41, 61, 33, 16, 43, 51, 24, 40, 46, 57, 19, 8, 47, 31, 0, 29, 49, 16, 35, 19, 46, 46, 28, 11, 42, 41, 23, 37, 10, 20, 5, 37
            |28, 45, 19, 26, 57, 36, 30, 11, 28, 31, 23, 41, 26, 53, 48, 5, 44, 8, 40, 40, 17, 9, 10, 21, 35, 12, 55, 23, 42, 13, 47, 23, 31, 52, 30, 24, 31, 36, 46, 29, 21, 24, 46, 29, 0, 27, 13, 6, 10, 26, 47, 1, 37, 50, 35, 7, 47, 19, 38, 34, 37
            |6, 37, 12, 44, 54, 24, 18, 17, 46, 51, 25, 27, 16, 47, 36, 28, 24, 22, 39, 33, 11, 21, 33, 8, 38, 26, 48, 4, 21, 16, 23, 19, 41, 47, 4, 29, 19, 20, 25, 37, 43, 4, 49, 49, 27, 0, 34, 22, 32, 4, 37, 28, 52, 45, 23, 28, 45, 40, 46, 52, 31
            |33, 39, 23, 13, 48, 34, 30, 17, 15, 18, 18, 38, 26, 46, 44, 8, 45, 21, 32, 35, 27, 22, 4, 30, 26, 9, 48, 30, 43, 25, 50, 22, 19, 44, 37, 17, 31, 36, 48, 19, 9, 32, 36, 16, 13, 34, 0, 19, 3, 32, 42, 12, 24, 42, 33, 7, 38, 6, 26, 21, 32
            |24, 46, 17, 32, 59, 35, 29, 10, 34, 37, 25, 40, 25, 55, 48, 11, 42, 2, 42, 41, 12, 3, 16, 15, 38, 16, 57, 19, 40, 7, 44, 23, 35, 54, 26, 27, 30, 35, 44, 33, 27, 19, 50, 35, 6, 22, 19, 0, 16, 22, 48, 8, 42, 52, 34, 12, 49, 25, 42, 40, 38
            |31, 40, 21, 16, 50, 33, 29, 15, 18, 21, 18, 38, 25, 47, 44, 5, 44, 18, 33, 36, 24, 19, 2, 27, 28, 7, 49, 28, 42, 22, 49, 21, 21, 45, 35, 18, 30, 35, 46, 21, 12, 29, 38, 19, 10, 32, 3, 16, 0, 30, 43, 9, 27, 43, 32, 4, 40, 9, 28, 24, 32
            |2, 33, 9, 41, 50, 20, 14, 15, 42, 48, 21, 23, 12, 43, 33, 27, 22, 22, 35, 29, 12, 21, 31, 10, 34, 23, 44, 4, 19, 17, 22, 15, 37, 43, 5, 25, 15, 16, 23, 34, 40, 6, 45, 46, 26, 4, 32, 22, 30, 0, 34, 27, 49, 41, 19, 26, 41, 37, 42, 49, 27
            |32, 3, 32, 41, 18, 13, 20, 38, 41, 46, 25, 11, 23, 10, 4, 44, 19, 49, 14, 7, 43, 49, 45, 42, 19, 36, 11, 37, 21, 46, 28, 25, 29, 12, 35, 25, 19, 18, 22, 27, 46, 40, 23, 46, 47, 37, 42, 48, 43, 34, 0, 48, 41, 10, 15, 42, 14, 43, 28, 45, 10
            |29, 45, 20, 25, 57, 36, 31, 12, 28, 30, 23, 41, 27, 54, 49, 5, 45, 9, 40, 41, 18, 11, 9, 22, 35, 12, 55, 24, 43, 14, 49, 23, 30, 52, 32, 24, 32, 37, 47, 29, 20, 25, 46, 28, 1, 28, 12, 8, 9, 27, 48, 0, 36, 50, 35, 6, 47, 18, 37, 33, 38
            |48, 38, 41, 11, 37, 40, 40, 38, 9, 9, 28, 43, 38, 39, 44, 32, 52, 44, 27, 35, 48, 45, 27, 50, 22, 28, 41, 49, 52, 47, 60, 34, 13, 36, 53, 24, 40, 45, 56, 16, 18, 51, 22, 11, 37, 52, 24, 42, 27, 49, 41, 36, 0, 35, 40, 30, 30, 18, 13, 6, 33
            |39, 9, 38, 38, 9, 21, 27, 42, 37, 42, 27, 20, 30, 4, 14, 46, 29, 53, 10, 12, 49, 53, 45, 49, 16, 38, 6, 44, 31, 52, 38, 30, 26, 2, 44, 26, 26, 27, 32, 24, 44, 47, 14, 42, 50, 45, 42, 52, 43, 41, 10, 50, 35, 0, 22, 44, 5, 42, 23, 41, 14
            |17, 14, 17, 36, 31, 1, 5, 24, 36, 42, 15, 6, 9, 24, 14, 32, 13, 35, 18, 10, 28, 34, 34, 28, 20, 25, 25, 22, 13, 32, 21, 12, 27, 25, 21, 17, 4, 5, 16, 23, 39, 25, 29, 41, 35, 23, 33, 34, 32, 19, 15, 35, 40, 22, 0, 31, 23, 35, 30, 43, 9
            |27, 40, 18, 20, 51, 32, 27, 11, 22, 25, 18, 37, 23, 48, 44, 1, 42, 14, 34, 35, 20, 15, 5, 23, 29, 6, 50, 24, 40, 17, 46, 19, 24, 46, 31, 18, 28, 33, 44, 23, 16, 26, 40, 23, 7, 28, 7, 12, 4, 26, 42, 6, 30, 44, 31, 0, 41, 13, 31, 28, 32
            |40, 12, 37, 33, 10, 22, 27, 40, 32, 37, 25, 22, 29, 9, 17, 42, 32, 51, 7, 13, 48, 51, 42, 48, 12, 35, 11, 43, 33, 50, 41, 28, 21, 6, 44, 23, 27, 28, 35, 20, 40, 47, 9, 37, 47, 45, 38, 49, 40, 41, 14, 47, 30, 5, 23, 41, 0, 37, 17, 35, 14
            |38, 40, 28, 8, 47, 36, 33, 23, 10, 12, 21, 41, 30, 46, 45, 14, 48, 27, 31, 36, 33, 28, 9, 36, 25, 14, 48, 36, 47, 31, 54, 25, 17, 43, 42, 18, 34, 39, 51, 17, 4, 38, 33, 10, 19, 40, 6, 25, 9, 37, 43, 18, 18, 42, 35, 13, 37, 0, 23, 15, 33
            |41, 25, 35, 17, 25, 29, 31, 35, 16, 20, 21, 32, 31, 26, 32, 32, 42, 44, 14, 23, 45, 44, 30, 46, 10, 26, 28, 43, 42, 45, 50, 27, 7, 23, 47, 17, 31, 35, 45, 9, 25, 46, 10, 20, 38, 46, 26, 42, 28, 42, 28, 37, 13, 23, 30, 31, 17, 23, 0, 18, 22
            |49, 42, 41, 8, 43, 43, 42, 37, 7, 4, 29, 47, 40, 45, 48, 29, 55, 42, 32, 39, 47, 43, 24, 50, 26, 27, 47, 48, 55, 45, 63, 35, 16, 41, 54, 25, 42, 47, 59, 19, 14, 51, 28, 5, 34, 52, 21, 40, 24, 49, 45, 33, 6, 41, 43, 28, 35, 15, 18, 0, 37
            |25, 8, 23, 32, 23, 8, 13, 29, 32, 38, 15, 10, 15, 17, 12, 34, 20, 39, 9, 3, 35, 39, 34, 35, 12, 26, 18, 30, 21, 37, 29, 16, 21, 17, 30, 15, 12, 14, 23, 18, 36, 33, 20, 37, 37, 31, 32, 38, 32, 27, 10, 38, 33, 14, 9, 32, 14, 33, 22, 37, 0|];
early = [0, 61, 0, 181, 70, 35, 0, 289, 156, 343, 288, 28, 0, 80, 0, 238, 444, 220, 104, 0, 271, 253, 182, 0, 90, 263, 45, 0, 536, 210, 414, 0, 114, 73, 0, 390, 0, 0, 446, 320, 187, 0, 160, 202, 195, 0, 203, 213, 263, 0, 36, 274, 157, 78, 0, 346, 112, 349, 161, 502, 445];
late = [734, 221, 124, 361, 263, 203, 155, 444, 306, 506, 463, 135, 121, 197, 149, 383, 565, 374, 250, 168, 431, 374, 339, 132, 275, 428, 214, 94, 717, 366, 570, 140, 258, 237, 98, 573, 118, 146, 594, 451, 341, 97, 288, 336, 359, 103, 360, 386, 408, 114, 165, 415, 339, 285, 166, 484, 242, 469, 264, 662, 634];