% n80w120.002    19.91 805
n = 81;
duration = [|0, 26, 25, 18, 13, 13, 34, 14, 26, 33, 9, 8, 42, 17, 24, 14, 15, 26, 16, 36, 27, 14, 8, 30, 28, 28, 8, 18, 22, 28, 6, 7, 32, 30, 23, 19, 1, 20, 4, 35, 11, 29, 5, 22, 20, 15, 33, 27, 34, 15, 15, 31, 28, 32, 25, 8, 27, 24, 17, 22, 18, 8, 38, 22, 8, 27, 31, 17, 22, 18, 29, 27, 19, 7, 17, 23, 11, 19, 39, 24, 29
            |26, 0, 18, 21, 39, 20, 11, 12, 4, 16, 35, 32, 25, 18, 42, 35, 26, 38, 31, 21, 24, 27, 33, 10, 18, 20, 18, 17, 40, 11, 22, 29, 6, 11, 45, 18, 27, 8, 28, 23, 15, 29, 31, 23, 6, 21, 8, 26, 21, 23, 39, 12, 7, 22, 47, 23, 9, 2, 15, 30, 30, 33, 21, 38, 24, 48, 24, 38, 43, 20, 21, 44, 31, 29, 14, 23, 37, 42, 23, 37, 20
            |25, 18, 0, 8, 36, 13, 15, 19, 22, 10, 33, 27, 43, 8, 30, 39, 14, 48, 19, 11, 38, 16, 30, 28, 34, 36, 19, 29, 28, 28, 25, 23, 22, 29, 48, 30, 26, 21, 29, 10, 18, 43, 29, 35, 19, 30, 19, 40, 9, 32, 40, 30, 25, 7, 35, 27, 26, 16, 9, 14, 16, 28, 39, 45, 28, 36, 40, 28, 32, 7, 4, 50, 39, 23, 26, 7, 35, 44, 41, 46, 4
            |18, 21, 8, 0, 28, 5, 22, 16, 23, 18, 25, 18, 44, 2, 23, 32, 6, 42, 11, 20, 36, 8, 21, 29, 33, 35, 14, 26, 21, 29, 19, 15, 26, 30, 41, 27, 19, 20, 22, 18, 14, 40, 21, 32, 19, 26, 24, 37, 17, 28, 33, 31, 26, 15, 28, 22, 27, 18, 6, 9, 9, 20, 40, 39, 22, 28, 39, 20, 25, 1, 12, 44, 34, 15, 23, 5, 27, 37, 42, 40, 12
            |13, 39, 36, 28, 0, 23, 46, 27, 39, 45, 4, 9, 53, 28, 21, 14, 23, 28, 21, 47, 36, 21, 6, 42, 39, 39, 21, 30, 21, 40, 18, 13, 45, 42, 17, 30, 12, 33, 12, 46, 24, 37, 8, 31, 33, 25, 46, 35, 45, 24, 10, 44, 40, 42, 19, 19, 40, 37, 29, 28, 24, 8, 49, 23, 18, 21, 41, 15, 17, 29, 39, 25, 24, 13, 29, 32, 4, 13, 50, 27, 40
            |13, 20, 13, 5, 23, 0, 24, 13, 22, 22, 20, 14, 42, 4, 22, 27, 6, 37, 11, 24, 32, 6, 17, 28, 30, 32, 9, 22, 20, 27, 14, 11, 26, 28, 36, 23, 14, 18, 17, 22, 10, 36, 16, 28, 17, 22, 25, 33, 21, 23, 28, 30, 25, 19, 26, 17, 26, 18, 6, 12, 10, 16, 38, 34, 17, 27, 35, 18, 23, 6, 16, 39, 29, 11, 20, 10, 23, 32, 40, 35, 17
            |34, 11, 15, 22, 46, 24, 0, 21, 15, 8, 43, 38, 33, 20, 45, 45, 28, 50, 33, 11, 36, 30, 40, 20, 29, 31, 26, 28, 42, 22, 31, 35, 10, 21, 55, 29, 35, 19, 37, 15, 23, 40, 38, 34, 17, 32, 6, 37, 13, 34, 48, 22, 17, 15, 50, 32, 20, 12, 18, 30, 31, 39, 30, 49, 33, 50, 35, 42, 46, 21, 16, 55, 42, 35, 25, 22, 45, 52, 32, 48, 15
            |14, 12, 19, 16, 27, 13, 21, 0, 11, 23, 23, 21, 30, 14, 34, 24, 19, 29, 23, 27, 20, 19, 22, 16, 17, 19, 7, 10, 32, 15, 10, 19, 18, 16, 34, 11, 15, 6, 16, 28, 4, 24, 19, 16, 6, 12, 19, 21, 26, 14, 27, 18, 13, 25, 37, 11, 14, 10, 11, 25, 23, 22, 26, 28, 12, 38, 23, 28, 33, 16, 23, 33, 21, 19, 7, 21, 25, 30, 27, 28, 23
            |26, 4, 22, 23, 39, 22, 15, 11, 0, 21, 35, 32, 22, 21, 44, 34, 28, 35, 33, 25, 20, 28, 33, 6, 14, 16, 18, 14, 42, 7, 21, 30, 8, 7, 43, 14, 26, 6, 27, 27, 15, 25, 31, 19, 5, 18, 11, 22, 25, 21, 37, 9, 3, 26, 48, 21, 5, 5, 17, 32, 32, 33, 18, 35, 22, 49, 20, 39, 44, 22, 25, 41, 28, 30, 12, 26, 36, 40, 20, 34, 24
            |33, 16, 10, 18, 45, 22, 8, 23, 21, 0, 41, 36, 40, 17, 40, 46, 24, 52, 29, 4, 40, 26, 39, 26, 34, 37, 26, 32, 38, 27, 32, 33, 17, 27, 56, 33, 34, 23, 37, 7, 24, 45, 37, 38, 21, 35, 13, 42, 5, 37, 48, 28, 23, 8, 45, 33, 25, 16, 16, 24, 26, 37, 37, 51, 34, 46, 41, 38, 42, 17, 9, 57, 45, 33, 29, 16, 44, 52, 39, 51, 8
            |9, 35, 33, 25, 4, 20, 43, 23, 35, 41, 0, 7, 49, 25, 22, 12, 21, 26, 19, 44, 33, 18, 4, 38, 36, 35, 17, 26, 21, 36, 14, 10, 41, 38, 18, 26, 8, 29, 8, 43, 20, 34, 4, 28, 29, 21, 42, 32, 42, 21, 9, 40, 36, 39, 21, 15, 36, 33, 25, 26, 22, 6, 45, 21, 14, 23, 38, 15, 18, 26, 36, 24, 21, 10, 25, 29, 3, 13, 46, 25, 37
            |8, 32, 27, 18, 9, 14, 38, 21, 32, 36, 7, 0, 50, 19, 16, 18, 14, 32, 12, 38, 35, 11, 4, 37, 36, 36, 14, 26, 15, 36, 13, 3, 38, 37, 25, 27, 8, 27, 10, 36, 17, 37, 5, 30, 27, 23, 38, 34, 35, 23, 17, 39, 34, 33, 17, 16, 34, 30, 20, 19, 15, 1, 45, 27, 15, 19, 39, 9, 14, 19, 30, 31, 25, 3, 25, 22, 10, 21, 47, 30, 30
            |42, 25, 43, 44, 53, 42, 33, 30, 22, 40, 49, 50, 0, 42, 64, 43, 48, 37, 53, 44, 19, 49, 49, 15, 14, 15, 36, 24, 62, 15, 36, 48, 23, 14, 51, 23, 42, 24, 41, 47, 33, 22, 47, 23, 26, 28, 27, 21, 45, 30, 48, 13, 18, 47, 66, 35, 17, 27, 38, 54, 53, 50, 4, 40, 36, 68, 14, 58, 63, 44, 46, 45, 34, 48, 25, 48, 50, 50, 3, 37, 45
            |17, 18, 8, 2, 28, 4, 20, 14, 21, 17, 25, 19, 42, 0, 25, 31, 8, 41, 13, 19, 34, 9, 22, 27, 31, 33, 12, 24, 22, 27, 17, 16, 24, 28, 40, 25, 18, 18, 21, 18, 12, 38, 21, 30, 17, 25, 22, 35, 17, 26, 32, 29, 24, 15, 29, 20, 25, 16, 4, 12, 11, 20, 38, 38, 21, 30, 36, 21, 26, 2, 12, 43, 33, 16, 21, 7, 27, 36, 40, 39, 12
            |24, 42, 30, 23, 21, 22, 45, 34, 44, 40, 22, 16, 64, 25, 0, 34, 17, 48, 12, 40, 51, 16, 19, 50, 51, 51, 28, 41, 2, 49, 29, 17, 48, 50, 39, 42, 24, 40, 27, 37, 30, 53, 21, 46, 39, 39, 47, 51, 37, 39, 31, 52, 47, 34, 6, 32, 47, 40, 28, 16, 14, 17, 60, 43, 31, 6, 55, 7, 5, 24, 31, 46, 42, 17, 39, 23, 24, 35, 61, 46, 32
            |14, 35, 39, 32, 14, 27, 45, 24, 34, 46, 12, 18, 43, 31, 34, 0, 30, 15, 29, 49, 25, 28, 15, 35, 30, 28, 20, 21, 33, 33, 14, 20, 41, 35, 10, 21, 13, 28, 10, 49, 22, 24, 13, 20, 29, 16, 43, 23, 48, 14, 5, 36, 34, 46, 33, 13, 33, 34, 30, 36, 32, 17, 40, 9, 12, 35, 30, 27, 30, 33, 43, 13, 11, 20, 22, 37, 10, 7, 40, 13, 43
            |15, 26, 14, 6, 23, 6, 28, 19, 28, 24, 21, 14, 48, 8, 17, 30, 0, 41, 5, 25, 38, 2, 17, 33, 36, 37, 14, 28, 15, 33, 18, 11, 31, 34, 38, 29, 17, 24, 20, 23, 16, 41, 17, 33, 23, 27, 30, 38, 23, 28, 29, 36, 30, 20, 22, 21, 31, 23, 11, 7, 4, 15, 44, 37, 21, 22, 41, 14, 18, 7, 17, 42, 34, 11, 25, 9, 23, 33, 46, 39, 17
            |26, 38, 48, 42, 28, 37, 50, 29, 35, 52, 26, 32, 37, 41, 48, 15, 41, 0, 42, 56, 18, 40, 29, 34, 26, 24, 29, 21, 47, 32, 23, 33, 43, 34, 16, 21, 25, 30, 22, 57, 29, 15, 27, 17, 33, 18, 46, 16, 55, 16, 19, 34, 34, 54, 47, 21, 33, 38, 39, 48, 45, 31, 34, 6, 20, 49, 23, 41, 45, 43, 52, 8, 8, 33, 24, 48, 25, 18, 34, 2, 52
            |16, 31, 19, 11, 21, 11, 33, 23, 33, 29, 19, 12, 53, 13, 12, 29, 5, 42, 0, 30, 41, 4, 15, 38, 40, 41, 17, 31, 9, 38, 20, 9, 36, 39, 37, 32, 17, 28, 20, 27, 20, 44, 16, 36, 28, 30, 35, 41, 27, 30, 28, 40, 35, 24, 16, 23, 36, 29, 16, 8, 4, 13, 49, 38, 23, 17, 45, 9, 13, 12, 21, 42, 35, 9, 29, 13, 22, 32, 50, 40, 22
            |36, 21, 11, 20, 47, 24, 11, 27, 25, 4, 44, 38, 44, 19, 40, 49, 25, 56, 30, 0, 44, 27, 41, 30, 38, 41, 29, 36, 38, 32, 35, 35, 21, 31, 59, 37, 37, 27, 40, 4, 28, 49, 40, 42, 25, 39, 17, 46, 3, 41, 51, 32, 27, 6, 46, 37, 30, 20, 19, 24, 27, 39, 41, 54, 38, 46, 45, 39, 43, 19, 9, 60, 48, 35, 33, 17, 47, 55, 43, 55, 8
            |27, 24, 38, 36, 36, 32, 36, 20, 20, 40, 33, 35, 19, 34, 51, 25, 38, 18, 41, 44, 0, 37, 33, 17, 8, 5, 24, 10, 49, 15, 21, 34, 27, 16, 32, 9, 27, 18, 25, 46, 22, 5, 31, 5, 20, 12, 31, 2, 44, 12, 30, 17, 18, 44, 52, 19, 16, 24, 31, 45, 42, 34, 16, 21, 19, 54, 5, 44, 49, 36, 43, 26, 15, 34, 13, 41, 33, 31, 16, 18, 42
            |14, 27, 16, 8, 21, 6, 30, 19, 28, 26, 18, 11, 49, 9, 16, 28, 2, 40, 4, 27, 37, 0, 15, 34, 36, 37, 14, 28, 14, 33, 17, 8, 32, 35, 36, 28, 15, 24, 18, 25, 16, 41, 15, 33, 23, 26, 31, 38, 25, 27, 27, 36, 31, 22, 20, 20, 32, 24, 12, 9, 5, 13, 44, 36, 20, 21, 41, 12, 17, 9, 19, 40, 32, 8, 25, 11, 21, 31, 46, 38, 20
            |8, 33, 30, 21, 6, 17, 40, 22, 33, 39, 4, 4, 49, 22, 19, 15, 17, 29, 15, 41, 33, 15, 0, 37, 36, 35, 15, 26, 18, 36, 13, 6, 39, 38, 21, 26, 7, 28, 9, 39, 18, 35, 3, 28, 28, 22, 40, 33, 38, 21, 13, 39, 35, 36, 19, 15, 35, 31, 23, 23, 19, 2, 45, 24, 14, 21, 38, 12, 16, 22, 33, 27, 23, 6, 25, 26, 6, 17, 46, 27, 34
            |30, 10, 28, 29, 42, 28, 20, 16, 6, 26, 38, 37, 15, 27, 50, 35, 33, 34, 38, 30, 17, 34, 37, 0, 9, 12, 22, 14, 47, 2, 24, 35, 10, 1, 44, 14, 30, 10, 30, 33, 19, 22, 35, 17, 11, 19, 14, 19, 31, 21, 39, 2, 3, 32, 53, 24, 2, 11, 23, 39, 38, 37, 11, 35, 25, 54, 15, 44, 49, 29, 31, 41, 28, 35, 13, 33, 39, 42, 13, 33, 30
            |28, 18, 34, 33, 39, 30, 29, 17, 14, 34, 36, 36, 14, 31, 51, 30, 36, 26, 40, 38, 8, 36, 36, 9, 0, 3, 23, 10, 49, 7, 23, 35, 19, 8, 38, 9, 28, 13, 27, 41, 21, 13, 33, 10, 15, 14, 23, 10, 39, 16, 34, 9, 11, 39, 53, 21, 9, 18, 28, 42, 41, 36, 10, 28, 22, 55, 6, 45, 50, 33, 38, 33, 21, 35, 11, 38, 36, 37, 11, 25, 37
            |28, 20, 36, 35, 39, 32, 31, 19, 16, 37, 35, 36, 15, 33, 51, 28, 37, 24, 41, 41, 5, 37, 35, 12, 3, 0, 24, 10, 49, 10, 23, 35, 22, 11, 36, 9, 28, 15, 27, 43, 22, 10, 33, 8, 17, 14, 26, 8, 41, 15, 33, 11, 14, 41, 53, 21, 12, 21, 29, 44, 42, 36, 11, 26, 21, 55, 4, 45, 50, 35, 40, 31, 19, 35, 12, 39, 36, 35, 12, 23, 39
            |8, 18, 19, 14, 21, 9, 26, 7, 18, 26, 17, 14, 36, 12, 28, 20, 14, 29, 17, 29, 24, 14, 15, 22, 23, 24, 0, 14, 26, 21, 6, 12, 24, 23, 30, 15, 9, 13, 11, 29, 3, 27, 13, 19, 13, 13, 25, 24, 28, 14, 22, 24, 20, 26, 30, 8, 20, 16, 11, 21, 18, 15, 32, 26, 9, 32, 27, 22, 27, 14, 24, 31, 21, 12, 12, 19, 19, 26, 33, 27, 23
            |18, 17, 29, 26, 30, 22, 28, 10, 14, 32, 26, 26, 24, 24, 41, 21, 28, 21, 31, 36, 10, 28, 26, 14, 10, 10, 14, 0, 39, 12, 13, 25, 21, 14, 30, 1, 18, 9, 17, 37, 12, 14, 23, 6, 11, 5, 24, 11, 35, 7, 25, 15, 14, 35, 43, 11, 12, 16, 21, 35, 32, 26, 20, 22, 12, 45, 13, 35, 40, 26, 33, 27, 14, 25, 3, 31, 26, 28, 21, 20, 33
            |22, 40, 28, 21, 21, 20, 42, 32, 42, 38, 21, 15, 62, 22, 2, 33, 15, 47, 9, 38, 49, 14, 18, 47, 49, 49, 26, 39, 0, 47, 27, 15, 46, 48, 38, 40, 23, 37, 25, 35, 28, 51, 20, 44, 37, 37, 45, 49, 35, 37, 30, 49, 45, 32, 8, 30, 45, 38, 26, 14, 11, 16, 57, 42, 30, 8, 53, 6, 6, 22, 29, 45, 41, 15, 37, 21, 23, 34, 59, 45, 30
            |28, 11, 28, 29, 40, 27, 22, 15, 7, 27, 36, 36, 15, 27, 49, 33, 33, 32, 38, 32, 15, 33, 36, 2, 7, 10, 21, 12, 47, 0, 23, 34, 12, 2, 42, 12, 29, 9, 28, 34, 18, 20, 33, 15, 10, 17, 16, 17, 32, 19, 37, 3, 4, 33, 52, 22, 2, 12, 23, 38, 37, 36, 11, 33, 23, 53, 13, 43, 48, 29, 32, 39, 26, 34, 11, 33, 38, 40, 13, 31, 31
            |6, 22, 25, 19, 18, 14, 31, 10, 21, 32, 14, 13, 36, 17, 29, 14, 18, 23, 20, 35, 21, 17, 13, 24, 23, 23, 6, 13, 27, 23, 0, 13, 28, 25, 24, 13, 6, 15, 6, 35, 8, 24, 10, 17, 16, 10, 29, 22, 33, 10, 17, 26, 23, 32, 31, 3, 22, 20, 16, 25, 22, 13, 32, 20, 3, 32, 26, 22, 27, 19, 29, 26, 16, 13, 12, 24, 15, 21, 33, 22, 29
            |7, 29, 23, 15, 13, 11, 35, 19, 30, 33, 10, 3, 48, 16, 17, 20, 11, 33, 9, 35, 34, 8, 6, 35, 35, 35, 12, 25, 15, 34, 13, 0, 35, 35, 27, 26, 8, 25, 11, 33, 15, 36, 7, 29, 25, 22, 36, 34, 32, 22, 19, 37, 32, 30, 18, 15, 32, 27, 17, 17, 13, 4, 44, 28, 15, 20, 38, 10, 15, 16, 27, 33, 26, 0, 23, 19, 13, 23, 45, 31, 27
            |32, 6, 22, 26, 45, 26, 10, 18, 8, 17, 41, 38, 23, 24, 48, 41, 31, 43, 36, 21, 27, 32, 39, 10, 19, 22, 24, 21, 46, 12, 28, 35, 0, 11, 51, 22, 33, 13, 34, 24, 21, 32, 37, 26, 12, 26, 4, 29, 22, 28, 44, 12, 8, 24, 52, 28, 11, 8, 20, 35, 35, 39, 20, 43, 29, 53, 26, 44, 49, 25, 24, 49, 36, 35, 19, 28, 43, 48, 22, 42, 23
            |30, 11, 29, 30, 42, 28, 21, 16, 7, 27, 38, 37, 14, 28, 50, 35, 34, 34, 39, 31, 16, 35, 38, 1, 8, 11, 23, 14, 48, 2, 25, 35, 11, 0, 44, 14, 30, 11, 30, 34, 20, 21, 35, 17, 11, 19, 15, 19, 32, 21, 39, 1, 4, 33, 53, 24, 3, 12, 24, 39, 39, 38, 10, 35, 25, 55, 14, 45, 50, 30, 32, 41, 28, 35, 13, 34, 40, 42, 12, 33, 31
            |23, 45, 48, 41, 17, 36, 55, 34, 43, 56, 18, 25, 51, 40, 39, 10, 38, 16, 37, 59, 32, 36, 21, 44, 38, 36, 30, 30, 38, 42, 24, 27, 51, 44, 0, 30, 22, 37, 19, 58, 32, 30, 21, 28, 39, 25, 53, 30, 57, 23, 9, 45, 44, 55, 36, 23, 42, 44, 40, 44, 40, 24, 48, 11, 22, 38, 37, 32, 34, 42, 52, 9, 17, 27, 32, 46, 15, 4, 48, 15, 52
            |19, 18, 30, 27, 30, 23, 29, 11, 14, 33, 26, 27, 23, 25, 42, 21, 29, 21, 32, 37, 9, 28, 26, 14, 9, 9, 15, 1, 40, 12, 13, 26, 22, 14, 30, 0, 19, 10, 18, 38, 13, 13, 23, 5, 12, 5, 25, 10, 36, 7, 25, 15, 14, 36, 44, 11, 12, 17, 22, 36, 33, 27, 19, 21, 12, 46, 13, 36, 41, 27, 34, 27, 14, 26, 4, 32, 27, 28, 20, 20, 34
            |1, 27, 26, 19, 12, 14, 35, 15, 26, 34, 8, 8, 42, 18, 24, 13, 17, 25, 17, 37, 27, 15, 7, 30, 28, 28, 9, 18, 23, 29, 6, 8, 33, 30, 22, 19, 0, 21, 3, 36, 12, 29, 4, 22, 21, 15, 34, 26, 35, 15, 14, 32, 28, 33, 25, 8, 28, 25, 18, 23, 20, 8, 38, 21, 7, 27, 31, 17, 22, 20, 30, 25, 18, 8, 17, 24, 10, 18, 39, 23, 31
            |20, 8, 21, 20, 33, 18, 19, 6, 6, 23, 29, 27, 24, 18, 40, 28, 24, 30, 28, 27, 18, 24, 28, 10, 13, 15, 13, 9, 37, 9, 15, 25, 13, 11, 37, 10, 21, 0, 21, 28, 9, 22, 25, 15, 2, 13, 16, 19, 27, 15, 31, 12, 8, 27, 43, 15, 8, 7, 15, 30, 28, 27, 20, 30, 16, 44, 19, 34, 39, 20, 25, 36, 23, 25, 6, 25, 30, 35, 22, 29, 24
            |4, 28, 29, 22, 12, 17, 37, 16, 27, 37, 8, 10, 41, 21, 27, 10, 20, 22, 20, 40, 25, 18, 9, 30, 27, 27, 11, 17, 25, 28, 6, 11, 34, 30, 19, 18, 3, 21, 0, 39, 13, 26, 6, 20, 22, 13, 35, 24, 38, 13, 11, 32, 28, 36, 27, 7, 28, 26, 21, 27, 23, 10, 37, 18, 6, 29, 30, 20, 24, 23, 33, 22, 15, 11, 17, 27, 9, 15, 38, 20, 33
            |35, 23, 10, 18, 46, 22, 15, 28, 27, 7, 43, 36, 47, 18, 37, 49, 23, 57, 27, 4, 46, 25, 39, 33, 41, 43, 29, 37, 35, 34, 35, 33, 24, 34, 58, 38, 36, 28, 39, 0, 28, 51, 39, 43, 26, 39, 21, 48, 2, 41, 50, 35, 30, 3, 43, 37, 32, 22, 18, 21, 24, 38, 44, 55, 38, 43, 47, 36, 40, 17, 6, 60, 49, 33, 34, 14, 45, 54, 46, 55, 6
            |11, 15, 18, 14, 24, 10, 23, 4, 15, 24, 20, 17, 33, 12, 30, 22, 16, 29, 20, 28, 22, 16, 18, 19, 21, 22, 3, 12, 28, 18, 8, 15, 21, 20, 32, 13, 12, 9, 13, 28, 0, 26, 16, 18, 9, 12, 22, 23, 26, 14, 24, 21, 17, 25, 33, 9, 17, 13, 10, 22, 20, 18, 29, 27, 10, 35, 25, 25, 30, 14, 23, 33, 21, 15, 9, 19, 22, 28, 31, 27, 22
            |29, 29, 43, 40, 37, 36, 40, 24, 25, 45, 34, 37, 22, 38, 53, 24, 41, 15, 44, 49, 5, 41, 35, 22, 13, 10, 27, 14, 51, 20, 24, 36, 32, 21, 30, 13, 29, 22, 26, 51, 26, 0, 32, 8, 25, 14, 36, 3, 49, 14, 29, 21, 23, 49, 54, 21, 21, 29, 35, 48, 46, 36, 19, 19, 22, 55, 8, 46, 51, 40, 47, 23, 14, 36, 17, 45, 33, 30, 19, 15, 47
            |5, 31, 29, 21, 8, 16, 38, 19, 31, 37, 4, 5, 47, 21, 21, 13, 17, 27, 16, 40, 31, 15, 3, 35, 33, 33, 13, 23, 20, 33, 10, 7, 37, 35, 21, 23, 4, 25, 6, 39, 16, 32, 0, 26, 25, 19, 38, 30, 38, 19, 12, 36, 33, 36, 21, 12, 32, 29, 21, 23, 19, 4, 42, 22, 11, 23, 35, 14, 18, 22, 32, 26, 21, 7, 22, 25, 7, 16, 44, 25, 33
            |22, 23, 35, 32, 31, 28, 34, 16, 19, 38, 28, 30, 23, 30, 46, 20, 33, 17, 36, 42, 5, 33, 28, 17, 10, 8, 19, 6, 44, 15, 17, 29, 26, 17, 28, 5, 22, 15, 20, 43, 18, 8, 26, 0, 17, 7, 30, 5, 42, 7, 25, 18, 18, 41, 47, 14, 16, 22, 27, 40, 38, 29, 19, 18, 14, 49, 10, 39, 44, 32, 40, 24, 11, 29, 9, 37, 28, 27, 20, 16, 39
            |20, 6, 19, 19, 33, 17, 17, 6, 5, 21, 29, 27, 26, 17, 39, 29, 23, 33, 28, 25, 20, 23, 28, 11, 15, 17, 13, 11, 37, 10, 16, 25, 12, 11, 39, 12, 21, 2, 22, 26, 9, 25, 25, 17, 0, 15, 14, 22, 24, 17, 32, 13, 8, 25, 42, 16, 9, 5, 13, 28, 27, 28, 21, 32, 17, 44, 21, 34, 39, 18, 23, 38, 25, 25, 8, 23, 31, 36, 23, 31, 22
            |15, 21, 30, 26, 25, 22, 32, 12, 18, 35, 21, 23, 28, 25, 39, 16, 27, 18, 30, 39, 12, 26, 22, 19, 14, 14, 13, 5, 37, 17, 10, 22, 26, 19, 25, 5, 15, 13, 13, 39, 12, 14, 19, 7, 15, 0, 29, 12, 38, 2, 20, 20, 18, 37, 40, 7, 17, 20, 22, 34, 31, 23, 24, 17, 8, 42, 16, 32, 37, 26, 35, 23, 10, 22, 7, 32, 22, 23, 25, 16, 34
            |33, 8, 19, 24, 46, 25, 6, 19, 11, 13, 42, 38, 27, 22, 47, 43, 30, 46, 35, 17, 31, 31, 40, 14, 23, 26, 25, 24, 45, 16, 29, 36, 4, 15, 53, 25, 34, 16, 35, 21, 22, 36, 38, 30, 14, 29, 0, 33, 19, 31, 46, 16, 12, 21, 52, 30, 14, 9, 19, 33, 34, 39, 24, 46, 31, 52, 30, 43, 48, 23, 21, 51, 39, 36, 22, 25, 44, 50, 26, 45, 20
            |27, 26, 40, 37, 35, 33, 37, 21, 22, 42, 32, 34, 21, 35, 51, 23, 38, 16, 41, 46, 2, 38, 33, 19, 10, 8, 24, 11, 49, 17, 22, 34, 29, 19, 30, 10, 26, 19, 24, 48, 23, 3, 30, 5, 22, 12, 33, 0, 46, 12, 28, 19, 21, 46, 52, 19, 18, 26, 32, 45, 43, 34, 18, 19, 19, 53, 7, 44, 48, 37, 44, 24, 13, 34, 14, 42, 32, 30, 18, 16, 43
            |34, 21, 9, 17, 45, 21, 13, 26, 25, 5, 42, 35, 45, 17, 37, 48, 23, 55, 27, 3, 44, 25, 38, 31, 39, 41, 28, 35, 35, 32, 33, 32, 22, 32, 57, 36, 35, 27, 38, 2, 26, 49, 38, 42, 24, 38, 19, 46, 0, 40, 49, 33, 28, 3, 43, 35, 30, 20, 17, 21, 24, 37, 42, 53, 36, 43, 45, 36, 40, 16, 6, 59, 47, 32, 32, 14, 44, 53, 44, 54, 5
            |15, 23, 32, 28, 24, 23, 34, 14, 21, 37, 21, 23, 30, 26, 39, 14, 28, 16, 30, 41, 12, 27, 21, 21, 16, 15, 14, 7, 37, 19, 10, 22, 28, 21, 23, 7, 15, 15, 13, 41, 14, 14, 19, 7, 17, 2, 31, 12, 40, 0, 19, 22, 21, 39, 40, 7, 19, 22, 24, 35, 32, 22, 26, 15, 8, 42, 17, 32, 37, 28, 37, 21, 8, 22, 9, 33, 21, 21, 26, 14, 36
            |15, 39, 40, 33, 10, 28, 48, 27, 37, 48, 9, 17, 48, 32, 31, 5, 29, 19, 28, 51, 30, 27, 13, 39, 34, 33, 22, 25, 30, 37, 17, 19, 44, 39, 9, 25, 14, 31, 11, 50, 24, 29, 12, 25, 32, 20, 46, 28, 49, 19, 0, 40, 38, 47, 29, 16, 37, 37, 32, 36, 31, 15, 44, 13, 15, 31, 35, 24, 27, 33, 44, 15, 16, 19, 26, 37, 7, 4, 45, 17, 44
            |31, 12, 30, 31, 44, 30, 22, 18, 9, 28, 40, 39, 13, 29, 52, 36, 36, 34, 40, 32, 17, 36, 39, 2, 9, 11, 24, 15, 49, 3, 26, 37, 12, 1, 45, 15, 32, 12, 32, 35, 21, 21, 36, 18, 13, 20, 16, 19, 33, 22, 40, 0, 5, 34, 55, 25, 4, 14, 26, 41, 40, 39, 9, 36, 26, 56, 14, 46, 51, 31, 34, 41, 28, 37, 15, 35, 41, 43, 11, 34, 32
            |28, 7, 25, 26, 40, 25, 17, 13, 3, 23, 36, 34, 18, 24, 47, 34, 30, 34, 35, 27, 18, 31, 35, 3, 11, 14, 20, 14, 45, 4, 23, 32, 8, 4, 44, 14, 28, 8, 28, 30, 17, 23, 33, 18, 8, 18, 12, 21, 28, 21, 38, 5, 0, 29, 50, 22, 2, 8, 20, 36, 35, 35, 15, 35, 23, 51, 17, 42, 47, 26, 28, 41, 28, 32, 12, 30, 38, 41, 16, 34, 27
            |32, 22, 7, 15, 42, 19, 15, 25, 26, 8, 39, 33, 47, 15, 34, 46, 20, 54, 24, 6, 44, 22, 36, 32, 39, 41, 26, 35, 32, 33, 32, 30, 24, 33, 55, 36, 33, 27, 36, 3, 25, 49, 36, 41, 25, 37, 21, 46, 3, 39, 47, 34, 29, 0, 40, 34, 31, 21, 16, 18, 21, 34, 43, 52, 35, 40, 45, 33, 37, 14, 3, 57, 46, 30, 32, 11, 42, 51, 45, 53, 3
            |25, 47, 35, 28, 19, 26, 50, 37, 48, 45, 21, 17, 66, 29, 6, 33, 22, 47, 16, 46, 52, 20, 19, 53, 53, 53, 30, 43, 8, 52, 31, 18, 52, 53, 36, 44, 25, 43, 27, 43, 33, 54, 21, 47, 42, 40, 52, 52, 43, 40, 29, 55, 50, 40, 0, 33, 51, 44, 32, 22, 19, 17, 62, 42, 32, 2, 56, 9, 4, 29, 37, 44, 42, 18, 42, 29, 22, 32, 64, 45, 38
            |8, 23, 27, 22, 19, 17, 32, 11, 21, 33, 15, 16, 35, 20, 32, 13, 21, 21, 23, 37, 19, 20, 15, 24, 21, 21, 8, 11, 30, 22, 3, 15, 28, 24, 23, 11, 8, 15, 7, 37, 9, 21, 12, 14, 16, 7, 30, 19, 35, 7, 16, 25, 22, 34, 33, 0, 21, 21, 19, 28, 25, 16, 31, 18, 1, 35, 23, 25, 30, 22, 32, 23, 13, 15, 10, 27, 16, 20, 32, 19, 31
            |27, 9, 26, 27, 40, 26, 20, 14, 5, 25, 36, 34, 17, 25, 47, 33, 31, 33, 36, 30, 16, 32, 35, 2, 9, 12, 20, 12, 45, 2, 22, 32, 11, 3, 42, 12, 28, 8, 28, 32, 17, 21, 32, 16, 9, 17, 14, 18, 30, 19, 37, 4, 2, 31, 51, 21, 0, 10, 21, 37, 36, 35, 13, 34, 22, 52, 15, 42, 47, 27, 30, 39, 26, 32, 11, 31, 37, 40, 15, 32, 29
            |24, 2, 16, 18, 37, 18, 12, 10, 5, 16, 33, 30, 27, 16, 40, 34, 23, 38, 29, 20, 24, 24, 31, 11, 18, 21, 16, 16, 38, 12, 20, 27, 8, 12, 44, 17, 25, 7, 26, 22, 13, 29, 29, 22, 5, 20, 9, 26, 20, 22, 37, 14, 8, 21, 44, 21, 10, 0, 13, 28, 28, 31, 23, 37, 22, 45, 25, 36, 41, 18, 20, 43, 30, 27, 13, 21, 35, 41, 25, 36, 19
            |17, 15, 9, 6, 29, 6, 18, 11, 17, 16, 25, 20, 38, 4, 28, 30, 11, 39, 16, 19, 31, 12, 23, 23, 28, 29, 11, 21, 26, 23, 16, 17, 20, 24, 40, 22, 18, 15, 21, 18, 10, 35, 21, 27, 13, 22, 19, 32, 17, 24, 32, 26, 20, 16, 32, 19, 21, 13, 0, 15, 15, 21, 34, 36, 19, 33, 33, 24, 29, 5, 13, 42, 31, 17, 18, 10, 28, 36, 36, 37, 13
            |22, 30, 14, 9, 28, 12, 30, 25, 32, 24, 26, 19, 54, 12, 16, 36, 7, 48, 8, 24, 45, 9, 23, 39, 42, 44, 21, 35, 14, 38, 25, 17, 35, 39, 44, 36, 23, 30, 27, 21, 22, 48, 23, 40, 28, 34, 33, 45, 21, 35, 36, 41, 36, 18, 22, 28, 37, 28, 15, 0, 4, 21, 50, 44, 28, 22, 48, 16, 19, 10, 15, 49, 41, 17, 32, 8, 29, 40, 51, 46, 16
            |18, 30, 16, 9, 24, 10, 31, 23, 32, 26, 22, 15, 53, 11, 14, 32, 4, 45, 4, 27, 42, 5, 19, 38, 41, 42, 18, 32, 11, 37, 22, 13, 35, 39, 40, 33, 20, 28, 23, 24, 20, 46, 19, 38, 27, 31, 34, 43, 24, 32, 31, 40, 35, 21, 19, 25, 36, 28, 15, 4, 0, 16, 49, 41, 25, 19, 46, 12, 16, 10, 18, 45, 37, 13, 30, 10, 25, 36, 50, 43, 19
            |8, 33, 28, 20, 8, 16, 39, 22, 33, 37, 6, 1, 50, 20, 17, 17, 15, 31, 13, 39, 34, 13, 2, 37, 36, 36, 15, 26, 16, 36, 13, 4, 39, 38, 24, 27, 8, 27, 10, 38, 18, 36, 4, 29, 28, 23, 39, 34, 37, 22, 15, 39, 35, 34, 17, 16, 35, 31, 21, 21, 16, 0, 46, 26, 15, 19, 39, 10, 14, 21, 31, 30, 25, 4, 25, 24, 9, 19, 47, 29, 32
            |38, 21, 39, 40, 49, 38, 30, 26, 18, 37, 45, 45, 4, 38, 60, 40, 44, 34, 49, 41, 16, 44, 45, 11, 10, 11, 32, 20, 57, 11, 32, 44, 20, 10, 48, 19, 38, 20, 37, 44, 29, 19, 42, 19, 21, 24, 24, 18, 42, 26, 44, 9, 15, 43, 62, 31, 13, 23, 34, 50, 49, 46, 0, 37, 31, 64, 11, 54, 59, 40, 43, 42, 30, 44, 21, 44, 46, 46, 2, 34, 42
            |22, 38, 45, 39, 23, 34, 49, 28, 35, 51, 21, 27, 40, 38, 43, 9, 37, 6, 38, 54, 21, 36, 24, 35, 28, 26, 26, 22, 42, 33, 20, 28, 43, 35, 11, 21, 21, 30, 18, 55, 27, 19, 22, 18, 32, 17, 46, 19, 53, 15, 13, 36, 35, 52, 42, 18, 34, 37, 36, 44, 41, 26, 37, 0, 17, 44, 26, 36, 39, 39, 49, 6, 7, 28, 24, 44, 19, 12, 37, 4, 49
            |8, 24, 28, 22, 18, 17, 33, 12, 22, 34, 14, 15, 36, 21, 31, 12, 21, 20, 23, 38, 19, 20, 14, 25, 22, 21, 9, 12, 30, 23, 3, 15, 29, 25, 22, 12, 7, 16, 6, 38, 10, 22, 11, 14, 17, 8, 31, 19, 36, 8, 15, 26, 23, 35, 32, 1, 22, 22, 19, 28, 25, 15, 31, 17, 0, 34, 24, 25, 29, 22, 32, 23, 12, 15, 11, 27, 15, 19, 32, 18, 32
            |27, 48, 36, 28, 21, 27, 50, 38, 49, 46, 23, 19, 68, 30, 6, 35, 22, 49, 17, 46, 54, 21, 21, 54, 55, 55, 32, 45, 8, 53, 32, 20, 53, 55, 38, 46, 27, 44, 29, 43, 35, 55, 23, 49, 44, 42, 52, 53, 43, 42, 31, 56, 51, 40, 2, 35, 52, 45, 33, 22, 19, 19, 64, 44, 34, 0, 58, 10, 5, 29, 37, 46, 44, 20, 43, 29, 24, 34, 65, 47, 38
            |31, 24, 40, 39, 41, 35, 35, 23, 20, 41, 38, 39, 14, 36, 55, 30, 41, 23, 45, 45, 5, 41, 38, 15, 6, 4, 27, 13, 53, 13, 26, 38, 26, 14, 37, 13, 31, 19, 30, 47, 25, 8, 35, 10, 21, 16, 30, 7, 45, 17, 35, 14, 17, 45, 56, 23, 15, 25, 33, 48, 46, 39, 11, 26, 24, 58, 0, 48, 53, 38, 44, 31, 20, 38, 16, 43, 38, 36, 11, 23, 43
            |17, 38, 28, 20, 15, 18, 42, 28, 39, 38, 15, 9, 58, 21, 7, 27, 14, 41, 9, 39, 44, 12, 12, 44, 45, 45, 22, 35, 6, 43, 22, 10, 44, 45, 32, 36, 17, 34, 20, 36, 25, 46, 14, 39, 34, 32, 43, 44, 36, 32, 24, 46, 42, 33, 9, 25, 42, 36, 24, 16, 12, 10, 54, 36, 25, 10, 48, 0, 5, 21, 30, 39, 35, 10, 33, 22, 17, 28, 55, 39, 31
            |22, 43, 32, 25, 17, 23, 46, 33, 44, 42, 18, 14, 63, 26, 5, 30, 18, 45, 13, 43, 49, 17, 16, 49, 50, 50, 27, 40, 6, 48, 27, 15, 49, 50, 34, 41, 22, 39, 24, 40, 30, 51, 18, 44, 39, 37, 48, 48, 40, 37, 27, 51, 47, 37, 4, 30, 47, 41, 29, 19, 16, 14, 59, 39, 29, 5, 53, 5, 0, 25, 34, 42, 39, 15, 38, 26, 20, 30, 60, 43, 35
            |18, 20, 7, 1, 29, 6, 21, 16, 22, 17, 26, 19, 44, 2, 24, 33, 7, 43, 12, 19, 36, 9, 22, 29, 33, 35, 14, 26, 22, 29, 19, 16, 25, 30, 42, 27, 20, 20, 23, 17, 14, 40, 22, 32, 18, 26, 23, 37, 16, 28, 33, 31, 26, 14, 29, 22, 27, 18, 5, 10, 10, 21, 40, 39, 22, 29, 38, 21, 25, 0, 11, 45, 35, 16, 23, 5, 28, 38, 42, 41, 11
            |29, 21, 4, 12, 39, 16, 16, 23, 25, 9, 36, 30, 46, 12, 31, 43, 17, 52, 21, 9, 43, 19, 33, 31, 38, 40, 24, 33, 29, 32, 29, 27, 24, 32, 52, 34, 30, 25, 33, 6, 23, 47, 32, 40, 23, 35, 21, 44, 6, 37, 44, 34, 28, 3, 37, 32, 30, 20, 13, 15, 18, 31, 43, 49, 32, 37, 44, 30, 34, 11, 0, 55, 44, 27, 30, 8, 39, 48, 45, 50, 1
            |27, 44, 50, 44, 25, 39, 55, 33, 41, 57, 24, 31, 45, 43, 46, 13, 42, 8, 42, 60, 26, 40, 27, 41, 33, 31, 31, 27, 45, 39, 26, 33, 49, 41, 9, 27, 25, 36, 22, 60, 33, 23, 26, 24, 38, 23, 51, 24, 59, 21, 15, 41, 41, 57, 44, 23, 39, 43, 42, 49, 45, 30, 42, 6, 23, 46, 31, 39, 42, 45, 55, 0, 13, 33, 30, 49, 22, 12, 42, 8, 55
            |19, 31, 39, 34, 24, 29, 42, 21, 28, 45, 21, 25, 34, 33, 42, 11, 34, 8, 35, 48, 15, 32, 23, 28, 21, 19, 21, 14, 41, 26, 16, 26, 36, 28, 17, 14, 18, 23, 15, 49, 21, 14, 21, 11, 25, 10, 39, 13, 47, 8, 16, 28, 28, 46, 42, 13, 26, 30, 31, 41, 37, 25, 30, 7, 12, 44, 20, 35, 39, 35, 44, 13, 0, 26, 17, 40, 20, 17, 31, 6, 44
            |7, 29, 23, 15, 13, 11, 35, 19, 30, 33, 10, 3, 48, 16, 17, 20, 11, 33, 9, 35, 34, 8, 6, 35, 35, 35, 12, 25, 15, 34, 13, 0, 35, 35, 27, 26, 8, 25, 11, 33, 15, 36, 7, 29, 25, 22, 36, 34, 32, 22, 19, 37, 32, 30, 18, 15, 32, 27, 17, 17, 13, 4, 44, 28, 15, 20, 38, 10, 15, 16, 27, 33, 26, 0, 23, 19, 13, 23, 45, 31, 27
            |17, 14, 26, 23, 29, 20, 25, 7, 12, 29, 25, 25, 25, 21, 39, 22, 25, 24, 29, 33, 13, 25, 25, 13, 11, 12, 12, 3, 37, 11, 12, 23, 19, 13, 32, 4, 17, 6, 17, 34, 9, 17, 22, 9, 8, 7, 22, 14, 32, 9, 26, 15, 12, 32, 42, 10, 11, 13, 18, 32, 30, 25, 21, 24, 11, 43, 16, 33, 38, 23, 30, 30, 17, 23, 0, 28, 26, 29, 22, 23, 29
            |23, 23, 7, 5, 32, 10, 22, 21, 26, 16, 29, 22, 48, 7, 23, 37, 9, 48, 13, 17, 41, 11, 26, 33, 38, 39, 19, 31, 21, 33, 24, 19, 28, 34, 46, 32, 24, 25, 27, 14, 19, 45, 25, 37, 23, 32, 25, 42, 14, 33, 37, 35, 30, 11, 29, 27, 31, 21, 10, 8, 10, 24, 44, 44, 27, 29, 43, 22, 26, 5, 8, 49, 40, 19, 28, 0, 32, 42, 46, 46, 9
            |11, 37, 35, 27, 4, 23, 45, 25, 36, 44, 3, 10, 50, 27, 24, 10, 23, 25, 22, 47, 33, 21, 6, 39, 36, 36, 19, 26, 23, 38, 15, 13, 43, 40, 15, 27, 10, 30, 9, 45, 22, 33, 7, 28, 31, 22, 44, 32, 44, 21, 7, 41, 38, 42, 22, 16, 37, 35, 28, 29, 25, 9, 46, 19, 15, 24, 38, 17, 20, 28, 39, 22, 20, 13, 26, 32, 0, 11, 47, 23, 39
            |19, 42, 44, 37, 13, 32, 52, 30, 40, 52, 13, 21, 50, 36, 35, 7, 33, 18, 32, 55, 31, 31, 17, 42, 37, 35, 26, 28, 34, 40, 21, 23, 48, 42, 4, 28, 18, 35, 15, 54, 28, 30, 16, 27, 36, 23, 50, 30, 53, 21, 4, 43, 41, 51, 32, 20, 40, 41, 36, 40, 36, 19, 46, 12, 19, 34, 36, 28, 30, 38, 48, 12, 17, 23, 29, 42, 11, 0, 47, 16, 48
            |39, 23, 41, 42, 50, 40, 32, 27, 20, 39, 46, 47, 3, 40, 61, 40, 46, 34, 50, 43, 16, 46, 46, 13, 11, 12, 33, 21, 59, 13, 33, 45, 22, 12, 48, 20, 39, 22, 38, 46, 31, 19, 44, 20, 23, 25, 26, 18, 44, 26, 45, 11, 16, 45, 64, 32, 15, 25, 36, 51, 50, 47, 2, 37, 32, 65, 11, 55, 60, 42, 45, 42, 31, 45, 22, 46, 47, 47, 0, 34, 44
            |24, 37, 46, 40, 27, 35, 48, 28, 34, 51, 25, 30, 37, 39, 46, 13, 39, 2, 40, 55, 18, 38, 27, 33, 25, 23, 27, 20, 45, 31, 22, 31, 42, 33, 15, 20, 23, 29, 20, 55, 27, 15, 25, 16, 31, 16, 45, 16, 54, 14, 17, 34, 34, 53, 45, 19, 32, 36, 37, 46, 43, 29, 34, 4, 18, 47, 23, 39, 43, 41, 50, 8, 6, 31, 23, 46, 23, 16, 34, 0, 50
            |29, 20, 4, 12, 40, 17, 15, 23, 24, 8, 37, 30, 45, 12, 32, 43, 17, 52, 22, 8, 42, 20, 34, 30, 37, 39, 23, 33, 30, 31, 29, 27, 23, 31, 52, 34, 31, 24, 33, 6, 22, 47, 33, 39, 22, 34, 20, 43, 5, 36, 44, 32, 27, 3, 38, 31, 29, 19, 13, 16, 19, 32, 42, 49, 32, 38, 43, 31, 35, 11, 1, 55, 44, 27, 29, 9, 39, 48, 44, 50, 0|];
early = [0, 66, 18, 9, 210, 3, 52, 168, 68, 42, 542, 0, 357, 5, 508, 233, 0, 255, 0, 31, 112, 0, 0, 90, 104, 333, 199, 172, 494, 89, 0, 0, 67, 347, 264, 137, 0, 155, 0, 461, 162, 113, 195, 132, 78, 299, 392, 303, 31, 169, 220, 98, 83, 39, 507, 183, 98, 86, 23, 431, 524, 0, 641, 243, 0, 566, 108, 500, 504, 440, 416, 255, 315, 0, 136, 429, 215, 730, 365, 285, 682];
late = [862, 192, 141, 126, 325, 129, 167, 279, 180, 166, 664, 98, 474, 134, 624, 344, 116, 360, 117, 159, 234, 111, 94, 219, 221, 463, 314, 298, 618, 221, 73, 89, 180, 477, 378, 257, 80, 274, 57, 580, 285, 249, 329, 253, 186, 417, 511, 419, 162, 290, 343, 212, 198, 145, 625, 310, 223, 195, 126, 555, 639, 91, 766, 352, 72, 699, 235, 622, 631, 560, 536, 380, 441, 100, 255, 533, 321, 843, 487, 398, 791];