% n80w160.001	   58.10 703
n = 81;
duration = [|0, 36, 24, 36, 35, 15, 30, 11, 6, 12, 15, 35, 40, 25, 3, 36, 19, 33, 12, 19, 40, 8, 26, 36, 39, 18, 27, 36, 52, 44, 12, 38, 51, 37, 20, 52, 26, 8, 14, 48, 5, 9, 33, 39, 36, 17, 34, 35, 17, 37, 38, 14, 47, 35, 24, 20, 22, 37, 40, 19, 25, 29, 41, 6, 26, 42, 14, 10, 32, 36, 38, 12, 19, 34, 13, 39, 17, 24, 8, 30, 32
            |36, 0, 13, 37, 1, 24, 10, 25, 34, 24, 21, 42, 41, 22, 33, 42, 21, 7, 24, 27, 43, 34, 34, 19, 22, 24, 22, 18, 20, 18, 30, 30, 17, 21, 33, 24, 24, 44, 34, 12, 41, 26, 25, 37, 4, 20, 21, 5, 36, 8, 36, 35, 12, 6, 34, 16, 29, 3, 10, 26, 40, 9, 19, 34, 19, 22, 34, 29, 42, 1, 3, 24, 30, 3, 33, 35, 26, 39, 43, 16, 15
            |24, 13, 0, 37, 13, 11, 6, 14, 21, 13, 9, 40, 42, 11, 21, 41, 15, 9, 14, 14, 43, 24, 31, 16, 28, 18, 21, 15, 33, 28, 16, 34, 31, 26, 28, 35, 23, 32, 26, 25, 29, 14, 27, 39, 13, 11, 16, 11, 29, 18, 37, 27, 25, 12, 30, 4, 25, 14, 22, 13, 35, 5, 27, 21, 18, 30, 26, 16, 39, 14, 15, 12, 25, 11, 25, 38, 13, 34, 31, 19, 19
            |36, 37, 37, 0, 37, 40, 41, 31, 40, 31, 33, 7, 4, 48, 34, 6, 23, 41, 29, 46, 6, 28, 10, 52, 18, 21, 16, 52, 39, 27, 42, 9, 40, 18, 16, 32, 14, 41, 22, 42, 38, 34, 12, 4, 40, 28, 53, 41, 20, 31, 4, 22, 41, 42, 12, 34, 14, 40, 32, 45, 14, 39, 23, 40, 19, 21, 22, 40, 9, 36, 40, 33, 17, 38, 23, 5, 44, 15, 42, 21, 22
            |35, 1, 13, 37, 0, 23, 9, 25, 34, 24, 20, 42, 41, 21, 33, 43, 21, 6, 24, 26, 44, 34, 35, 18, 23, 24, 22, 17, 21, 19, 29, 31, 18, 21, 33, 25, 25, 43, 34, 13, 41, 26, 26, 38, 3, 19, 20, 4, 36, 9, 36, 35, 13, 5, 34, 15, 29, 2, 11, 25, 40, 8, 20, 33, 19, 23, 34, 28, 42, 2, 3, 23, 30, 2, 33, 36, 26, 39, 43, 17, 16
            |15, 24, 11, 40, 23, 0, 16, 9, 11, 9, 7, 41, 44, 11, 13, 42, 16, 20, 11, 7, 45, 18, 31, 21, 35, 18, 25, 21, 43, 37, 6, 38, 41, 33, 26, 45, 26, 22, 23, 36, 20, 7, 32, 42, 24, 12, 19, 22, 26, 28, 41, 23, 36, 22, 30, 9, 25, 24, 31, 6, 33, 16, 35, 10, 23, 38, 23, 5, 39, 25, 26, 7, 24, 21, 21, 41, 4, 32, 21, 25, 26
            |30, 10, 6, 41, 9, 16, 0, 20, 27, 19, 15, 45, 45, 12, 27, 45, 20, 4, 20, 17, 47, 30, 36, 11, 30, 23, 25, 11, 30, 28, 21, 36, 28, 28, 33, 34, 27, 37, 32, 22, 35, 20, 30, 42, 9, 17, 12, 6, 35, 17, 41, 33, 22, 6, 35, 10, 30, 9, 20, 16, 40, 2, 27, 26, 22, 31, 32, 21, 44, 11, 11, 18, 30, 7, 31, 41, 17, 39, 37, 21, 21
            |11, 25, 14, 31, 25, 9, 20, 0, 11, 1, 5, 32, 35, 19, 8, 33, 9, 23, 2, 16, 36, 10, 22, 28, 30, 10, 18, 28, 42, 34, 11, 31, 41, 28, 17, 42, 18, 19, 14, 37, 16, 3, 25, 34, 26, 6, 27, 25, 17, 26, 32, 14, 36, 25, 21, 10, 17, 26, 30, 15, 24, 19, 31, 11, 17, 33, 14, 9, 30, 25, 28, 2, 15, 23, 12, 33, 13, 23, 19, 20, 22
            |6, 34, 21, 40, 34, 11, 27, 11, 0, 12, 14, 39, 44, 21, 6, 41, 20, 31, 13, 14, 45, 13, 30, 32, 41, 20, 29, 32, 52, 45, 7, 41, 51, 39, 25, 53, 28, 11, 19, 46, 9, 9, 36, 43, 34, 17, 30, 33, 22, 37, 42, 19, 46, 33, 28, 19, 26, 35, 40, 14, 30, 27, 42, 1, 28, 44, 19, 6, 37, 35, 36, 11, 23, 32, 18, 43, 12, 29, 10, 31, 33
            |12, 24, 13, 31, 24, 9, 19, 1, 12, 0, 4, 32, 36, 19, 9, 34, 9, 22, 2, 15, 37, 11, 23, 28, 29, 10, 18, 27, 41, 33, 11, 31, 40, 28, 18, 41, 18, 20, 14, 36, 17, 3, 25, 34, 25, 6, 26, 24, 18, 25, 33, 15, 36, 24, 21, 9, 17, 25, 29, 14, 25, 18, 30, 11, 16, 32, 14, 9, 30, 25, 27, 1, 15, 22, 13, 33, 13, 23, 19, 20, 21
            |15, 21, 9, 33, 20, 7, 15, 5, 14, 4, 0, 34, 37, 16, 13, 36, 9, 18, 5, 14, 38, 15, 25, 24, 28, 12, 18, 23, 38, 31, 11, 31, 37, 26, 21, 39, 19, 23, 18, 32, 21, 6, 25, 35, 21, 5, 23, 20, 21, 23, 34, 19, 32, 20, 23, 5, 19, 22, 26, 13, 28, 14, 29, 13, 16, 31, 18, 10, 33, 21, 23, 3, 18, 18, 17, 34, 11, 26, 23, 18, 20
            |35, 42, 40, 7, 42, 41, 45, 32, 39, 32, 34, 0, 8, 50, 33, 2, 25, 45, 30, 48, 6, 26, 9, 56, 25, 23, 21, 55, 46, 34, 43, 16, 47, 25, 15, 39, 18, 38, 20, 48, 36, 34, 18, 10, 45, 30, 56, 45, 17, 37, 11, 20, 47, 47, 11, 37, 16, 45, 38, 47, 10, 43, 30, 40, 23, 28, 20, 40, 3, 42, 45, 34, 17, 43, 22, 12, 45, 11, 39, 26, 28
            |40, 41, 42, 4, 41, 44, 45, 35, 44, 36, 37, 8, 0, 52, 38, 6, 28, 45, 34, 51, 3, 32, 14, 57, 21, 26, 21, 56, 41, 30, 47, 11, 43, 22, 20, 34, 19, 44, 26, 45, 42, 38, 16, 4, 44, 32, 57, 45, 23, 34, 5, 26, 44, 46, 16, 39, 19, 44, 35, 50, 17, 43, 26, 44, 23, 23, 26, 44, 11, 40, 44, 37, 21, 42, 27, 6, 48, 18, 45, 25, 26
            |25, 22, 11, 48, 21, 11, 12, 19, 21, 19, 16, 50, 52, 0, 24, 51, 24, 16, 21, 7, 54, 29, 40, 11, 39, 27, 32, 11, 42, 39, 14, 45, 39, 37, 36, 46, 33, 32, 33, 33, 30, 18, 38, 49, 20, 20, 9, 18, 36, 28, 48, 34, 34, 17, 39, 13, 34, 21, 32, 7, 43, 13, 38, 20, 29, 41, 33, 15, 48, 23, 22, 17, 33, 19, 32, 48, 9, 42, 31, 30, 30
            |3, 33, 21, 34, 33, 13, 27, 8, 6, 9, 13, 33, 38, 24, 0, 35, 16, 31, 9, 18, 38, 7, 24, 34, 36, 15, 24, 34, 50, 41, 11, 36, 49, 34, 18, 49, 23, 11, 13, 45, 8, 7, 31, 37, 34, 14, 33, 32, 16, 34, 36, 13, 44, 33, 22, 18, 20, 34, 38, 18, 24, 27, 38, 7, 23, 39, 13, 9, 30, 34, 35, 9, 17, 31, 11, 37, 16, 22, 11, 27, 29
            |36, 42, 41, 6, 43, 42, 45, 33, 41, 34, 36, 2, 6, 51, 35, 0, 26, 46, 31, 49, 4, 28, 11, 57, 24, 24, 21, 56, 45, 33, 44, 15, 46, 24, 16, 38, 18, 40, 22, 48, 38, 36, 18, 9, 45, 31, 57, 45, 19, 36, 9, 22, 46, 47, 13, 38, 17, 45, 37, 48, 12, 43, 29, 41, 24, 27, 22, 42, 5, 42, 45, 35, 18, 43, 23, 10, 46, 13, 41, 26, 27
            |19, 21, 15, 23, 21, 16, 20, 9, 20, 9, 9, 25, 28, 24, 16, 26, 0, 22, 7, 23, 29, 14, 16, 31, 21, 3, 9, 30, 35, 25, 20, 22, 34, 19, 13, 33, 9, 26, 13, 31, 23, 12, 16, 25, 23, 4, 30, 22, 15, 20, 24, 14, 31, 24, 15, 11, 10, 23, 23, 22, 20, 18, 22, 20, 8, 24, 13, 18, 24, 21, 24, 10, 10, 20, 12, 25, 21, 19, 26, 11, 13
            |33, 7, 9, 41, 6, 20, 4, 23, 31, 22, 18, 45, 45, 16, 31, 46, 22, 0, 23, 21, 48, 33, 37, 13, 28, 25, 25, 12, 26, 25, 25, 36, 24, 26, 35, 31, 27, 41, 34, 17, 39, 24, 30, 42, 4, 19, 14, 2, 37, 14, 40, 35, 18, 2, 36, 13, 31, 5, 17, 21, 42, 4, 25, 30, 22, 29, 34, 25, 45, 8, 7, 21, 32, 4, 33, 40, 21, 40, 40, 21, 20
            |12, 24, 14, 29, 24, 11, 20, 2, 13, 2, 5, 30, 34, 21, 9, 31, 7, 23, 0, 17, 35, 10, 21, 29, 28, 8, 16, 29, 40, 32, 13, 29, 39, 26, 16, 40, 16, 20, 13, 36, 17, 5, 23, 32, 25, 5, 28, 24, 16, 25, 30, 13, 35, 25, 19, 10, 15, 26, 28, 17, 23, 19, 29, 13, 15, 31, 13, 11, 28, 25, 27, 4, 13, 23, 11, 31, 15, 21, 20, 18, 20
            |19, 27, 14, 46, 26, 7, 17, 16, 14, 15, 14, 48, 51, 7, 18, 49, 23, 21, 17, 0, 52, 24, 38, 18, 41, 25, 32, 19, 47, 42, 7, 45, 44, 39, 33, 49, 32, 25, 29, 39, 24, 13, 38, 48, 26, 19, 16, 23, 33, 32, 47, 30, 39, 23, 36, 14, 32, 26, 35, 1, 40, 18, 40, 13, 29, 43, 29, 9, 45, 28, 28, 14, 31, 24, 28, 48, 3, 38, 24, 31, 32
            |40, 43, 43, 6, 44, 45, 47, 36, 45, 37, 38, 6, 3, 54, 38, 4, 29, 48, 35, 52, 0, 32, 14, 59, 24, 27, 23, 58, 44, 33, 47, 14, 46, 24, 20, 37, 21, 44, 26, 48, 42, 39, 18, 7, 47, 34, 59, 47, 23, 37, 8, 26, 46, 48, 16, 40, 20, 46, 38, 51, 16, 45, 29, 45, 25, 26, 26, 45, 9, 43, 46, 38, 22, 44, 27, 9, 49, 17, 45, 27, 28
            |8, 34, 24, 28, 34, 18, 30, 10, 13, 11, 15, 26, 32, 29, 7, 28, 14, 33, 10, 24, 32, 0, 18, 39, 33, 12, 21, 38, 49, 39, 18, 31, 48, 31, 12, 47, 19, 13, 6, 45, 11, 11, 26, 31, 35, 14, 37, 34, 9, 34, 30, 6, 44, 35, 16, 20, 15, 36, 37, 24, 17, 29, 35, 13, 21, 36, 6, 16, 24, 34, 37, 12, 11, 32, 5, 32, 21, 16, 14, 25, 27
            |26, 34, 31, 10, 35, 31, 36, 22, 30, 23, 25, 9, 14, 40, 24, 11, 16, 37, 21, 38, 14, 18, 0, 47, 22, 13, 13, 46, 42, 30, 33, 16, 42, 21, 6, 37, 10, 31, 12, 42, 28, 25, 14, 14, 37, 21, 47, 37, 9, 30, 13, 12, 41, 38, 2, 28, 6, 37, 32, 37, 6, 34, 26, 31, 16, 25, 12, 31, 8, 34, 38, 24, 8, 35, 13, 14, 35, 6, 31, 19, 21
            |36, 19, 16, 52, 18, 21, 11, 28, 32, 28, 24, 56, 57, 11, 34, 57, 31, 13, 29, 18, 59, 39, 47, 0, 41, 34, 36, 1, 37, 38, 25, 48, 34, 39, 44, 43, 38, 43, 42, 27, 41, 28, 42, 53, 16, 27, 3, 14, 45, 27, 52, 43, 28, 13, 46, 20, 41, 17, 29, 18, 51, 14, 38, 31, 33, 41, 42, 26, 55, 20, 18, 26, 40, 17, 40, 52, 20, 49, 42, 32, 32
            |39, 22, 28, 18, 23, 35, 30, 30, 41, 29, 28, 25, 21, 39, 36, 24, 21, 28, 28, 41, 24, 33, 22, 41, 0, 21, 12, 40, 21, 9, 40, 9, 22, 2, 24, 15, 14, 46, 29, 24, 43, 33, 8, 17, 26, 24, 42, 27, 29, 15, 16, 30, 23, 28, 22, 27, 19, 25, 14, 40, 28, 28, 5, 40, 13, 4, 29, 38, 26, 21, 25, 30, 23, 24, 29, 15, 39, 27, 46, 10, 9
            |18, 24, 18, 21, 24, 18, 23, 10, 20, 10, 12, 23, 26, 27, 15, 24, 3, 25, 8, 25, 27, 12, 13, 34, 21, 0, 9, 33, 37, 27, 21, 21, 36, 19, 10, 35, 8, 25, 10, 34, 22, 13, 16, 24, 26, 7, 33, 25, 12, 22, 22, 11, 33, 27, 12, 14, 7, 26, 25, 24, 17, 22, 23, 20, 8, 24, 10, 19, 21, 24, 27, 11, 7, 23, 9, 23, 22, 16, 25, 13, 15
            |27, 22, 21, 16, 22, 25, 25, 18, 29, 18, 18, 21, 21, 32, 24, 21, 9, 25, 16, 32, 23, 21, 13, 36, 12, 9, 0, 35, 30, 19, 29, 13, 30, 11, 14, 26, 3, 34, 17, 29, 31, 21, 7, 17, 25, 13, 36, 25, 17, 17, 16, 18, 28, 26, 13, 18, 8, 24, 19, 31, 19, 23, 15, 29, 3, 16, 17, 27, 20, 21, 25, 19, 11, 22, 17, 17, 29, 18, 34, 6, 8
            |36, 18, 15, 52, 17, 21, 11, 28, 32, 27, 23, 55, 56, 11, 34, 56, 30, 12, 29, 19, 58, 38, 46, 1, 40, 33, 35, 0, 36, 37, 25, 47, 33, 38, 43, 42, 37, 43, 41, 26, 41, 27, 41, 53, 15, 26, 4, 13, 44, 26, 51, 42, 27, 12, 45, 19, 40, 16, 28, 18, 50, 13, 37, 31, 33, 40, 41, 26, 54, 19, 17, 26, 40, 16, 40, 51, 20, 49, 42, 32, 31
            |52, 20, 33, 39, 21, 43, 30, 42, 52, 41, 38, 46, 41, 42, 50, 45, 35, 26, 40, 47, 44, 49, 42, 37, 21, 37, 30, 36, 0, 12, 49, 30, 3, 21, 43, 9, 33, 60, 47, 10, 58, 44, 28, 37, 22, 35, 39, 24, 47, 16, 36, 47, 9, 25, 42, 34, 38, 21, 12, 46, 48, 29, 16, 52, 29, 18, 47, 48, 47, 19, 20, 41, 41, 23, 46, 35, 46, 47, 60, 24, 22
            |44, 18, 28, 27, 19, 37, 28, 34, 45, 33, 31, 34, 30, 39, 41, 33, 25, 25, 32, 42, 33, 39, 30, 38, 9, 27, 19, 37, 12, 0, 43, 18, 13, 9, 32, 8, 21, 52, 36, 16, 49, 36, 16, 25, 22, 27, 39, 24, 36, 11, 24, 37, 15, 25, 31, 28, 27, 21, 9, 41, 36, 26, 4, 44, 18, 6, 36, 41, 35, 17, 20, 34, 30, 21, 36, 24, 41, 36, 52, 14, 12
            |12, 30, 16, 42, 29, 6, 21, 11, 7, 11, 11, 43, 47, 14, 11, 44, 20, 25, 13, 7, 47, 18, 33, 25, 40, 21, 29, 25, 49, 43, 0, 42, 47, 38, 28, 50, 29, 18, 23, 42, 16, 8, 36, 45, 29, 16, 23, 27, 27, 33, 44, 24, 42, 27, 31, 14, 28, 30, 37, 7, 34, 21, 40, 6, 27, 42, 23, 2, 40, 30, 31, 10, 26, 27, 22, 44, 5, 33, 17, 30, 31
            |38, 30, 34, 9, 31, 38, 36, 31, 41, 31, 31, 16, 11, 45, 36, 15, 22, 36, 29, 45, 14, 31, 16, 48, 9, 21, 13, 47, 30, 18, 42, 0, 32, 10, 20, 23, 13, 44, 26, 34, 42, 34, 6, 7, 34, 26, 48, 35, 24, 24, 6, 26, 32, 36, 17, 31, 16, 33, 24, 44, 21, 34, 15, 41, 16, 12, 26, 40, 18, 30, 33, 32, 20, 32, 26, 5, 42, 21, 45, 15, 16
            |51, 17, 31, 40, 18, 41, 28, 41, 51, 40, 37, 47, 43, 39, 49, 46, 34, 24, 39, 44, 46, 48, 42, 34, 22, 36, 30, 33, 3, 13, 47, 32, 0, 22, 43, 12, 33, 59, 46, 7, 57, 43, 29, 39, 19, 34, 37, 22, 47, 14, 38, 47, 6, 22, 43, 33, 38, 18, 11, 44, 49, 26, 17, 50, 28, 20, 46, 46, 48, 17, 17, 40, 41, 21, 46, 37, 44, 48, 59, 24, 22
            |37, 21, 26, 18, 21, 33, 28, 28, 39, 28, 26, 25, 22, 37, 34, 24, 19, 26, 26, 39, 24, 31, 21, 39, 2, 19, 11, 38, 21, 9, 38, 10, 22, 0, 23, 16, 13, 44, 28, 23, 42, 31, 7, 17, 24, 22, 40, 25, 27, 13, 16, 28, 22, 27, 22, 25, 18, 23, 13, 38, 27, 26, 5, 39, 11, 5, 28, 36, 26, 20, 23, 28, 21, 22, 28, 16, 37, 27, 45, 8, 7
            |20, 33, 28, 16, 33, 26, 33, 17, 25, 18, 21, 15, 20, 36, 18, 16, 13, 35, 16, 33, 20, 12, 6, 44, 24, 10, 14, 43, 43, 32, 28, 20, 43, 23, 0, 39, 11, 25, 6, 42, 22, 20, 17, 19, 36, 17, 43, 35, 4, 30, 19, 6, 41, 36, 4, 24, 5, 36, 33, 32, 7, 31, 28, 25, 15, 28, 6, 25, 13, 33, 36, 19, 3, 33, 7, 20, 30, 6, 25, 19, 22
            |52, 24, 35, 32, 25, 45, 34, 42, 53, 41, 39, 39, 34, 46, 49, 38, 33, 31, 40, 49, 37, 47, 37, 43, 15, 35, 26, 42, 9, 8, 50, 23, 12, 16, 39, 0, 29, 59, 44, 18, 57, 44, 23, 30, 27, 35, 45, 29, 44, 17, 29, 44, 17, 30, 38, 36, 34, 26, 14, 48, 43, 32, 11, 52, 26, 12, 44, 49, 41, 23, 25, 41, 37, 27, 43, 28, 48, 43, 60, 22, 20
            |26, 24, 23, 14, 25, 26, 27, 18, 28, 18, 19, 18, 19, 33, 23, 18, 9, 27, 16, 32, 21, 19, 10, 38, 14, 8, 3, 37, 33, 21, 29, 13, 33, 13, 11, 29, 0, 32, 15, 32, 30, 21, 8, 16, 27, 14, 38, 27, 15, 20, 15, 16, 31, 29, 10, 20, 5, 27, 22, 31, 16, 25, 17, 28, 5, 18, 15, 27, 17, 24, 28, 19, 9, 25, 15, 16, 30, 15, 33, 9, 11
            |8, 44, 32, 41, 43, 22, 37, 19, 11, 20, 23, 38, 44, 32, 11, 40, 26, 41, 20, 25, 44, 13, 31, 43, 46, 25, 34, 43, 60, 52, 18, 44, 59, 44, 25, 59, 32, 0, 19, 56, 3, 17, 40, 44, 44, 25, 41, 43, 21, 45, 43, 18, 55, 43, 29, 28, 28, 45, 48, 25, 28, 37, 48, 12, 33, 49, 19, 17, 35, 44, 46, 20, 25, 42, 18, 45, 23, 27, 1, 38, 40
            |14, 34, 26, 22, 34, 23, 32, 14, 19, 14, 18, 20, 26, 33, 13, 22, 13, 34, 13, 29, 26, 6, 12, 42, 29, 10, 17, 41, 47, 36, 23, 26, 46, 28, 6, 44, 15, 19, 0, 44, 16, 16, 22, 25, 36, 15, 41, 35, 4, 32, 25, 1, 43, 36, 10, 22, 10, 36, 35, 28, 11, 31, 32, 19, 18, 33, 0, 21, 18, 34, 37, 16, 6, 33, 1, 26, 26, 10, 19, 22, 25
            |48, 12, 25, 42, 13, 36, 22, 37, 46, 36, 32, 48, 45, 33, 45, 48, 31, 17, 36, 39, 48, 45, 42, 27, 24, 34, 29, 26, 10, 16, 42, 34, 7, 23, 42, 18, 32, 56, 44, 0, 53, 38, 30, 41, 13, 31, 30, 15, 46, 12, 40, 45, 1, 16, 42, 28, 37, 12, 10, 38, 48, 21, 19, 46, 27, 22, 44, 41, 49, 11, 11, 36, 39, 15, 43, 39, 38, 47, 55, 23, 21
            |5, 41, 29, 38, 41, 20, 35, 16, 9, 17, 21, 36, 42, 30, 8, 38, 23, 39, 17, 24, 42, 11, 28, 41, 43, 22, 31, 41, 58, 49, 16, 42, 57, 42, 22, 57, 30, 3, 16, 53, 0, 15, 37, 42, 42, 22, 39, 40, 19, 42, 41, 16, 52, 41, 26, 26, 26, 42, 46, 23, 26, 34, 45, 10, 31, 47, 16, 15, 33, 42, 43, 17, 22, 39, 16, 42, 21, 25, 3, 35, 37
            |9, 26, 14, 34, 26, 7, 20, 3, 9, 3, 6, 34, 38, 18, 7, 36, 12, 24, 5, 13, 39, 11, 25, 28, 33, 13, 21, 27, 44, 36, 8, 34, 43, 31, 20, 44, 21, 17, 16, 38, 15, 0, 28, 36, 27, 9, 26, 25, 19, 28, 35, 16, 38, 26, 23, 11, 20, 27, 32, 13, 26, 20, 34, 8, 20, 35, 16, 6, 32, 27, 29, 3, 17, 24, 14, 36, 11, 25, 17, 23, 25
            |33, 25, 27, 12, 26, 32, 30, 25, 36, 25, 25, 18, 16, 38, 31, 18, 16, 30, 23, 38, 18, 26, 14, 42, 8, 16, 7, 41, 28, 16, 36, 6, 29, 7, 17, 23, 8, 40, 22, 30, 37, 28, 0, 12, 28, 20, 42, 29, 21, 19, 11, 23, 29, 30, 15, 25, 12, 28, 20, 37, 20, 28, 12, 36, 9, 11, 22, 34, 19, 24, 28, 26, 16, 26, 22, 11, 36, 20, 40, 9, 10
            |39, 37, 39, 4, 38, 42, 42, 34, 43, 34, 35, 10, 4, 49, 37, 9, 25, 42, 32, 48, 7, 31, 14, 53, 17, 24, 17, 53, 37, 25, 45, 7, 39, 17, 19, 30, 16, 44, 25, 41, 42, 36, 12, 0, 40, 30, 54, 41, 23, 31, 1, 26, 40, 42, 16, 36, 17, 40, 31, 47, 18, 40, 22, 43, 20, 19, 25, 43, 13, 36, 40, 35, 20, 38, 26, 2, 46, 18, 45, 21, 22
            |36, 4, 13, 40, 3, 24, 9, 26, 34, 25, 21, 45, 44, 20, 34, 45, 23, 4, 25, 26, 47, 35, 37, 16, 26, 26, 25, 15, 22, 22, 29, 34, 19, 24, 36, 27, 27, 44, 36, 13, 42, 27, 28, 40, 0, 21, 18, 2, 38, 11, 39, 37, 13, 3, 37, 16, 31, 1, 13, 25, 42, 8, 22, 34, 22, 26, 36, 29, 45, 4, 2, 24, 33, 3, 35, 39, 25, 41, 44, 19, 18
            |17, 20, 11, 28, 19, 12, 17, 6, 17, 6, 5, 30, 32, 20, 14, 31, 4, 19, 5, 19, 34, 14, 21, 27, 24, 7, 13, 26, 35, 27, 16, 26, 34, 22, 17, 35, 14, 25, 15, 31, 22, 9, 20, 30, 21, 0, 26, 20, 18, 20, 28, 16, 30, 21, 19, 7, 14, 21, 23, 18, 24, 15, 25, 17, 11, 27, 15, 14, 28, 20, 22, 6, 14, 18, 14, 29, 16, 22, 25, 14, 16
            |34, 21, 16, 53, 20, 19, 12, 27, 30, 26, 23, 56, 57, 9, 33, 57, 30, 14, 28, 16, 59, 37, 47, 3, 42, 33, 36, 4, 39, 39, 23, 48, 37, 40, 43, 45, 38, 41, 41, 30, 39, 26, 42, 54, 18, 26, 0, 16, 44, 28, 52, 42, 31, 15, 45, 19, 40, 19, 31, 16, 50, 14, 39, 29, 34, 43, 41, 24, 55, 22, 20, 25, 40, 18, 39, 53, 18, 49, 40, 33, 33
            |35, 5, 11, 41, 4, 22, 6, 25, 33, 24, 20, 45, 45, 18, 32, 45, 22, 2, 24, 23, 47, 34, 37, 14, 27, 25, 25, 13, 24, 24, 27, 35, 22, 25, 35, 29, 27, 43, 35, 15, 40, 25, 29, 41, 2, 20, 16, 0, 37, 13, 40, 36, 16, 1, 36, 15, 31, 3, 15, 23, 42, 6, 24, 32, 22, 27, 35, 27, 45, 6, 4, 23, 32, 3, 34, 40, 23, 41, 42, 20, 19
            |17, 36, 29, 20, 36, 26, 35, 17, 22, 18, 21, 17, 23, 36, 16, 19, 15, 37, 16, 33, 23, 9, 9, 45, 29, 12, 17, 44, 47, 36, 27, 24, 47, 27, 4, 44, 15, 21, 4, 46, 19, 19, 21, 23, 38, 18, 44, 37, 0, 34, 22, 3, 45, 39, 8, 25, 9, 38, 36, 32, 8, 33, 32, 23, 19, 32, 4, 24, 14, 36, 39, 19, 6, 35, 5, 24, 30, 6, 22, 23, 25
            |37, 8, 18, 31, 9, 28, 17, 26, 37, 25, 23, 37, 34, 28, 34, 36, 20, 14, 25, 32, 37, 34, 30, 27, 15, 22, 17, 26, 16, 11, 33, 24, 14, 13, 30, 17, 20, 45, 32, 12, 42, 28, 19, 31, 11, 20, 28, 13, 34, 0, 29, 33, 11, 14, 30, 19, 25, 10, 4, 31, 36, 15, 11, 36, 15, 15, 32, 32, 37, 7, 10, 25, 27, 10, 32, 29, 31, 35, 45, 11, 9
            |38, 36, 37, 4, 36, 41, 41, 32, 42, 33, 34, 11, 5, 48, 36, 9, 24, 40, 30, 47, 8, 30, 13, 52, 16, 22, 16, 51, 36, 24, 44, 6, 38, 16, 19, 29, 15, 43, 25, 40, 41, 35, 11, 1, 39, 28, 52, 40, 22, 29, 0, 25, 38, 41, 15, 34, 16, 38, 30, 46, 18, 38, 21, 42, 19, 18, 25, 41, 13, 35, 39, 34, 19, 37, 25, 1, 45, 18, 44, 20, 21
            |14, 35, 27, 22, 35, 23, 33, 14, 19, 15, 19, 20, 26, 34, 13, 22, 14, 35, 13, 30, 26, 6, 12, 43, 30, 11, 18, 42, 47, 37, 24, 26, 47, 28, 6, 44, 16, 18, 1, 45, 16, 16, 23, 26, 37, 16, 42, 36, 3, 33, 25, 0, 44, 37, 10, 23, 11, 37, 36, 29, 11, 32, 33, 20, 19, 33, 1, 21, 17, 35, 38, 17, 7, 34, 2, 26, 27, 9, 19, 23, 25
            |47, 12, 25, 41, 13, 36, 22, 36, 46, 36, 32, 47, 44, 34, 44, 46, 31, 18, 35, 39, 46, 44, 41, 28, 23, 33, 28, 27, 9, 15, 42, 32, 6, 22, 41, 17, 31, 55, 43, 1, 52, 38, 29, 40, 13, 30, 31, 16, 45, 11, 38, 44, 0, 16, 41, 28, 36, 13, 9, 38, 47, 21, 18, 45, 26, 21, 43, 41, 47, 11, 11, 35, 38, 15, 43, 38, 38, 46, 55, 22, 20
            |35, 6, 12, 42, 5, 22, 6, 25, 33, 24, 20, 47, 46, 17, 33, 47, 24, 2, 25, 23, 48, 35, 38, 13, 28, 27, 26, 12, 25, 25, 27, 36, 22, 27, 36, 30, 29, 43, 36, 16, 41, 26, 30, 42, 3, 21, 15, 1, 39, 14, 41, 37, 16, 0, 38, 15, 32, 4, 16, 23, 43, 6, 25, 32, 23, 29, 36, 27, 46, 7, 5, 24, 33, 4, 35, 41, 23, 42, 43, 21, 21
            |24, 34, 30, 12, 34, 30, 35, 21, 28, 21, 23, 11, 16, 39, 22, 13, 15, 36, 19, 36, 16, 16, 2, 46, 22, 12, 13, 45, 42, 31, 31, 17, 43, 22, 4, 38, 10, 29, 10, 42, 26, 23, 15, 16, 37, 19, 45, 36, 8, 30, 15, 10, 41, 38, 0, 26, 5, 36, 32, 36, 6, 33, 27, 29, 15, 26, 10, 29, 9, 34, 37, 22, 6, 34, 11, 16, 34, 5, 29, 19, 21
            |20, 16, 4, 34, 15, 9, 10, 10, 19, 9, 5, 37, 39, 13, 18, 38, 11, 13, 10, 14, 40, 20, 28, 20, 27, 14, 18, 19, 34, 28, 14, 31, 33, 25, 24, 36, 20, 28, 22, 28, 26, 11, 25, 36, 16, 7, 19, 15, 25, 19, 34, 23, 28, 15, 26, 0, 21, 17, 22, 13, 31, 9, 26, 18, 16, 29, 22, 13, 35, 16, 18, 8, 21, 13, 21, 35, 12, 30, 28, 17, 18
            |22, 29, 25, 14, 29, 25, 30, 17, 26, 17, 19, 16, 19, 34, 20, 17, 10, 31, 15, 32, 20, 15, 6, 41, 19, 7, 8, 40, 38, 27, 28, 16, 38, 18, 5, 34, 5, 28, 10, 37, 26, 20, 12, 17, 31, 14, 40, 31, 9, 25, 16, 11, 36, 32, 5, 21, 0, 31, 27, 31, 11, 28, 23, 26, 10, 23, 10, 26, 14, 28, 32, 18, 4, 28, 10, 17, 30, 10, 29, 14, 16
            |37, 3, 14, 40, 2, 24, 9, 26, 35, 25, 22, 45, 44, 21, 34, 45, 23, 5, 26, 26, 46, 36, 37, 17, 25, 26, 24, 16, 21, 21, 30, 33, 18, 23, 36, 26, 27, 45, 36, 12, 42, 27, 28, 40, 1, 21, 19, 3, 38, 10, 38, 37, 13, 4, 36, 17, 31, 0, 12, 26, 42, 8, 21, 34, 22, 25, 36, 29, 44, 4, 1, 25, 32, 3, 35, 38, 26, 41, 44, 19, 18
            |40, 10, 22, 32, 11, 31, 20, 30, 40, 29, 26, 38, 35, 32, 38, 37, 23, 17, 28, 35, 38, 37, 32, 29, 14, 25, 19, 28, 12, 9, 37, 24, 11, 13, 33, 14, 22, 48, 35, 10, 46, 32, 20, 31, 13, 23, 31, 15, 36, 4, 30, 36, 9, 16, 32, 22, 27, 12, 0, 35, 38, 18, 10, 40, 17, 13, 35, 36, 38, 9, 12, 29, 30, 13, 35, 29, 34, 37, 48, 13, 11
            |19, 26, 13, 45, 25, 6, 16, 15, 14, 14, 13, 47, 50, 7, 18, 48, 22, 21, 17, 1, 51, 24, 37, 18, 40, 24, 31, 18, 46, 41, 7, 44, 44, 38, 32, 48, 31, 25, 28, 38, 23, 13, 37, 47, 25, 18, 16, 23, 32, 31, 46, 29, 38, 23, 36, 13, 31, 26, 35, 0, 39, 17, 39, 13, 28, 42, 28, 9, 45, 27, 27, 13, 30, 23, 27, 47, 2, 38, 24, 30, 31
            |25, 40, 35, 14, 40, 33, 40, 24, 30, 25, 28, 10, 17, 43, 24, 12, 20, 42, 23, 40, 16, 17, 6, 51, 28, 17, 19, 50, 48, 36, 34, 21, 49, 27, 7, 43, 16, 28, 11, 48, 26, 26, 20, 18, 42, 24, 50, 42, 8, 36, 18, 11, 47, 43, 6, 31, 11, 42, 38, 39, 0, 38, 32, 30, 21, 31, 11, 32, 7, 40, 43, 26, 10, 40, 13, 19, 37, 1, 29, 25, 27
            |29, 9, 5, 39, 8, 16, 2, 19, 27, 18, 14, 43, 43, 13, 27, 43, 18, 4, 19, 18, 45, 29, 34, 14, 28, 22, 23, 13, 29, 26, 21, 34, 26, 26, 31, 32, 25, 37, 31, 21, 34, 20, 28, 40, 8, 15, 14, 6, 33, 15, 38, 32, 21, 6, 33, 9, 28, 8, 18, 17, 38, 0, 25, 26, 20, 29, 31, 21, 42, 10, 10, 17, 28, 6, 29, 39, 18, 37, 36, 19, 19
            |41, 19, 27, 23, 20, 35, 27, 31, 42, 30, 29, 30, 26, 38, 38, 29, 22, 25, 29, 40, 29, 35, 26, 38, 5, 23, 15, 37, 16, 4, 40, 15, 17, 5, 28, 11, 17, 48, 32, 19, 45, 34, 12, 22, 22, 25, 39, 24, 32, 11, 21, 33, 18, 25, 27, 26, 23, 21, 10, 39, 32, 25, 0, 42, 15, 4, 32, 39, 31, 18, 21, 31, 26, 21, 32, 20, 39, 32, 48, 11, 9
            |6, 34, 21, 40, 33, 10, 26, 11, 1, 11, 13, 40, 44, 20, 7, 41, 20, 30, 13, 13, 45, 13, 31, 31, 40, 20, 29, 31, 52, 44, 6, 41, 50, 39, 25, 52, 28, 12, 19, 46, 10, 8, 36, 43, 34, 17, 29, 32, 23, 36, 42, 20, 45, 32, 29, 18, 26, 34, 40, 13, 30, 26, 42, 0, 28, 43, 19, 5, 37, 34, 36, 11, 23, 31, 18, 43, 11, 29, 11, 31, 33
            |26, 19, 18, 19, 19, 23, 22, 17, 28, 16, 16, 23, 23, 29, 23, 24, 8, 22, 15, 29, 25, 21, 16, 33, 13, 8, 3, 33, 29, 18, 27, 16, 28, 11, 15, 26, 5, 33, 18, 27, 31, 20, 9, 20, 22, 11, 34, 22, 19, 15, 19, 19, 26, 23, 15, 16, 10, 22, 17, 28, 21, 20, 15, 28, 0, 16, 18, 25, 23, 19, 22, 17, 12, 19, 17, 19, 27, 20, 34, 4, 7
            |42, 22, 30, 21, 23, 38, 31, 33, 44, 32, 31, 28, 23, 41, 39, 27, 24, 29, 31, 43, 26, 36, 25, 41, 4, 24, 16, 40, 18, 6, 42, 12, 20, 5, 28, 12, 18, 49, 33, 22, 47, 35, 11, 19, 26, 27, 43, 27, 32, 15, 18, 33, 21, 29, 26, 29, 23, 25, 13, 42, 31, 29, 4, 43, 16, 0, 33, 41, 29, 21, 25, 33, 26, 25, 33, 17, 41, 31, 50, 13, 11
            |14, 34, 26, 22, 34, 23, 32, 14, 19, 14, 18, 20, 26, 33, 13, 22, 13, 34, 13, 29, 26, 6, 12, 42, 29, 10, 17, 41, 47, 36, 23, 26, 46, 28, 6, 44, 15, 19, 0, 44, 16, 16, 22, 25, 36, 15, 41, 35, 4, 32, 25, 1, 43, 36, 10, 22, 10, 36, 35, 28, 11, 31, 32, 19, 18, 33, 0, 21, 18, 34, 37, 16, 6, 33, 1, 26, 26, 10, 19, 22, 25
            |10, 29, 16, 40, 28, 5, 21, 9, 6, 9, 10, 40, 44, 15, 9, 42, 18, 25, 11, 9, 45, 16, 31, 26, 38, 19, 27, 26, 48, 41, 2, 40, 46, 36, 25, 49, 27, 17, 21, 41, 15, 6, 34, 43, 29, 14, 24, 27, 24, 32, 41, 21, 41, 27, 29, 13, 26, 29, 36, 9, 32, 21, 39, 5, 25, 41, 21, 0, 38, 30, 31, 8, 23, 26, 19, 42, 6, 31, 16, 28, 30
            |32, 42, 39, 9, 42, 39, 44, 30, 37, 30, 33, 3, 11, 48, 30, 5, 24, 45, 28, 45, 9, 24, 8, 55, 26, 21, 20, 54, 47, 35, 40, 18, 48, 26, 13, 41, 17, 35, 18, 49, 33, 32, 19, 13, 45, 28, 55, 45, 14, 37, 13, 17, 47, 46, 9, 35, 14, 44, 38, 45, 7, 42, 31, 37, 23, 29, 18, 38, 0, 41, 45, 32, 15, 42, 19, 14, 43, 8, 36, 26, 28
            |36, 1, 14, 36, 2, 25, 11, 25, 35, 25, 21, 42, 40, 23, 34, 42, 21, 8, 25, 28, 43, 34, 34, 20, 21, 24, 21, 19, 19, 17, 30, 30, 17, 20, 33, 23, 24, 44, 34, 11, 42, 27, 24, 36, 4, 20, 22, 6, 36, 7, 35, 35, 11, 7, 34, 16, 28, 4, 9, 27, 40, 10, 18, 34, 19, 21, 34, 30, 41, 0, 4, 24, 30, 4, 33, 35, 27, 38, 44, 16, 14
            |38, 3, 15, 40, 3, 26, 11, 28, 36, 27, 23, 45, 44, 22, 35, 45, 24, 7, 27, 28, 46, 37, 38, 18, 25, 27, 25, 17, 20, 20, 31, 33, 17, 23, 36, 25, 28, 46, 37, 11, 43, 29, 28, 40, 2, 22, 20, 4, 39, 10, 39, 38, 11, 5, 37, 18, 32, 1, 12, 27, 43, 10, 21, 36, 22, 25, 37, 31, 45, 4, 0, 26, 33, 4, 36, 38, 28, 42, 46, 19, 18
            |12, 24, 12, 33, 23, 7, 18, 2, 11, 1, 3, 34, 37, 17, 9, 35, 10, 21, 4, 14, 38, 12, 24, 26, 30, 11, 19, 26, 41, 34, 10, 32, 40, 28, 19, 41, 19, 20, 16, 36, 17, 3, 26, 35, 24, 6, 25, 23, 19, 25, 34, 17, 35, 24, 22, 8, 18, 25, 29, 13, 26, 17, 31, 11, 17, 33, 16, 8, 32, 24, 26, 0, 17, 22, 14, 35, 11, 25, 20, 20, 22
            |19, 30, 25, 17, 30, 24, 30, 15, 23, 15, 18, 17, 21, 33, 17, 18, 10, 32, 13, 31, 22, 11, 8, 40, 23, 7, 11, 40, 41, 30, 26, 20, 41, 21, 3, 37, 9, 25, 6, 39, 22, 17, 16, 20, 33, 14, 40, 32, 6, 27, 19, 7, 38, 33, 6, 21, 4, 32, 30, 30, 10, 28, 26, 23, 12, 26, 6, 23, 15, 30, 33, 17, 0, 30, 7, 20, 28, 9, 25, 17, 19
            |34, 3, 11, 38, 2, 21, 7, 23, 32, 22, 18, 43, 42, 19, 31, 43, 20, 4, 23, 24, 44, 32, 35, 17, 24, 23, 22, 16, 23, 21, 27, 32, 21, 22, 33, 27, 25, 42, 33, 15, 39, 24, 26, 38, 3, 18, 18, 3, 35, 10, 37, 34, 15, 4, 34, 13, 28, 3, 13, 23, 40, 6, 21, 31, 19, 25, 33, 26, 42, 4, 4, 22, 30, 0, 32, 37, 23, 38, 41, 17, 16
            |13, 33, 25, 23, 33, 21, 31, 12, 18, 13, 17, 22, 27, 32, 11, 23, 12, 33, 11, 28, 27, 5, 13, 40, 29, 9, 17, 40, 46, 36, 22, 26, 46, 28, 7, 43, 15, 18, 1, 43, 16, 14, 22, 26, 35, 14, 39, 34, 5, 32, 25, 2, 43, 35, 11, 21, 10, 35, 35, 27, 13, 29, 32, 18, 17, 33, 1, 19, 19, 33, 36, 14, 7, 32, 0, 27, 25, 11, 19, 22, 24
            |39, 35, 38, 5, 36, 41, 41, 33, 43, 33, 34, 12, 6, 48, 37, 10, 25, 40, 31, 48, 9, 32, 14, 52, 15, 23, 17, 51, 35, 24, 44, 5, 37, 16, 20, 28, 16, 45, 26, 39, 42, 36, 11, 2, 39, 29, 53, 40, 24, 29, 1, 26, 38, 41, 16, 35, 17, 38, 29, 47, 19, 39, 20, 43, 19, 17, 26, 42, 14, 35, 38, 35, 20, 37, 27, 0, 45, 19, 45, 20, 21
            |17, 26, 13, 44, 26, 4, 17, 13, 12, 13, 11, 45, 48, 9, 16, 46, 21, 21, 15, 3, 49, 21, 35, 20, 39, 22, 29, 20, 46, 41, 5, 42, 44, 37, 30, 48, 30, 23, 26, 38, 21, 11, 36, 46, 25, 16, 18, 23, 30, 31, 45, 27, 38, 23, 34, 12, 30, 26, 34, 2, 37, 18, 39, 11, 27, 41, 26, 6, 43, 27, 28, 11, 28, 23, 25, 45, 0, 36, 22, 29, 30
            |24, 39, 34, 15, 39, 32, 39, 23, 29, 23, 26, 11, 18, 42, 22, 13, 19, 40, 21, 38, 17, 16, 6, 49, 27, 16, 18, 49, 47, 36, 33, 21, 48, 27, 6, 43, 15, 27, 10, 47, 25, 25, 20, 18, 41, 22, 49, 41, 6, 35, 18, 9, 46, 42, 5, 30, 10, 41, 37, 38, 1, 37, 32, 29, 20, 31, 10, 31, 8, 38, 42, 25, 9, 38, 11, 19, 36, 0, 28, 24, 26
            |8, 43, 31, 42, 43, 21, 37, 19, 10, 19, 23, 39, 45, 31, 11, 41, 26, 40, 20, 24, 45, 14, 31, 42, 46, 25, 34, 42, 60, 52, 17, 45, 59, 45, 25, 60, 33, 1, 19, 55, 3, 17, 40, 45, 44, 25, 40, 42, 22, 45, 44, 19, 55, 43, 29, 28, 29, 44, 48, 24, 29, 36, 48, 11, 34, 50, 19, 16, 36, 44, 46, 20, 25, 41, 19, 45, 22, 28, 0, 38, 40
            |30, 16, 19, 21, 17, 25, 21, 20, 31, 20, 18, 26, 25, 30, 27, 26, 11, 21, 18, 31, 27, 25, 19, 32, 10, 13, 6, 32, 24, 14, 30, 15, 24, 8, 19, 22, 9, 38, 22, 23, 35, 23, 9, 21, 19, 14, 33, 20, 23, 11, 20, 23, 22, 21, 19, 17, 14, 19, 13, 30, 25, 19, 11, 31, 4, 13, 22, 28, 26, 16, 19, 20, 17, 17, 22, 20, 29, 24, 38, 0, 2
            |32, 15, 19, 22, 16, 26, 21, 22, 33, 21, 20, 28, 26, 30, 29, 27, 13, 20, 20, 32, 28, 27, 21, 32, 9, 15, 8, 31, 22, 12, 31, 16, 22, 7, 22, 20, 11, 40, 25, 21, 37, 25, 10, 22, 18, 16, 33, 19, 25, 9, 21, 25, 20, 21, 21, 18, 16, 18, 11, 31, 27, 19, 9, 33, 7, 11, 25, 30, 28, 14, 18, 22, 19, 16, 24, 21, 30, 26, 40, 2, 0|];