% n80w160.003	   56.77 771
n = 81;
duration = [|0, 41, 30, 28, 22, 35, 36, 36, 14, 40, 27, 27, 18, 21, 17, 16, 22, 34, 28, 47, 23, 35, 19, 9, 10, 18, 18, 7, 44, 27, 34, 37, 33, 41, 26, 25, 23, 26, 22, 17, 1, 22, 36, 34, 13, 43, 41, 45, 9, 30, 11, 10, 5, 36, 37, 42, 20, 40, 9, 34, 9, 6, 9, 22, 48, 23, 41, 7, 14, 47, 45, 42, 17, 16, 43, 12, 13, 53, 15, 20, 28
            |41, 0, 33, 37, 43, 21, 5, 11, 38, 2, 34, 17, 23, 42, 39, 25, 27, 39, 41, 10, 32, 26, 22, 35, 33, 40, 47, 48, 3, 16, 36, 36, 9, 9, 35, 30, 18, 22, 27, 35, 41, 19, 17, 26, 40, 40, 34, 5, 34, 39, 30, 34, 46, 35, 19, 6, 30, 4, 33, 28, 35, 47, 39, 36, 10, 21, 40, 37, 42, 7, 5, 6, 32, 44, 25, 40, 28, 13, 36, 22, 34
            |30, 33, 0, 5, 47, 13, 28, 22, 40, 30, 4, 32, 21, 46, 42, 19, 37, 54, 51, 42, 42, 9, 23, 32, 31, 43, 47, 36, 35, 20, 52, 54, 31, 40, 5, 42, 23, 12, 37, 40, 31, 23, 41, 9, 19, 60, 55, 37, 21, 51, 29, 20, 34, 53, 44, 38, 38, 35, 28, 47, 32, 35, 22, 9, 33, 15, 59, 23, 42, 39, 37, 38, 38, 44, 51, 39, 27, 43, 15, 19, 47
            |28, 37, 5, 0, 47, 18, 32, 27, 39, 35, 3, 35, 23, 47, 42, 21, 39, 55, 52, 47, 43, 14, 25, 32, 31, 43, 46, 33, 40, 23, 54, 56, 35, 44, 3, 44, 26, 16, 39, 40, 29, 25, 44, 14, 16, 62, 57, 42, 20, 52, 29, 19, 32, 54, 47, 42, 39, 40, 28, 50, 32, 32, 20, 6, 38, 18, 61, 21, 41, 44, 42, 42, 38, 43, 54, 38, 28, 48, 13, 21, 48
            |22, 43, 47, 47, 0, 47, 40, 44, 8, 43, 45, 26, 28, 1, 5, 29, 15, 14, 7, 44, 11, 49, 27, 16, 16, 4, 7, 23, 45, 35, 16, 19, 34, 38, 45, 13, 29, 39, 15, 8, 21, 29, 29, 49, 34, 24, 25, 45, 28, 10, 19, 29, 22, 18, 29, 40, 13, 40, 20, 21, 16, 24, 30, 42, 52, 35, 22, 27, 8, 47, 45, 40, 11, 6, 31, 10, 20, 53, 35, 30, 13
            |35, 21, 13, 18, 47, 0, 17, 10, 40, 18, 16, 25, 19, 46, 42, 19, 34, 50, 49, 30, 39, 5, 20, 33, 32, 43, 48, 42, 23, 13, 48, 49, 22, 29, 17, 39, 18, 9, 34, 39, 36, 18, 33, 5, 28, 54, 49, 25, 26, 48, 29, 25, 40, 47, 35, 26, 36, 24, 30, 41, 33, 41, 29, 20, 20, 12, 54, 29, 43, 27, 25, 26, 36, 45, 42, 40, 27, 30, 23, 17, 43
            |36, 5, 28, 32, 40, 17, 0, 7, 35, 4, 29, 14, 18, 39, 36, 21, 25, 38, 39, 14, 30, 22, 17, 31, 29, 37, 43, 43, 8, 10, 35, 36, 7, 12, 30, 28, 13, 17, 25, 32, 37, 14, 17, 21, 35, 40, 34, 10, 30, 37, 26, 29, 41, 35, 20, 10, 27, 8, 28, 28, 31, 43, 34, 31, 13, 16, 40, 32, 39, 12, 10, 10, 29, 40, 27, 36, 24, 17, 31, 17, 32
            |36, 11, 22, 27, 44, 10, 7, 0, 38, 9, 24, 19, 18, 43, 39, 20, 29, 44, 44, 21, 34, 15, 18, 32, 31, 40, 46, 43, 13, 9, 41, 42, 13, 19, 25, 33, 15, 13, 29, 36, 37, 15, 24, 15, 32, 46, 41, 16, 28, 42, 28, 28, 41, 41, 27, 17, 31, 14, 29, 34, 32, 43, 33, 27, 13, 14, 46, 31, 41, 17, 16, 17, 33, 43, 34, 39, 25, 21, 28, 16, 37
            |14, 38, 40, 39, 8, 40, 35, 38, 0, 38, 37, 21, 21, 7, 3, 21, 12, 19, 14, 41, 10, 42, 20, 8, 8, 4, 9, 17, 41, 29, 20, 23, 29, 35, 37, 13, 23, 32, 12, 4, 14, 23, 27, 41, 26, 29, 28, 41, 20, 15, 11, 21, 16, 22, 28, 37, 9, 36, 12, 22, 8, 17, 22, 34, 47, 28, 27, 19, 4, 43, 41, 37, 6, 5, 32, 3, 13, 50, 27, 23, 15
            |40, 2, 30, 35, 43, 18, 4, 9, 38, 0, 32, 17, 22, 42, 39, 24, 28, 40, 42, 12, 32, 24, 21, 34, 33, 40, 47, 47, 5, 14, 37, 37, 9, 11, 33, 31, 17, 20, 28, 35, 40, 18, 18, 23, 38, 41, 35, 7, 33, 39, 30, 33, 45, 36, 21, 8, 30, 6, 32, 29, 34, 46, 38, 34, 9, 20, 42, 36, 42, 9, 7, 8, 32, 43, 27, 40, 28, 14, 34, 21, 34
            |27, 34, 4, 3, 45, 16, 29, 24, 37, 32, 0, 32, 20, 44, 40, 18, 36, 52, 49, 44, 40, 12, 22, 30, 29, 41, 44, 32, 37, 20, 51, 53, 32, 41, 1, 41, 23, 12, 36, 38, 28, 22, 41, 12, 16, 59, 55, 39, 18, 49, 27, 17, 31, 52, 44, 39, 37, 37, 26, 47, 30, 31, 19, 5, 36, 15, 58, 20, 39, 41, 39, 39, 36, 41, 51, 36, 26, 45, 12, 18, 46
            |27, 17, 32, 35, 26, 25, 14, 19, 21, 17, 32, 0, 13, 25, 22, 16, 10, 25, 25, 20, 15, 30, 10, 19, 17, 23, 30, 33, 19, 13, 22, 23, 8, 15, 32, 14, 9, 21, 10, 18, 27, 9, 10, 29, 30, 28, 23, 20, 23, 23, 15, 23, 31, 22, 13, 16, 13, 15, 18, 16, 19, 33, 28, 31, 27, 17, 28, 25, 26, 22, 20, 16, 15, 27, 20, 23, 14, 28, 28, 13, 18
            |18, 23, 21, 23, 28, 19, 18, 18, 21, 22, 20, 13, 0, 27, 23, 3, 17, 33, 31, 30, 21, 21, 2, 15, 13, 24, 29, 25, 26, 9, 31, 33, 16, 25, 20, 22, 5, 11, 17, 20, 19, 4, 23, 20, 18, 39, 35, 27, 12, 30, 10, 11, 23, 32, 25, 25, 17, 23, 11, 27, 15, 25, 17, 18, 30, 7, 38, 14, 24, 30, 27, 25, 17, 26, 32, 21, 8, 35, 15, 2, 26
            |21, 42, 46, 47, 1, 46, 39, 43, 7, 42, 44, 25, 27, 0, 4, 28, 14, 14, 7, 43, 10, 49, 26, 15, 15, 4, 7, 23, 44, 34, 16, 19, 33, 37, 44, 13, 28, 38, 14, 7, 21, 28, 28, 48, 33, 24, 25, 44, 27, 10, 18, 28, 21, 18, 28, 39, 12, 39, 19, 21, 15, 23, 29, 41, 51, 34, 22, 26, 8, 46, 44, 39, 10, 6, 31, 9, 19, 52, 34, 29, 12
            |17, 39, 42, 42, 5, 42, 36, 39, 3, 39, 40, 22, 23, 4, 0, 23, 12, 17, 11, 41, 9, 44, 22, 10, 11, 1, 8, 20, 41, 30, 18, 21, 30, 35, 39, 12, 24, 34, 12, 4, 17, 24, 27, 43, 29, 26, 26, 42, 22, 13, 13, 23, 18, 20, 27, 37, 9, 37, 14, 21, 10, 20, 25, 36, 48, 30, 25, 22, 5, 44, 42, 37, 7, 5, 31, 5, 15, 50, 30, 25, 13
            |16, 25, 19, 21, 29, 19, 21, 20, 21, 24, 18, 16, 3, 28, 23, 0, 18, 34, 32, 33, 22, 21, 5, 14, 13, 24, 29, 23, 29, 11, 33, 35, 19, 28, 18, 23, 8, 11, 18, 21, 17, 7, 26, 20, 15, 41, 37, 30, 9, 31, 10, 9, 21, 34, 28, 28, 19, 26, 10, 29, 14, 23, 14, 16, 32, 7, 40, 12, 24, 32, 30, 28, 18, 26, 35, 21, 8, 38, 12, 4, 28
            |22, 27, 37, 39, 15, 34, 25, 29, 12, 28, 36, 10, 17, 14, 12, 18, 0, 16, 15, 29, 5, 37, 15, 13, 12, 13, 20, 27, 30, 21, 15, 17, 18, 23, 36, 5, 16, 27, 0, 8, 22, 16, 15, 36, 30, 23, 20, 30, 22, 14, 12, 23, 25, 16, 16, 25, 3, 25, 15, 12, 13, 27, 27, 34, 37, 23, 22, 23, 16, 32, 30, 25, 6, 17, 21, 15, 12, 38, 29, 18, 9
            |34, 39, 54, 55, 14, 50, 38, 44, 19, 40, 52, 25, 33, 14, 17, 34, 16, 0, 7, 37, 12, 53, 31, 25, 25, 16, 21, 36, 40, 37, 4, 6, 31, 32, 52, 11, 31, 43, 16, 16, 33, 32, 23, 52, 44, 10, 12, 40, 37, 4, 26, 38, 35, 6, 21, 35, 16, 35, 28, 12, 25, 37, 40, 50, 49, 39, 8, 37, 21, 41, 40, 35, 17, 20, 21, 22, 27, 47, 44, 34, 7
            |28, 41, 51, 52, 7, 49, 39, 44, 14, 42, 49, 25, 31, 7, 11, 32, 15, 7, 0, 41, 10, 52, 29, 21, 21, 10, 14, 30, 43, 36, 10, 13, 33, 35, 49, 11, 30, 42, 15, 11, 27, 31, 26, 51, 40, 17, 18, 43, 33, 4, 22, 33, 29, 12, 25, 38, 13, 38, 24, 16, 21, 30, 35, 46, 51, 38, 15, 33, 15, 44, 43, 38, 13, 13, 26, 16, 24, 51, 40, 33, 8
            |47, 10, 42, 47, 44, 30, 14, 21, 41, 12, 44, 20, 30, 43, 41, 33, 29, 37, 41, 0, 33, 36, 28, 39, 38, 42, 49, 53, 8, 24, 34, 33, 14, 6, 44, 30, 25, 31, 29, 37, 47, 26, 15, 35, 48, 35, 29, 6, 41, 38, 35, 41, 51, 32, 16, 5, 32, 7, 38, 25, 39, 53, 47, 45, 16, 30, 36, 44, 45, 5, 6, 5, 35, 46, 19, 43, 34, 10, 44, 29, 33
            |23, 32, 42, 43, 11, 39, 30, 34, 10, 32, 40, 15, 21, 10, 9, 22, 5, 12, 10, 33, 0, 42, 19, 14, 13, 9, 16, 27, 34, 26, 12, 14, 23, 27, 40, 3, 20, 32, 5, 6, 23, 21, 18, 41, 32, 20, 18, 34, 25, 9, 14, 26, 25, 13, 19, 29, 4, 29, 17, 12, 14, 27, 29, 38, 42, 28, 19, 26, 14, 36, 34, 29, 5, 14, 22, 13, 15, 42, 32, 23, 6
            |35, 26, 9, 14, 49, 5, 22, 15, 42, 24, 12, 30, 21, 49, 44, 21, 37, 53, 52, 36, 42, 0, 23, 35, 34, 45, 50, 41, 28, 17, 51, 53, 27, 34, 14, 42, 22, 10, 37, 42, 36, 22, 37, 1, 26, 58, 53, 31, 26, 51, 31, 25, 40, 51, 40, 32, 39, 30, 31, 45, 35, 40, 29, 17, 25, 14, 58, 28, 45, 32, 31, 32, 39, 47, 47, 42, 29, 35, 22, 19, 47
            |19, 22, 23, 25, 27, 20, 17, 18, 20, 21, 22, 10, 2, 26, 22, 5, 15, 31, 29, 28, 19, 23, 0, 14, 13, 23, 29, 26, 25, 9, 29, 31, 15, 23, 22, 20, 4, 13, 15, 19, 20, 3, 21, 22, 20, 37, 33, 26, 13, 28, 10, 13, 24, 30, 23, 23, 16, 22, 11, 25, 14, 26, 18, 21, 29, 9, 36, 16, 24, 28, 26, 23, 16, 25, 30, 21, 8, 34, 17, 4, 24
            |9, 35, 32, 32, 16, 33, 31, 32, 8, 34, 30, 19, 15, 15, 10, 14, 13, 25, 21, 39, 14, 35, 14, 0, 1, 11, 15, 15, 37, 23, 25, 28, 26, 34, 29, 16, 17, 25, 13, 9, 9, 17, 27, 34, 19, 34, 32, 38, 12, 21, 4, 13, 12, 27, 29, 34, 11, 33, 4, 25, 0, 14, 15, 26, 43, 21, 33, 12, 10, 40, 38, 34, 9, 12, 34, 7, 7, 47, 19, 16, 20
            |10, 33, 31, 31, 16, 32, 29, 31, 8, 33, 29, 17, 13, 15, 11, 13, 12, 25, 21, 38, 13, 34, 13, 1, 0, 12, 16, 16, 36, 22, 25, 28, 25, 32, 29, 16, 16, 24, 12, 9, 10, 16, 26, 33, 19, 34, 31, 37, 12, 21, 3, 13, 14, 26, 27, 33, 10, 32, 4, 24, 1, 16, 15, 26, 42, 20, 32, 12, 11, 39, 37, 33, 8, 13, 33, 8, 5, 45, 19, 15, 19
            |18, 40, 43, 43, 4, 43, 37, 40, 4, 40, 41, 23, 24, 4, 1, 24, 13, 16, 10, 42, 9, 45, 23, 11, 12, 0, 7, 20, 42, 31, 18, 21, 31, 36, 40, 13, 25, 35, 13, 4, 17, 25, 28, 44, 30, 26, 26, 42, 23, 12, 14, 24, 18, 20, 28, 38, 10, 37, 15, 21, 11, 20, 25, 37, 49, 31, 25, 23, 5, 44, 42, 38, 8, 4, 31, 6, 16, 51, 31, 26, 13
            |18, 47, 47, 46, 7, 48, 43, 46, 9, 47, 44, 30, 29, 7, 8, 29, 20, 21, 14, 49, 16, 50, 29, 15, 16, 7, 0, 18, 49, 37, 23, 26, 38, 43, 43, 19, 31, 40, 20, 11, 17, 31, 35, 49, 31, 31, 32, 49, 26, 17, 19, 27, 17, 25, 35, 45, 17, 44, 19, 28, 15, 18, 27, 40, 56, 36, 29, 25, 5, 51, 49, 45, 14, 3, 38, 8, 21, 58, 33, 31, 19
            |7, 48, 36, 33, 23, 42, 43, 43, 17, 47, 32, 33, 25, 23, 20, 23, 27, 36, 30, 53, 27, 41, 26, 15, 16, 20, 18, 0, 51, 34, 38, 41, 40, 48, 31, 30, 30, 33, 27, 21, 6, 29, 42, 40, 17, 46, 45, 52, 16, 32, 18, 17, 2, 39, 43, 48, 25, 47, 15, 39, 15, 1, 13, 27, 55, 30, 44, 13, 15, 54, 52, 48, 22, 17, 48, 14, 20, 60, 20, 27, 32
            |44, 3, 35, 40, 45, 23, 8, 13, 41, 5, 37, 19, 26, 44, 41, 29, 30, 40, 43, 8, 34, 28, 25, 37, 36, 42, 49, 51, 0, 19, 37, 37, 11, 9, 38, 32, 21, 25, 30, 38, 44, 22, 18, 28, 43, 40, 34, 2, 38, 40, 33, 37, 49, 36, 20, 6, 32, 5, 36, 29, 37, 50, 43, 39, 9, 25, 41, 40, 45, 4, 2, 6, 35, 46, 25, 43, 31, 9, 39, 25, 35
            |27, 16, 20, 23, 35, 13, 10, 9, 29, 14, 20, 13, 9, 34, 30, 11, 21, 37, 36, 24, 26, 17, 9, 23, 22, 31, 37, 34, 19, 0, 35, 36, 12, 20, 21, 26, 6, 8, 21, 27, 28, 6, 21, 16, 24, 41, 36, 20, 19, 35, 18, 19, 32, 35, 24, 19, 23, 17, 20, 29, 23, 33, 24, 21, 21, 6, 41, 22, 32, 23, 20, 19, 24, 34, 31, 29, 16, 28, 21, 7, 30
            |34, 36, 52, 54, 16, 48, 35, 41, 20, 37, 51, 22, 31, 16, 18, 33, 15, 4, 10, 34, 12, 51, 29, 25, 25, 18, 23, 38, 37, 35, 0, 3, 28, 29, 51, 10, 30, 42, 15, 17, 34, 30, 19, 51, 44, 9, 9, 36, 37, 6, 26, 37, 36, 2, 18, 31, 15, 32, 28, 8, 25, 38, 40, 49, 46, 38, 7, 37, 23, 38, 36, 31, 17, 22, 17, 23, 26, 44, 43, 33, 6
            |37, 36, 54, 56, 19, 49, 36, 42, 23, 37, 53, 23, 33, 19, 21, 35, 17, 6, 13, 33, 14, 53, 31, 28, 28, 21, 26, 41, 37, 36, 3, 0, 29, 28, 53, 12, 31, 43, 17, 20, 37, 32, 19, 52, 47, 6, 6, 36, 39, 9, 28, 40, 39, 1, 17, 31, 17, 32, 31, 8, 28, 41, 43, 51, 46, 39, 5, 40, 26, 37, 36, 31, 20, 25, 15, 26, 29, 43, 46, 35, 9
            |33, 9, 31, 35, 34, 22, 7, 13, 29, 9, 32, 8, 16, 33, 30, 19, 18, 31, 33, 14, 23, 27, 15, 26, 25, 31, 38, 40, 11, 12, 28, 29, 0, 9, 33, 21, 11, 20, 18, 26, 34, 12, 11, 26, 34, 33, 27, 12, 28, 30, 22, 28, 38, 27, 14, 9, 21, 7, 25, 21, 26, 39, 33, 33, 19, 17, 33, 30, 34, 14, 12, 9, 23, 35, 21, 31, 20, 21, 31, 16, 25
            |41, 9, 40, 44, 38, 29, 12, 19, 35, 11, 41, 15, 25, 37, 35, 28, 23, 32, 35, 6, 27, 34, 23, 34, 32, 36, 43, 48, 9, 20, 29, 28, 9, 0, 41, 25, 20, 28, 23, 32, 42, 21, 9, 34, 43, 31, 25, 8, 37, 32, 30, 36, 46, 27, 11, 3, 26, 5, 33, 20, 34, 47, 42, 41, 18, 26, 32, 39, 40, 9, 8, 3, 29, 40, 16, 38, 28, 15, 40, 25, 27
            |26, 35, 5, 3, 45, 17, 30, 25, 37, 33, 1, 32, 20, 44, 39, 18, 36, 52, 49, 44, 40, 14, 22, 29, 29, 40, 43, 31, 38, 21, 51, 53, 33, 41, 0, 41, 23, 13, 36, 38, 27, 22, 42, 13, 14, 59, 55, 40, 17, 49, 26, 16, 30, 52, 44, 40, 36, 37, 25, 47, 29, 30, 18, 4, 37, 15, 58, 19, 39, 42, 40, 40, 36, 41, 51, 36, 25, 46, 11, 19, 45
            |25, 30, 42, 44, 13, 39, 28, 33, 13, 31, 41, 14, 22, 13, 12, 23, 5, 11, 11, 30, 3, 42, 20, 16, 16, 13, 19, 30, 32, 26, 10, 12, 21, 25, 41, 0, 20, 32, 5, 9, 25, 21, 16, 41, 34, 18, 16, 32, 27, 9, 16, 27, 28, 11, 16, 27, 5, 27, 19, 9, 16, 30, 31, 39, 40, 28, 17, 28, 17, 34, 32, 27, 8, 17, 19, 16, 16, 40, 34, 23, 4
            |23, 18, 23, 26, 29, 18, 13, 15, 23, 17, 23, 9, 5, 28, 24, 8, 16, 31, 30, 25, 20, 22, 4, 17, 16, 25, 31, 30, 21, 6, 30, 31, 11, 20, 23, 20, 0, 12, 16, 21, 23, 1, 18, 21, 23, 36, 32, 22, 17, 29, 13, 16, 28, 30, 21, 20, 17, 18, 15, 24, 17, 29, 22, 22, 26, 8, 36, 19, 27, 25, 22, 20, 18, 28, 28, 24, 11, 31, 20, 5, 25
            |26, 22, 12, 16, 39, 9, 17, 13, 32, 20, 12, 21, 11, 38, 34, 11, 27, 43, 42, 31, 32, 10, 13, 25, 24, 35, 40, 33, 25, 8, 42, 43, 20, 28, 13, 32, 12, 0, 27, 31, 27, 12, 29, 9, 20, 49, 44, 27, 17, 41, 21, 17, 31, 42, 32, 26, 28, 24, 21, 36, 25, 32, 21, 14, 25, 4, 48, 20, 35, 29, 27, 26, 29, 37, 39, 32, 19, 34, 16, 9, 37
            |22, 27, 37, 39, 15, 34, 25, 29, 12, 28, 36, 10, 17, 14, 12, 18, 0, 16, 15, 29, 5, 37, 15, 13, 12, 13, 20, 27, 30, 21, 15, 17, 18, 23, 36, 5, 16, 27, 0, 8, 22, 16, 15, 36, 30, 23, 20, 30, 22, 14, 12, 23, 25, 16, 16, 25, 3, 25, 15, 12, 13, 27, 27, 34, 37, 23, 22, 23, 16, 32, 30, 25, 6, 17, 21, 15, 12, 38, 29, 18, 9
            |17, 35, 40, 40, 8, 39, 32, 36, 4, 35, 38, 18, 20, 7, 4, 21, 8, 16, 11, 37, 6, 42, 19, 9, 9, 4, 11, 21, 38, 27, 17, 20, 26, 32, 38, 9, 21, 31, 8, 0, 17, 21, 24, 41, 28, 25, 24, 38, 21, 12, 11, 22, 19, 18, 24, 33, 6, 33, 13, 18, 9, 21, 24, 35, 45, 27, 24, 21, 8, 40, 38, 33, 3, 8, 28, 7, 13, 46, 28, 22, 11
            |1, 41, 31, 29, 21, 36, 37, 37, 14, 40, 28, 27, 19, 21, 17, 17, 22, 33, 27, 47, 23, 36, 20, 9, 10, 17, 17, 6, 44, 28, 34, 37, 34, 42, 27, 25, 23, 27, 22, 17, 0, 23, 36, 35, 14, 42, 41, 45, 10, 29, 12, 11, 4, 35, 37, 42, 20, 41, 9, 34, 9, 6, 9, 23, 49, 24, 41, 8, 13, 48, 45, 42, 17, 16, 43, 11, 13, 54, 16, 21, 28
            |22, 19, 23, 25, 29, 18, 14, 15, 23, 18, 22, 9, 4, 28, 24, 7, 16, 32, 31, 26, 21, 22, 3, 17, 16, 25, 31, 29, 22, 6, 30, 32, 12, 21, 22, 21, 1, 12, 16, 21, 23, 0, 19, 21, 22, 37, 33, 23, 16, 29, 13, 16, 27, 30, 22, 21, 17, 19, 14, 25, 17, 28, 21, 22, 26, 8, 37, 18, 26, 25, 23, 21, 18, 28, 29, 23, 10, 31, 19, 4, 25
            |36, 17, 41, 44, 29, 33, 17, 24, 27, 18, 41, 10, 23, 28, 27, 26, 15, 23, 26, 15, 18, 37, 21, 27, 26, 28, 35, 42, 18, 21, 19, 19, 11, 9, 42, 16, 18, 29, 15, 24, 36, 19, 0, 37, 40, 23, 17, 17, 33, 23, 24, 33, 40, 18, 3, 12, 18, 13, 27, 11, 27, 41, 38, 41, 27, 26, 23, 35, 32, 19, 17, 12, 21, 32, 10, 30, 23, 25, 38, 23, 18
            |34, 26, 9, 14, 49, 5, 21, 15, 41, 23, 12, 29, 20, 48, 43, 20, 36, 52, 51, 35, 41, 1, 22, 34, 33, 44, 49, 40, 28, 16, 51, 52, 26, 34, 13, 41, 21, 9, 36, 41, 35, 21, 37, 0, 25, 57, 52, 30, 25, 50, 30, 24, 39, 51, 40, 31, 38, 29, 30, 45, 34, 40, 28, 16, 25, 13, 57, 28, 44, 32, 30, 31, 38, 46, 47, 41, 28, 35, 21, 18, 46
            |13, 40, 19, 16, 34, 28, 35, 32, 26, 38, 16, 30, 18, 33, 29, 15, 30, 44, 40, 48, 32, 26, 20, 19, 19, 30, 31, 17, 43, 24, 44, 47, 34, 43, 14, 34, 23, 20, 30, 28, 14, 22, 40, 25, 0, 52, 50, 45, 8, 40, 18, 7, 16, 45, 43, 43, 29, 41, 16, 42, 19, 16, 4, 10, 45, 19, 51, 7, 27, 47, 45, 43, 27, 29, 49, 24, 18, 52, 4, 18, 38
            |43, 40, 60, 62, 24, 54, 40, 46, 29, 41, 59, 28, 39, 24, 26, 41, 23, 10, 17, 35, 20, 58, 37, 34, 34, 26, 31, 46, 40, 41, 9, 6, 33, 31, 59, 18, 36, 49, 23, 25, 42, 37, 23, 57, 52, 0, 6, 39, 45, 14, 34, 45, 44, 7, 20, 34, 23, 35, 37, 13, 34, 46, 49, 57, 49, 45, 2, 46, 31, 40, 39, 34, 25, 30, 16, 32, 34, 45, 52, 40, 14
            |41, 34, 55, 57, 25, 49, 34, 41, 28, 35, 55, 23, 35, 25, 26, 37, 20, 12, 18, 29, 18, 53, 33, 32, 31, 26, 32, 45, 34, 36, 9, 6, 27, 25, 55, 16, 32, 44, 20, 24, 41, 33, 17, 52, 50, 6, 0, 33, 42, 15, 31, 42, 43, 6, 14, 28, 21, 29, 34, 8, 32, 45, 46, 53, 43, 40, 7, 43, 31, 34, 33, 28, 24, 30, 10, 31, 31, 39, 48, 36, 13
            |45, 5, 37, 42, 45, 25, 10, 16, 41, 7, 39, 20, 27, 44, 42, 30, 30, 40, 43, 6, 34, 31, 26, 38, 37, 42, 49, 52, 2, 20, 36, 36, 12, 8, 40, 32, 22, 27, 30, 38, 45, 23, 17, 30, 45, 39, 33, 0, 39, 40, 34, 39, 50, 35, 19, 5, 32, 5, 37, 28, 38, 51, 44, 41, 11, 26, 40, 42, 45, 2, 0, 5, 35, 46, 24, 43, 32, 8, 41, 27, 35
            |9, 34, 21, 20, 28, 26, 30, 28, 20, 33, 18, 23, 12, 27, 22, 9, 22, 37, 33, 41, 25, 26, 13, 12, 12, 23, 26, 16, 38, 19, 37, 39, 28, 37, 17, 27, 17, 17, 22, 21, 10, 16, 33, 25, 8, 45, 42, 39, 0, 33, 11, 1, 14, 38, 35, 36, 22, 35, 8, 35, 12, 15, 5, 14, 41, 15, 44, 3, 21, 41, 39, 36, 20, 23, 42, 18, 11, 47, 7, 13, 31
            |30, 39, 51, 52, 10, 48, 37, 42, 15, 39, 49, 23, 30, 10, 13, 31, 14, 4, 4, 38, 9, 51, 28, 21, 21, 12, 17, 32, 40, 35, 6, 9, 30, 32, 49, 9, 29, 41, 14, 12, 29, 29, 23, 50, 40, 14, 15, 40, 33, 0, 23, 34, 31, 9, 22, 35, 13, 35, 25, 13, 21, 33, 36, 46, 49, 37, 12, 33, 17, 41, 40, 35, 13, 16, 23, 18, 24, 48, 40, 32, 5
            |11, 30, 29, 29, 19, 29, 26, 28, 11, 30, 27, 15, 10, 18, 13, 10, 12, 26, 22, 35, 14, 31, 10, 4, 3, 14, 19, 18, 33, 18, 26, 28, 22, 30, 26, 16, 13, 21, 12, 11, 12, 13, 24, 30, 18, 34, 31, 34, 11, 23, 0, 11, 16, 27, 26, 31, 11, 29, 3, 24, 4, 17, 15, 24, 39, 17, 33, 12, 14, 36, 34, 31, 9, 16, 32, 11, 2, 43, 18, 12, 20
            |10, 34, 20, 19, 29, 25, 29, 28, 21, 33, 17, 23, 11, 28, 23, 9, 23, 38, 33, 41, 26, 25, 13, 13, 13, 24, 27, 17, 37, 19, 37, 40, 28, 36, 16, 27, 16, 17, 23, 22, 11, 16, 33, 24, 7, 45, 42, 39, 1, 34, 11, 0, 15, 38, 35, 36, 22, 34, 9, 35, 13, 16, 5, 13, 40, 14, 44, 4, 22, 41, 39, 36, 21, 24, 42, 19, 11, 47, 6, 12, 31
            |5, 46, 34, 32, 22, 40, 41, 41, 16, 45, 31, 31, 23, 21, 18, 21, 25, 35, 29, 51, 25, 40, 24, 12, 14, 18, 17, 2, 49, 32, 36, 39, 38, 46, 30, 28, 28, 31, 25, 19, 4, 27, 40, 39, 16, 44, 43, 50, 14, 31, 16, 15, 0, 38, 41, 46, 23, 45, 13, 37, 12, 2, 12, 26, 53, 28, 43, 11, 14, 52, 50, 46, 20, 16, 46, 13, 17, 58, 19, 25, 30
            |36, 35, 53, 54, 18, 47, 35, 41, 22, 36, 52, 22, 32, 18, 20, 34, 16, 6, 12, 32, 13, 51, 30, 27, 26, 20, 25, 39, 36, 35, 2, 1, 27, 27, 52, 11, 30, 42, 16, 18, 35, 30, 18, 51, 45, 7, 6, 35, 38, 9, 27, 38, 38, 0, 16, 30, 16, 31, 30, 7, 27, 40, 42, 50, 45, 38, 6, 38, 25, 36, 35, 30, 18, 24, 15, 25, 27, 42, 44, 33, 7
            |37, 19, 44, 47, 29, 35, 20, 27, 28, 21, 44, 13, 25, 28, 27, 28, 16, 21, 25, 16, 19, 40, 23, 29, 27, 28, 35, 43, 20, 24, 18, 17, 14, 11, 44, 16, 21, 32, 16, 24, 37, 22, 3, 40, 43, 20, 14, 19, 35, 22, 26, 35, 41, 16, 0, 14, 19, 15, 29, 9, 29, 43, 40, 43, 29, 29, 21, 37, 32, 20, 19, 14, 22, 32, 7, 31, 25, 26, 40, 26, 17
            |42, 6, 38, 42, 40, 26, 10, 17, 37, 8, 39, 16, 25, 39, 37, 28, 25, 35, 38, 5, 29, 32, 23, 34, 33, 38, 45, 48, 6, 19, 31, 31, 9, 3, 40, 27, 20, 26, 25, 33, 42, 21, 12, 31, 43, 34, 28, 5, 36, 35, 31, 36, 46, 30, 14, 0, 28, 2, 33, 23, 34, 48, 41, 40, 15, 25, 35, 39, 41, 7, 5, 0, 30, 42, 19, 39, 29, 13, 39, 24, 30
            |20, 30, 38, 39, 13, 36, 27, 31, 9, 30, 37, 13, 17, 12, 9, 19, 3, 16, 13, 32, 4, 39, 16, 11, 10, 10, 17, 25, 32, 23, 15, 17, 21, 26, 36, 5, 17, 28, 3, 6, 20, 17, 18, 38, 29, 23, 21, 32, 22, 13, 11, 22, 23, 16, 19, 28, 0, 27, 13, 14, 11, 25, 25, 34, 40, 24, 22, 22, 14, 34, 32, 28, 3, 14, 23, 12, 11, 41, 28, 19, 9
            |40, 4, 35, 40, 40, 24, 8, 14, 36, 6, 37, 15, 23, 39, 37, 26, 25, 35, 38, 7, 29, 30, 22, 33, 32, 37, 44, 47, 5, 17, 32, 32, 7, 5, 37, 27, 18, 24, 25, 33, 41, 19, 13, 29, 41, 35, 29, 5, 35, 35, 29, 34, 45, 31, 15, 2, 27, 0, 32, 24, 33, 47, 40, 38, 14, 23, 36, 37, 40, 7, 5, 2, 30, 41, 21, 38, 27, 13, 37, 23, 30
            |9, 33, 28, 28, 20, 30, 28, 29, 12, 32, 26, 18, 11, 19, 14, 10, 15, 28, 24, 38, 17, 31, 11, 4, 4, 15, 19, 15, 36, 20, 28, 31, 25, 33, 25, 19, 15, 21, 15, 13, 9, 14, 27, 30, 16, 37, 34, 37, 8, 25, 3, 9, 13, 30, 29, 33, 13, 32, 0, 27, 4, 15, 12, 22, 40, 17, 36, 9, 14, 39, 37, 33, 11, 16, 35, 11, 4, 45, 16, 13, 22
            |34, 28, 47, 50, 21, 41, 28, 34, 22, 29, 47, 16, 27, 21, 21, 29, 12, 12, 16, 25, 12, 45, 25, 25, 24, 21, 28, 39, 29, 29, 8, 8, 21, 20, 47, 9, 24, 36, 12, 18, 34, 25, 11, 45, 42, 13, 8, 28, 35, 13, 24, 35, 37, 7, 9, 23, 14, 24, 27, 0, 25, 39, 39, 45, 38, 33, 13, 36, 26, 30, 28, 23, 17, 26, 10, 25, 24, 35, 41, 28, 9
            |9, 35, 32, 32, 16, 33, 31, 32, 8, 34, 30, 19, 15, 15, 10, 14, 13, 25, 21, 39, 14, 35, 14, 0, 1, 11, 15, 15, 37, 23, 25, 28, 26, 34, 29, 16, 17, 25, 13, 9, 9, 17, 27, 34, 19, 34, 32, 38, 12, 21, 4, 13, 12, 27, 29, 34, 11, 33, 4, 25, 0, 14, 15, 26, 43, 21, 33, 12, 10, 40, 38, 34, 9, 12, 34, 7, 7, 47, 19, 16, 20
            |6, 47, 35, 32, 24, 41, 43, 43, 17, 46, 31, 33, 25, 23, 20, 23, 27, 37, 30, 53, 27, 40, 26, 14, 16, 20, 18, 1, 50, 33, 38, 41, 39, 47, 30, 30, 29, 32, 27, 21, 6, 28, 41, 40, 16, 46, 45, 51, 15, 33, 17, 16, 2, 40, 43, 48, 25, 47, 15, 39, 14, 0, 12, 26, 54, 29, 45, 12, 16, 54, 51, 48, 22, 17, 48, 15, 19, 60, 19, 26, 32
            |9, 39, 22, 20, 30, 29, 34, 33, 22, 38, 19, 28, 17, 29, 25, 14, 27, 40, 35, 47, 29, 29, 18, 15, 15, 25, 27, 13, 43, 24, 40, 43, 33, 42, 18, 31, 22, 21, 27, 24, 9, 21, 38, 28, 4, 49, 46, 44, 5, 36, 15, 5, 12, 42, 40, 41, 25, 40, 12, 39, 15, 12, 0, 14, 45, 19, 48, 3, 22, 46, 44, 41, 23, 25, 47, 20, 15, 52, 7, 17, 34
            |22, 36, 9, 6, 42, 20, 31, 27, 34, 34, 5, 31, 18, 41, 36, 16, 34, 50, 46, 45, 38, 17, 21, 26, 26, 37, 40, 27, 39, 21, 49, 51, 33, 41, 4, 39, 22, 14, 34, 35, 23, 22, 41, 16, 10, 57, 53, 41, 14, 46, 24, 13, 26, 50, 43, 40, 34, 38, 22, 45, 26, 26, 14, 0, 39, 15, 56, 15, 35, 43, 41, 40, 33, 37, 51, 32, 23, 48, 7, 17, 43
            |48, 10, 33, 38, 52, 20, 13, 13, 47, 9, 36, 27, 30, 51, 48, 32, 37, 49, 51, 16, 42, 25, 29, 43, 42, 49, 56, 55, 9, 21, 46, 46, 19, 18, 37, 40, 26, 25, 37, 45, 49, 26, 27, 25, 45, 49, 43, 11, 41, 49, 39, 40, 53, 45, 29, 15, 40, 14, 40, 38, 43, 54, 45, 39, 0, 26, 50, 43, 51, 11, 11, 15, 42, 53, 34, 49, 36, 11, 41, 28, 44
            |23, 21, 15, 18, 35, 12, 16, 14, 28, 20, 15, 17, 7, 34, 30, 7, 23, 39, 38, 30, 28, 14, 9, 21, 20, 31, 36, 30, 25, 6, 38, 39, 17, 26, 15, 28, 8, 4, 23, 27, 24, 8, 26, 13, 19, 45, 40, 26, 15, 37, 17, 14, 28, 38, 29, 25, 24, 23, 17, 33, 21, 29, 19, 15, 26, 0, 44, 18, 31, 28, 26, 25, 25, 33, 36, 28, 15, 34, 15, 5, 33
            |41, 40, 59, 61, 22, 54, 40, 46, 27, 42, 58, 28, 38, 22, 25, 40, 22, 8, 15, 36, 19, 58, 36, 33, 32, 25, 29, 44, 41, 41, 7, 5, 33, 32, 58, 17, 36, 48, 22, 24, 41, 37, 23, 57, 51, 2, 7, 40, 44, 12, 33, 44, 43, 6, 21, 35, 22, 36, 36, 13, 33, 45, 48, 56, 50, 44, 0, 44, 29, 41, 40, 35, 24, 28, 18, 30, 33, 46, 51, 40, 13
            |7, 37, 23, 21, 27, 29, 32, 31, 19, 36, 20, 25, 14, 26, 22, 12, 23, 37, 33, 44, 26, 28, 16, 12, 12, 23, 25, 13, 40, 22, 37, 40, 30, 39, 19, 28, 19, 20, 23, 21, 8, 18, 35, 28, 7, 46, 43, 42, 3, 33, 12, 4, 11, 38, 37, 39, 22, 37, 9, 36, 12, 12, 3, 15, 43, 18, 44, 0, 20, 44, 42, 39, 20, 22, 43, 17, 12, 50, 8, 15, 31
            |14, 42, 42, 41, 8, 43, 39, 41, 4, 42, 39, 26, 24, 8, 5, 24, 16, 21, 15, 45, 14, 45, 24, 10, 11, 5, 5, 15, 45, 32, 23, 26, 34, 40, 39, 17, 27, 35, 16, 8, 13, 26, 32, 44, 27, 31, 31, 45, 21, 17, 14, 22, 14, 25, 32, 41, 14, 40, 14, 26, 10, 16, 22, 35, 51, 31, 29, 20, 0, 48, 45, 41, 11, 2, 36, 3, 16, 54, 28, 26, 18
            |47, 7, 39, 44, 47, 27, 12, 17, 43, 9, 41, 22, 30, 46, 44, 32, 32, 41, 44, 5, 36, 32, 28, 40, 39, 44, 51, 54, 4, 23, 38, 37, 14, 9, 42, 34, 25, 29, 32, 40, 48, 25, 19, 32, 47, 40, 34, 2, 41, 41, 36, 41, 52, 36, 20, 7, 34, 7, 39, 30, 40, 54, 46, 43, 11, 28, 41, 44, 48, 0, 2, 7, 37, 48, 24, 45, 34, 6, 43, 29, 36
            |45, 5, 37, 42, 45, 25, 10, 16, 41, 7, 39, 20, 27, 44, 42, 30, 30, 40, 43, 6, 34, 31, 26, 38, 37, 42, 49, 52, 2, 20, 36, 36, 12, 8, 40, 32, 22, 27, 30, 38, 45, 23, 17, 30, 45, 39, 33, 0, 39, 40, 34, 39, 50, 35, 19, 5, 32, 5, 37, 28, 38, 51, 44, 41, 11, 26, 40, 42, 45, 2, 0, 5, 35, 46, 24, 43, 32, 8, 41, 27, 35
            |42, 6, 38, 42, 40, 26, 10, 17, 37, 8, 39, 16, 25, 39, 37, 28, 25, 35, 38, 5, 29, 32, 23, 34, 33, 38, 45, 48, 6, 19, 31, 31, 9, 3, 40, 27, 20, 26, 25, 33, 42, 21, 12, 31, 43, 34, 28, 5, 36, 35, 31, 36, 46, 30, 14, 0, 28, 2, 33, 23, 34, 48, 41, 40, 15, 25, 35, 39, 41, 7, 5, 0, 30, 42, 19, 39, 29, 13, 39, 24, 30
            |17, 32, 38, 38, 11, 36, 29, 33, 6, 32, 36, 15, 17, 10, 7, 18, 6, 17, 13, 35, 5, 39, 16, 9, 8, 8, 14, 22, 35, 24, 17, 20, 23, 29, 36, 8, 18, 29, 6, 3, 17, 18, 21, 38, 27, 25, 24, 35, 20, 13, 9, 21, 20, 18, 22, 30, 3, 30, 11, 17, 9, 22, 23, 33, 42, 25, 24, 20, 11, 37, 35, 30, 0, 11, 26, 9, 10, 43, 27, 19, 11
            |16, 44, 44, 43, 6, 45, 40, 43, 5, 43, 41, 27, 26, 6, 5, 26, 17, 20, 13, 46, 14, 47, 25, 12, 13, 4, 3, 17, 46, 34, 22, 25, 35, 40, 41, 17, 28, 37, 17, 8, 16, 28, 32, 46, 29, 30, 30, 46, 23, 16, 16, 24, 16, 24, 32, 42, 14, 41, 16, 26, 12, 17, 25, 37, 53, 33, 28, 22, 2, 48, 46, 42, 11, 0, 36, 5, 18, 55, 30, 28, 17
            |43, 25, 51, 54, 31, 42, 27, 34, 32, 27, 51, 20, 32, 31, 31, 35, 21, 21, 26, 19, 22, 47, 30, 34, 33, 31, 38, 48, 25, 31, 17, 15, 21, 16, 51, 19, 28, 39, 21, 28, 43, 29, 10, 47, 49, 16, 10, 24, 42, 23, 32, 42, 46, 15, 7, 19, 23, 21, 35, 10, 34, 48, 47, 51, 34, 36, 18, 43, 36, 24, 24, 19, 26, 36, 0, 35, 31, 29, 47, 33, 19
            |12, 40, 39, 38, 10, 40, 36, 39, 3, 40, 36, 23, 21, 9, 5, 21, 15, 22, 16, 43, 13, 42, 21, 7, 8, 6, 8, 14, 43, 29, 23, 26, 31, 38, 36, 16, 24, 32, 15, 7, 11, 23, 30, 41, 24, 32, 31, 43, 18, 18, 11, 19, 13, 25, 31, 39, 12, 38, 11, 25, 7, 15, 20, 32, 49, 28, 30, 17, 3, 45, 43, 39, 9, 5, 35, 0, 13, 52, 25, 23, 18
            |13, 28, 27, 28, 20, 27, 24, 25, 13, 28, 26, 14, 8, 19, 15, 8, 12, 27, 24, 34, 15, 29, 8, 7, 5, 16, 21, 20, 31, 16, 26, 29, 20, 28, 25, 16, 11, 19, 12, 13, 13, 10, 23, 28, 18, 34, 31, 32, 11, 24, 2, 11, 17, 27, 25, 29, 11, 27, 4, 24, 7, 19, 15, 23, 36, 15, 33, 12, 16, 34, 32, 29, 10, 18, 31, 13, 0, 41, 17, 10, 21
            |53, 13, 43, 48, 53, 30, 17, 21, 50, 14, 45, 28, 35, 52, 50, 38, 38, 47, 51, 10, 42, 35, 34, 47, 45, 51, 58, 60, 9, 28, 44, 43, 21, 15, 46, 40, 31, 34, 38, 46, 54, 31, 25, 35, 52, 45, 39, 8, 47, 48, 43, 47, 58, 42, 26, 13, 41, 13, 45, 35, 47, 60, 52, 48, 11, 34, 46, 50, 54, 6, 8, 13, 43, 55, 29, 52, 41, 0, 48, 34, 43
            |15, 36, 15, 13, 35, 23, 31, 28, 27, 34, 12, 28, 15, 34, 30, 12, 29, 44, 40, 44, 32, 22, 17, 19, 19, 31, 33, 20, 39, 21, 43, 46, 31, 40, 11, 34, 20, 16, 29, 28, 16, 19, 38, 21, 4, 52, 48, 41, 7, 40, 18, 6, 19, 44, 40, 39, 28, 37, 16, 41, 19, 19, 7, 7, 41, 15, 51, 8, 28, 43, 41, 39, 27, 30, 47, 25, 17, 48, 0, 15, 38
            |20, 22, 19, 21, 30, 17, 17, 16, 23, 21, 18, 13, 2, 29, 25, 4, 18, 34, 33, 29, 23, 19, 4, 16, 15, 26, 31, 27, 25, 7, 33, 35, 16, 25, 19, 23, 5, 9, 18, 22, 21, 4, 23, 18, 18, 40, 36, 27, 13, 32, 12, 12, 25, 33, 26, 24, 19, 23, 13, 28, 16, 26, 17, 17, 28, 5, 40, 15, 26, 29, 27, 24, 19, 28, 33, 23, 10, 34, 15, 0, 28
            |28, 34, 47, 48, 13, 43, 32, 37, 15, 34, 46, 18, 26, 12, 13, 28, 9, 7, 8, 33, 6, 47, 24, 20, 19, 13, 19, 32, 35, 30, 6, 9, 25, 27, 45, 4, 25, 37, 9, 11, 28, 25, 18, 46, 38, 14, 13, 35, 31, 5, 20, 31, 30, 7, 17, 30, 9, 30, 22, 9, 20, 32, 34, 43, 44, 33, 13, 31, 18, 36, 35, 30, 11, 17, 19, 18, 21, 43, 38, 28, 0|];