% n80w180.002	   76.65 721
n = 81;
duration = [|0, 18, 40, 15, 21, 32, 34, 9, 19, 24, 41, 5, 22, 11, 40, 11, 17, 30, 29, 18, 26, 18, 22, 26, 36, 6, 7, 17, 9, 16, 22, 30, 18, 38, 27, 35, 16, 44, 18, 35, 39, 6, 12, 4, 13, 20, 18, 46, 26, 22, 21, 32, 36, 28, 44, 23, 23, 11, 10, 20, 27, 38, 16, 26, 24, 45, 21, 36, 16, 15, 17, 27, 10, 31, 30, 24, 17, 23, 32, 39, 30
            |18, 0, 25, 30, 29, 35, 20, 16, 4, 15, 24, 13, 18, 17, 23, 20, 21, 25, 12, 3, 23, 20, 17, 35, 37, 17, 25, 32, 26, 12, 9, 33, 4, 39, 16, 27, 2, 43, 17, 17, 27, 12, 27, 13, 21, 4, 35, 29, 22, 6, 39, 14, 30, 19, 28, 18, 11, 11, 28, 6, 19, 28, 2, 9, 7, 44, 9, 28, 23, 20, 12, 36, 27, 31, 16, 6, 7, 34, 30, 39, 20
            |40, 25, 0, 47, 40, 38, 8, 35, 26, 18, 5, 35, 24, 34, 6, 38, 45, 23, 23, 23, 25, 44, 24, 46, 37, 41, 47, 49, 47, 36, 18, 38, 22, 39, 32, 20, 27, 37, 28, 17, 11, 35, 46, 37, 37, 25, 54, 8, 24, 25, 59, 16, 25, 17, 4, 23, 31, 36, 50, 21, 18, 16, 27, 19, 17, 39, 20, 20, 37, 44, 25, 47, 47, 33, 11, 22, 30, 47, 30, 36, 15
            |15, 30, 47, 0, 12, 24, 40, 13, 32, 29, 50, 17, 24, 14, 49, 10, 31, 30, 42, 29, 26, 33, 24, 13, 29, 21, 12, 2, 9, 31, 31, 22, 28, 31, 42, 35, 28, 38, 20, 47, 42, 20, 3, 19, 11, 33, 7, 55, 26, 35, 13, 43, 34, 32, 52, 25, 37, 26, 12, 29, 30, 40, 28, 38, 34, 38, 29, 36, 11, 30, 23, 14, 6, 26, 36, 36, 31, 10, 28, 33, 34
            |21, 29, 40, 12, 0, 12, 32, 14, 32, 22, 44, 20, 16, 13, 43, 11, 38, 20, 41, 27, 16, 39, 17, 6, 17, 27, 22, 13, 19, 35, 27, 10, 26, 19, 44, 25, 28, 26, 14, 44, 33, 24, 14, 23, 9, 33, 18, 48, 17, 35, 24, 41, 23, 24, 45, 17, 39, 30, 23, 26, 22, 30, 28, 36, 31, 26, 25, 26, 6, 36, 18, 7, 17, 14, 30, 35, 33, 6, 17, 21, 26
            |32, 35, 38, 24, 12, 0, 31, 24, 38, 23, 43, 30, 17, 22, 43, 22, 48, 16, 46, 32, 14, 49, 18, 13, 5, 38, 34, 25, 31, 44, 30, 2, 31, 6, 51, 19, 35, 14, 18, 46, 29, 33, 26, 33, 19, 39, 30, 47, 15, 41, 36, 43, 15, 22, 42, 18, 46, 39, 35, 30, 21, 24, 35, 40, 35, 14, 28, 20, 17, 47, 23, 13, 29, 5, 29, 40, 40, 16, 9, 9, 23
            |34, 20, 8, 40, 32, 31, 0, 28, 23, 11, 12, 28, 16, 27, 12, 30, 41, 15, 23, 18, 17, 40, 16, 38, 30, 36, 40, 42, 40, 32, 12, 30, 17, 32, 31, 13, 22, 31, 20, 19, 7, 30, 39, 31, 29, 22, 46, 16, 16, 22, 52, 17, 18, 9, 12, 15, 29, 31, 43, 15, 10, 11, 22, 17, 14, 33, 13, 14, 29, 40, 17, 38, 40, 25, 4, 20, 26, 39, 22, 29, 7
            |9, 16, 35, 13, 14, 24, 28, 0, 19, 17, 37, 6, 14, 2, 36, 4, 24, 22, 29, 15, 18, 25, 14, 20, 28, 14, 13, 16, 12, 21, 18, 22, 15, 30, 30, 27, 15, 36, 10, 33, 32, 9, 11, 9, 5, 20, 19, 42, 18, 22, 24, 30, 27, 21, 39, 15, 25, 16, 16, 16, 20, 30, 15, 25, 21, 37, 16, 28, 8, 23, 10, 21, 12, 23, 24, 23, 19, 18, 23, 31, 23
            |19, 4, 26, 32, 32, 38, 23, 19, 0, 18, 25, 15, 22, 20, 24, 23, 19, 28, 10, 6, 26, 18, 21, 38, 41, 17, 26, 34, 27, 10, 12, 37, 8, 43, 12, 31, 4, 46, 21, 16, 29, 13, 29, 14, 24, 1, 37, 30, 26, 3, 40, 14, 34, 22, 29, 21, 8, 10, 29, 9, 22, 31, 4, 8, 9, 48, 12, 32, 26, 18, 16, 39, 29, 35, 19, 5, 4, 37, 34, 42, 23
            |24, 15, 18, 29, 22, 23, 11, 17, 18, 0, 21, 19, 6, 16, 21, 19, 34, 10, 23, 12, 9, 34, 5, 28, 24, 27, 30, 31, 30, 27, 7, 22, 11, 26, 30, 13, 16, 28, 9, 23, 14, 21, 28, 22, 18, 18, 36, 26, 8, 20, 41, 20, 16, 4, 23, 5, 26, 24, 33, 9, 4, 14, 16, 17, 12, 30, 6, 13, 18, 33, 7, 29, 30, 18, 7, 18, 22, 29, 16, 25, 6
            |41, 24, 5, 50, 44, 43, 12, 37, 25, 21, 0, 36, 28, 36, 1, 40, 44, 27, 20, 23, 29, 43, 27, 50, 42, 41, 48, 52, 48, 35, 19, 42, 23, 44, 29, 25, 26, 42, 31, 13, 16, 36, 48, 37, 39, 24, 56, 5, 28, 23, 61, 13, 30, 21, 5, 26, 29, 35, 51, 21, 22, 21, 26, 17, 17, 44, 21, 25, 40, 43, 27, 50, 49, 37, 14, 20, 29, 50, 34, 41, 19
            |5, 13, 35, 17, 20, 30, 28, 6, 15, 19, 36, 0, 17, 8, 35, 9, 18, 26, 25, 13, 22, 19, 17, 25, 33, 9, 12, 19, 13, 15, 17, 28, 13, 35, 25, 30, 11, 41, 14, 30, 33, 4, 15, 4, 11, 16, 22, 41, 22, 18, 26, 27, 31, 23, 39, 18, 20, 10, 15, 14, 22, 33, 11, 22, 19, 42, 15, 31, 14, 17, 12, 27, 14, 28, 24, 19, 14, 24, 28, 36, 25
            |22, 18, 24, 24, 16, 17, 16, 14, 22, 6, 28, 17, 0, 12, 27, 15, 35, 8, 28, 15, 5, 35, 1, 22, 19, 26, 27, 26, 26, 28, 12, 16, 14, 21, 34, 13, 18, 25, 4, 29, 18, 20, 23, 21, 13, 22, 31, 32, 4, 24, 36, 26, 14, 8, 29, 1, 29, 25, 29, 13, 6, 16, 18, 23, 17, 26, 10, 14, 13, 34, 6, 22, 25, 13, 13, 22, 24, 22, 12, 21, 10
            |11, 17, 34, 14, 13, 22, 27, 2, 20, 16, 36, 8, 12, 0, 35, 4, 26, 20, 29, 16, 16, 27, 12, 18, 26, 16, 15, 16, 14, 22, 17, 20, 15, 28, 31, 25, 16, 34, 8, 33, 30, 11, 12, 11, 4, 21, 20, 41, 16, 23, 25, 30, 25, 19, 38, 13, 26, 17, 17, 16, 18, 29, 16, 25, 21, 34, 15, 26, 6, 25, 9, 19, 13, 21, 23, 23, 20, 17, 21, 29, 22
            |40, 23, 6, 49, 43, 43, 12, 36, 24, 21, 1, 35, 27, 35, 0, 39, 43, 27, 19, 22, 29, 42, 26, 49, 42, 40, 47, 51, 48, 34, 18, 42, 22, 44, 28, 25, 25, 43, 30, 12, 17, 35, 47, 36, 39, 23, 55, 6, 28, 22, 60, 12, 30, 21, 6, 26, 28, 34, 50, 21, 22, 22, 25, 16, 16, 45, 21, 25, 39, 42, 26, 50, 48, 37, 14, 19, 28, 50, 34, 41, 19
            |11, 20, 38, 10, 11, 22, 30, 4, 23, 19, 40, 9, 15, 4, 39, 0, 27, 22, 33, 19, 18, 28, 15, 16, 26, 16, 13, 12, 11, 24, 21, 19, 18, 28, 34, 27, 19, 34, 11, 37, 33, 13, 9, 13, 2, 24, 16, 45, 18, 26, 22, 34, 27, 22, 42, 16, 29, 19, 15, 19, 21, 31, 19, 28, 25, 35, 19, 28, 5, 26, 13, 17, 10, 21, 26, 27, 23, 14, 22, 29, 25
            |17, 21, 45, 31, 38, 48, 41, 24, 19, 34, 44, 18, 35, 26, 43, 27, 0, 43, 25, 23, 40, 2, 34, 42, 52, 11, 19, 33, 23, 9, 29, 46, 24, 54, 19, 47, 19, 59, 32, 34, 48, 15, 28, 15, 29, 20, 32, 49, 39, 21, 33, 32, 49, 39, 49, 35, 16, 10, 21, 26, 38, 49, 19, 27, 28, 60, 29, 48, 32, 1, 29, 44, 25, 46, 37, 24, 15, 40, 46, 54, 40
            |30, 25, 23, 30, 20, 16, 15, 22, 28, 10, 27, 26, 8, 20, 27, 22, 43, 0, 33, 22, 4, 43, 9, 25, 15, 34, 35, 32, 33, 36, 17, 15, 21, 17, 40, 5, 26, 18, 12, 32, 14, 28, 30, 29, 20, 28, 37, 31, 4, 30, 43, 29, 6, 7, 27, 8, 36, 33, 37, 19, 7, 10, 26, 27, 22, 20, 16, 6, 19, 42, 14, 25, 33, 10, 14, 28, 31, 26, 7, 15, 8
            |29, 12, 23, 42, 41, 46, 23, 29, 10, 23, 20, 25, 28, 29, 19, 33, 25, 33, 0, 14, 32, 24, 27, 47, 47, 26, 36, 44, 37, 17, 16, 44, 15, 49, 9, 34, 14, 51, 28, 8, 30, 23, 39, 24, 33, 9, 47, 24, 31, 7, 50, 7, 38, 26, 25, 28, 9, 19, 38, 15, 26, 33, 14, 6, 11, 53, 18, 35, 35, 25, 23, 48, 38, 41, 21, 6, 12, 46, 39, 48, 26
            |18, 3, 23, 29, 27, 32, 18, 15, 6, 12, 23, 13, 15, 16, 22, 19, 23, 22, 14, 0, 20, 23, 14, 33, 34, 18, 25, 31, 25, 15, 6, 31, 1, 37, 18, 25, 4, 40, 15, 18, 24, 13, 26, 14, 19, 7, 34, 28, 19, 9, 38, 15, 28, 16, 27, 15, 14, 13, 28, 3, 16, 26, 4, 9, 6, 41, 6, 26, 21, 22, 9, 34, 26, 29, 14, 8, 9, 32, 27, 36, 17
            |26, 23, 25, 26, 16, 14, 17, 18, 26, 9, 29, 22, 5, 16, 29, 18, 40, 4, 32, 20, 0, 40, 6, 21, 15, 31, 31, 28, 29, 33, 16, 13, 19, 17, 38, 9, 23, 20, 8, 32, 17, 25, 26, 26, 16, 27, 33, 33, 1, 28, 39, 29, 9, 8, 29, 5, 34, 30, 33, 17, 7, 14, 23, 27, 21, 21, 15, 10, 15, 38, 11, 22, 28, 9, 15, 27, 29, 23, 7, 16, 10
            |18, 20, 44, 33, 39, 49, 40, 25, 18, 34, 43, 19, 35, 27, 42, 28, 2, 43, 24, 23, 40, 0, 34, 43, 52, 12, 21, 34, 25, 8, 29, 47, 24, 54, 17, 47, 18, 59, 32, 32, 47, 16, 29, 16, 30, 19, 34, 47, 39, 19, 35, 30, 49, 38, 47, 35, 14, 10, 23, 26, 38, 48, 18, 25, 27, 61, 28, 48, 33, 3, 29, 45, 27, 47, 36, 22, 14, 41, 47, 55, 40
            |22, 17, 24, 24, 17, 18, 16, 14, 21, 5, 27, 17, 1, 12, 26, 15, 34, 9, 27, 14, 6, 34, 0, 23, 20, 26, 27, 26, 26, 28, 11, 17, 13, 22, 33, 13, 18, 25, 4, 28, 18, 20, 24, 21, 14, 21, 31, 31, 5, 23, 37, 25, 14, 7, 28, 1, 29, 24, 30, 12, 6, 16, 18, 22, 16, 27, 9, 14, 13, 33, 6, 23, 26, 14, 13, 22, 23, 23, 13, 21, 9
            |26, 35, 46, 13, 6, 13, 38, 20, 38, 28, 50, 25, 22, 18, 49, 16, 42, 25, 47, 33, 21, 43, 23, 0, 18, 31, 25, 13, 21, 40, 33, 12, 32, 19, 50, 30, 34, 27, 20, 50, 38, 29, 16, 28, 14, 39, 17, 54, 22, 41, 23, 47, 27, 29, 50, 23, 45, 35, 25, 32, 28, 35, 34, 42, 37, 27, 31, 30, 12, 41, 24, 1, 19, 17, 35, 41, 39, 3, 20, 22, 31
            |36, 37, 37, 29, 17, 5, 30, 28, 41, 24, 42, 33, 19, 26, 42, 26, 52, 15, 47, 34, 15, 52, 20, 18, 0, 42, 39, 30, 36, 47, 31, 7, 33, 2, 53, 17, 37, 9, 21, 47, 27, 37, 31, 37, 24, 41, 35, 46, 16, 43, 41, 44, 13, 22, 41, 20, 49, 42, 40, 32, 21, 22, 37, 41, 36, 9, 30, 18, 21, 50, 25, 17, 34, 6, 29, 42, 43, 21, 8, 4, 23
            |6, 17, 41, 21, 27, 38, 36, 14, 17, 27, 41, 9, 26, 16, 40, 16, 11, 34, 26, 18, 31, 12, 26, 31, 42, 0, 10, 22, 13, 11, 24, 35, 19, 44, 23, 39, 15, 49, 22, 33, 41, 6, 17, 5, 18, 18, 23, 46, 30, 20, 25, 31, 40, 31, 45, 27, 19, 7, 13, 21, 30, 41, 15, 25, 24, 50, 22, 40, 21, 9, 20, 33, 15, 36, 31, 22, 14, 29, 37, 44, 33
            |7, 25, 47, 12, 22, 34, 40, 13, 26, 30, 48, 12, 27, 15, 47, 13, 19, 35, 36, 25, 31, 21, 27, 25, 39, 10, 0, 13, 4, 22, 29, 32, 25, 40, 34, 40, 23, 47, 23, 42, 45, 13, 9, 11, 15, 27, 13, 53, 31, 29, 15, 39, 40, 34, 51, 28, 29, 17, 3, 27, 33, 44, 23, 33, 31, 48, 27, 41, 18, 18, 23, 26, 6, 34, 36, 31, 24, 22, 36, 42, 36
            |17, 32, 49, 2, 13, 25, 42, 16, 34, 31, 52, 19, 26, 16, 51, 12, 33, 32, 44, 31, 28, 34, 26, 13, 30, 22, 13, 0, 10, 33, 33, 23, 30, 31, 44, 37, 30, 39, 22, 49, 44, 22, 5, 21, 13, 35, 5, 57, 28, 37, 11, 46, 35, 34, 54, 27, 39, 28, 13, 31, 32, 42, 30, 40, 37, 39, 31, 38, 13, 31, 25, 14, 8, 27, 38, 38, 33, 10, 30, 34, 36
            |9, 26, 47, 9, 19, 31, 40, 12, 27, 30, 48, 13, 26, 14, 48, 11, 23, 33, 37, 25, 29, 25, 26, 21, 36, 13, 4, 10, 0, 24, 29, 29, 25, 37, 36, 38, 24, 44, 22, 43, 44, 14, 6, 13, 13, 29, 10, 53, 29, 30, 13, 40, 38, 33, 51, 27, 31, 19, 4, 27, 32, 42, 24, 34, 32, 45, 27, 39, 15, 22, 22, 23, 2, 32, 36, 32, 26, 18, 33, 39, 35
            |16, 12, 36, 31, 35, 44, 32, 21, 10, 27, 35, 15, 28, 22, 34, 24, 9, 36, 17, 15, 33, 8, 28, 40, 47, 11, 22, 33, 24, 0, 21, 42, 16, 49, 12, 39, 11, 53, 26, 25, 39, 11, 28, 12, 26, 11, 34, 39, 33, 11, 36, 22, 42, 31, 39, 29, 8, 5, 24, 18, 30, 40, 11, 17, 19, 54, 21, 40, 29, 9, 22, 41, 26, 41, 29, 14, 6, 38, 40, 49, 32
            |22, 9, 18, 31, 27, 30, 12, 18, 12, 7, 19, 17, 12, 17, 18, 21, 29, 17, 16, 6, 16, 29, 11, 33, 31, 24, 29, 33, 29, 21, 0, 28, 5, 33, 23, 19, 10, 35, 13, 17, 18, 18, 29, 19, 21, 11, 37, 24, 15, 13, 42, 14, 23, 11, 22, 11, 19, 19, 32, 3, 11, 20, 10, 10, 5, 37, 2, 20, 22, 28, 9, 34, 30, 25, 8, 11, 15, 33, 23, 32, 12
            |30, 33, 38, 22, 10, 2, 30, 22, 37, 22, 42, 28, 16, 20, 42, 19, 46, 15, 44, 31, 13, 47, 17, 12, 7, 35, 32, 23, 29, 42, 28, 0, 29, 9, 49, 19, 33, 16, 16, 45, 29, 31, 24, 31, 17, 37, 28, 46, 14, 39, 34, 42, 16, 21, 42, 17, 44, 37, 33, 29, 20, 24, 33, 39, 33, 16, 26, 20, 14, 45, 21, 11, 27, 6, 28, 38, 38, 14, 9, 11, 23
            |18, 4, 22, 28, 26, 31, 17, 15, 8, 11, 23, 13, 14, 15, 22, 18, 24, 21, 15, 1, 19, 24, 13, 32, 33, 19, 25, 30, 25, 16, 5, 29, 0, 35, 20, 23, 5, 38, 13, 18, 23, 13, 26, 14, 19, 8, 34, 28, 18, 10, 38, 15, 26, 15, 26, 14, 16, 14, 28, 2, 14, 24, 5, 10, 6, 40, 4, 24, 20, 23, 8, 33, 26, 27, 13, 9, 11, 31, 26, 34, 16
            |38, 39, 39, 31, 19, 6, 32, 30, 43, 26, 44, 35, 21, 28, 44, 28, 54, 17, 49, 37, 17, 54, 22, 19, 2, 44, 40, 31, 37, 49, 33, 9, 35, 0, 55, 19, 40, 8, 23, 49, 29, 39, 32, 39, 26, 43, 36, 47, 18, 45, 42, 46, 14, 24, 43, 22, 51, 45, 41, 34, 24, 24, 40, 44, 38, 8, 32, 19, 23, 52, 27, 18, 36, 8, 31, 44, 45, 22, 10, 4, 25
            |27, 16, 32, 42, 44, 51, 31, 30, 12, 30, 29, 25, 34, 31, 28, 34, 19, 40, 9, 18, 38, 17, 33, 50, 53, 23, 34, 44, 36, 12, 23, 49, 20, 55, 0, 42, 16, 58, 33, 17, 39, 22, 39, 23, 35, 12, 46, 33, 37, 10, 48, 16, 45, 33, 35, 33, 5, 16, 36, 21, 33, 41, 16, 14, 18, 59, 24, 42, 38, 19, 28, 51, 38, 47, 29, 12, 11, 48, 45, 54, 34
            |35, 27, 20, 35, 25, 19, 13, 27, 31, 13, 25, 30, 13, 25, 25, 27, 47, 5, 34, 25, 9, 47, 13, 30, 17, 39, 40, 37, 38, 39, 19, 19, 23, 19, 42, 0, 29, 18, 17, 32, 9, 33, 35, 34, 26, 31, 42, 28, 9, 32, 48, 30, 5, 9, 23, 12, 38, 36, 42, 22, 9, 5, 29, 28, 23, 20, 19, 1, 24, 46, 18, 30, 38, 14, 14, 30, 34, 31, 10, 16, 8
            |16, 2, 27, 28, 28, 35, 22, 15, 4, 16, 26, 11, 18, 16, 25, 19, 19, 26, 14, 4, 23, 18, 18, 34, 37, 15, 23, 30, 24, 11, 10, 33, 5, 40, 16, 29, 0, 43, 17, 19, 28, 10, 26, 11, 20, 5, 33, 31, 23, 7, 37, 16, 31, 20, 30, 18, 11, 9, 25, 7, 20, 30, 0, 11, 9, 45, 10, 30, 22, 18, 12, 35, 25, 32, 18, 8, 6, 33, 30, 39, 22
            |44, 43, 37, 38, 26, 14, 31, 36, 46, 28, 42, 41, 25, 34, 43, 34, 59, 18, 51, 40, 20, 59, 25, 27, 9, 49, 47, 39, 44, 53, 35, 16, 38, 8, 58, 18, 43, 0, 27, 49, 26, 44, 40, 44, 32, 46, 44, 45, 21, 48, 50, 47, 13, 25, 40, 25, 54, 49, 49, 37, 25, 21, 43, 45, 40, 2, 34, 17, 29, 58, 31, 26, 43, 13, 31, 46, 49, 30, 13, 5, 25
            |18, 17, 28, 20, 14, 18, 20, 10, 21, 9, 31, 14, 4, 8, 30, 11, 32, 12, 28, 15, 8, 32, 4, 20, 21, 22, 23, 22, 22, 26, 13, 16, 13, 23, 33, 17, 17, 27, 0, 30, 22, 17, 19, 17, 9, 21, 27, 35, 8, 23, 32, 27, 17, 12, 32, 5, 28, 22, 25, 13, 10, 21, 17, 23, 18, 28, 11, 18, 9, 31, 5, 20, 21, 15, 16, 22, 22, 20, 14, 23, 14
            |35, 17, 17, 47, 44, 46, 19, 33, 16, 23, 13, 30, 29, 33, 12, 37, 34, 32, 8, 18, 32, 32, 28, 50, 47, 33, 42, 49, 43, 25, 17, 45, 18, 49, 17, 32, 19, 49, 30, 0, 26, 29, 44, 30, 37, 15, 52, 16, 31, 14, 56, 3, 36, 25, 18, 28, 18, 26, 45, 18, 25, 30, 19, 9, 12, 51, 19, 32, 38, 33, 25, 51, 44, 41, 18, 11, 19, 49, 39, 47, 24
            |39, 27, 11, 42, 33, 29, 7, 32, 29, 14, 16, 33, 18, 30, 17, 33, 48, 14, 30, 24, 17, 47, 18, 38, 27, 41, 45, 44, 44, 39, 18, 29, 23, 29, 39, 9, 28, 26, 22, 26, 0, 35, 42, 36, 32, 29, 49, 19, 16, 30, 55, 24, 14, 11, 14, 17, 36, 37, 47, 21, 12, 5, 28, 25, 21, 28, 19, 9, 31, 46, 22, 38, 43, 23, 10, 27, 33, 40, 20, 25, 9
            |6, 12, 35, 20, 24, 33, 30, 9, 13, 21, 36, 4, 20, 11, 35, 13, 15, 28, 23, 13, 25, 16, 20, 29, 37, 6, 13, 22, 14, 11, 18, 31, 13, 39, 22, 33, 10, 44, 17, 29, 35, 0, 17, 1, 15, 14, 24, 41, 25, 16, 27, 26, 34, 25, 39, 21, 17, 6, 16, 15, 24, 35, 10, 21, 19, 45, 16, 34, 17, 14, 14, 30, 16, 31, 25, 18, 11, 27, 31, 39, 27
            |12, 27, 46, 3, 14, 26, 39, 11, 29, 28, 48, 15, 23, 12, 47, 9, 28, 30, 39, 26, 26, 29, 24, 16, 31, 17, 9, 5, 6, 28, 29, 24, 26, 32, 39, 35, 26, 40, 19, 44, 42, 17, 0, 16, 10, 31, 8, 53, 26, 33, 13, 41, 34, 31, 50, 25, 34, 23, 9, 27, 30, 40, 26, 36, 32, 40, 27, 36, 11, 27, 21, 17, 4, 27, 35, 34, 28, 13, 29, 35, 33
            |4, 13, 37, 19, 23, 33, 31, 9, 14, 22, 37, 4, 21, 11, 36, 13, 15, 29, 24, 14, 26, 16, 21, 28, 37, 5, 11, 21, 13, 12, 19, 31, 14, 39, 23, 34, 11, 44, 17, 30, 36, 1, 16, 0, 14, 16, 23, 42, 25, 17, 26, 28, 35, 26, 41, 22, 18, 7, 14, 16, 25, 36, 11, 22, 20, 45, 17, 35, 17, 13, 15, 30, 15, 32, 27, 19, 13, 26, 32, 40, 28
            |13, 21, 37, 11, 9, 19, 29, 5, 24, 18, 39, 11, 13, 4, 39, 2, 29, 20, 33, 19, 16, 30, 14, 14, 24, 18, 15, 13, 13, 26, 21, 17, 19, 26, 35, 26, 20, 32, 9, 37, 32, 15, 10, 14, 0, 25, 17, 44, 16, 27, 23, 34, 25, 21, 41, 15, 30, 21, 17, 19, 20, 30, 20, 29, 25, 33, 18, 27, 3, 28, 12, 16, 12, 19, 25, 27, 24, 13, 20, 27, 23
            |20, 4, 25, 33, 33, 39, 22, 20, 1, 18, 24, 16, 22, 21, 23, 24, 20, 28, 9, 7, 27, 19, 21, 39, 41, 18, 27, 35, 29, 11, 11, 37, 8, 43, 12, 31, 5, 46, 21, 15, 29, 14, 31, 16, 25, 0, 38, 28, 26, 2, 42, 12, 34, 22, 28, 22, 8, 12, 30, 9, 22, 31, 5, 7, 8, 48, 12, 31, 27, 19, 16, 40, 30, 35, 18, 4, 5, 38, 34, 42, 23
            |18, 35, 54, 7, 18, 30, 46, 19, 37, 36, 56, 22, 31, 20, 55, 16, 32, 37, 47, 34, 33, 34, 31, 17, 35, 23, 13, 5, 10, 34, 37, 28, 34, 36, 46, 42, 33, 44, 27, 52, 49, 24, 8, 23, 17, 38, 0, 61, 33, 40, 6, 49, 41, 38, 58, 32, 41, 29, 11, 35, 37, 47, 33, 43, 40, 44, 35, 43, 18, 31, 29, 19, 8, 32, 43, 41, 35, 14, 35, 39, 40
            |46, 29, 8, 55, 48, 47, 16, 42, 30, 26, 5, 41, 32, 41, 6, 45, 49, 31, 24, 28, 33, 47, 31, 54, 46, 46, 53, 57, 53, 39, 24, 46, 28, 47, 33, 28, 31, 45, 35, 16, 19, 41, 53, 42, 44, 28, 61, 0, 32, 28, 66, 17, 33, 25, 5, 31, 33, 40, 56, 26, 26, 24, 31, 22, 22, 47, 26, 28, 44, 48, 32, 55, 54, 41, 19, 25, 34, 55, 38, 44, 23
            |26, 22, 24, 26, 17, 15, 16, 18, 26, 8, 28, 22, 4, 16, 28, 18, 39, 4, 31, 19, 1, 39, 5, 22, 16, 30, 31, 28, 29, 33, 15, 14, 18, 18, 37, 9, 23, 21, 8, 31, 16, 25, 26, 25, 16, 26, 33, 32, 0, 27, 39, 28, 9, 7, 28, 4, 33, 29, 33, 17, 6, 13, 23, 26, 20, 22, 14, 10, 15, 38, 11, 22, 29, 10, 14, 26, 28, 23, 8, 17, 9
            |22, 6, 25, 35, 35, 41, 22, 22, 3, 20, 23, 18, 24, 23, 22, 26, 21, 30, 7, 9, 28, 19, 23, 41, 43, 20, 29, 37, 30, 11, 13, 39, 10, 45, 10, 32, 7, 48, 23, 14, 30, 16, 33, 17, 27, 2, 40, 28, 27, 0, 43, 11, 35, 23, 28, 23, 7, 13, 32, 11, 23, 32, 7, 6, 9, 49, 14, 33, 29, 20, 18, 42, 32, 37, 19, 3, 6, 40, 36, 44, 24
            |21, 39, 59, 13, 24, 36, 52, 24, 40, 41, 61, 26, 36, 25, 60, 22, 33, 43, 50, 38, 39, 35, 37, 23, 41, 25, 15, 11, 13, 36, 42, 34, 38, 42, 48, 48, 37, 50, 32, 56, 55, 27, 13, 26, 23, 42, 6, 66, 39, 43, 0, 53, 47, 44, 63, 38, 44, 32, 12, 40, 43, 52, 37, 47, 45, 50, 40, 49, 24, 32, 34, 24, 12, 38, 48, 45, 38, 20, 41, 45, 46
            |32, 14, 16, 43, 41, 43, 17, 30, 14, 20, 13, 27, 26, 30, 12, 34, 32, 29, 7, 15, 29, 30, 25, 47, 44, 31, 39, 46, 40, 22, 14, 42, 15, 46, 16, 30, 16, 47, 27, 3, 24, 26, 41, 28, 34, 12, 49, 17, 28, 11, 53, 0, 34, 22, 18, 25, 16, 24, 42, 15, 23, 28, 16, 6, 9, 49, 16, 30, 35, 31, 22, 48, 41, 39, 16, 9, 17, 46, 36, 44, 22
            |36, 30, 25, 34, 23, 15, 18, 27, 34, 16, 30, 31, 14, 25, 30, 27, 49, 6, 38, 28, 9, 49, 14, 27, 13, 40, 40, 35, 38, 42, 23, 16, 26, 14, 45, 5, 31, 13, 17, 36, 14, 34, 34, 35, 25, 34, 41, 33, 9, 35, 47, 34, 0, 12, 28, 13, 42, 38, 42, 25, 12, 9, 31, 32, 27, 15, 22, 5, 23, 47, 20, 26, 37, 10, 18, 33, 37, 29, 6, 11, 12
            |28, 19, 17, 32, 24, 22, 9, 21, 22, 4, 21, 23, 8, 19, 21, 22, 39, 7, 26, 16, 8, 38, 7, 29, 22, 31, 34, 34, 33, 31, 11, 21, 15, 24, 33, 9, 20, 25, 12, 25, 11, 25, 31, 26, 21, 22, 38, 25, 7, 23, 44, 22, 12, 0, 21, 6, 30, 28, 36, 13, 1, 10, 20, 20, 15, 27, 10, 9, 21, 37, 11, 30, 33, 17, 7, 21, 26, 30, 14, 22, 2
            |44, 28, 4, 52, 45, 42, 12, 39, 29, 23, 5, 39, 29, 38, 6, 42, 49, 27, 25, 27, 29, 47, 28, 50, 41, 45, 51, 54, 51, 39, 22, 42, 26, 43, 35, 23, 30, 40, 32, 18, 14, 39, 50, 41, 41, 28, 58, 5, 28, 28, 63, 18, 28, 21, 0, 27, 34, 39, 54, 25, 22, 19, 30, 22, 21, 42, 24, 23, 41, 48, 29, 51, 51, 37, 16, 25, 33, 51, 33, 39, 19
            |23, 18, 23, 25, 17, 18, 15, 15, 21, 5, 26, 18, 1, 13, 26, 16, 35, 8, 28, 15, 5, 35, 1, 23, 20, 27, 28, 27, 27, 29, 11, 17, 14, 22, 33, 12, 18, 25, 5, 28, 17, 21, 25, 22, 15, 22, 32, 31, 4, 23, 38, 25, 13, 6, 27, 0, 29, 25, 31, 13, 5, 15, 18, 22, 16, 26, 10, 13, 14, 34, 7, 24, 27, 14, 12, 22, 24, 24, 12, 21, 9
            |23, 11, 31, 37, 39, 46, 29, 25, 8, 26, 29, 20, 29, 26, 28, 29, 16, 36, 9, 14, 34, 14, 29, 45, 49, 19, 29, 39, 31, 8, 19, 44, 16, 51, 5, 38, 11, 54, 28, 18, 36, 17, 34, 18, 30, 8, 41, 33, 33, 7, 44, 16, 42, 30, 34, 29, 0, 12, 31, 17, 30, 39, 11, 12, 16, 55, 20, 39, 33, 16, 23, 46, 33, 43, 26, 9, 6, 43, 41, 50, 31
            |11, 11, 36, 26, 30, 39, 31, 16, 10, 24, 35, 10, 25, 17, 34, 19, 10, 33, 19, 13, 30, 10, 24, 35, 42, 7, 17, 28, 19, 5, 19, 37, 14, 45, 16, 36, 9, 49, 22, 26, 37, 6, 23, 7, 21, 12, 29, 40, 29, 13, 32, 24, 38, 28, 39, 25, 12, 0, 20, 16, 28, 38, 9, 18, 18, 50, 18, 37, 24, 9, 18, 36, 21, 37, 27, 15, 7, 33, 36, 45, 30
            |10, 28, 50, 12, 23, 35, 43, 16, 29, 33, 51, 15, 29, 17, 50, 15, 21, 37, 38, 28, 33, 23, 30, 25, 40, 13, 3, 13, 4, 24, 32, 33, 28, 41, 36, 42, 25, 49, 25, 45, 47, 16, 9, 14, 17, 30, 11, 56, 33, 32, 12, 42, 42, 36, 54, 31, 31, 20, 0, 29, 35, 46, 25, 36, 34, 49, 30, 43, 19, 20, 26, 26, 6, 36, 39, 33, 26, 22, 37, 43, 39
            |20, 6, 21, 29, 26, 30, 15, 16, 9, 9, 21, 14, 13, 16, 21, 19, 26, 19, 15, 3, 17, 26, 12, 32, 32, 21, 27, 31, 27, 18, 3, 29, 2, 34, 21, 22, 7, 37, 13, 18, 21, 15, 27, 16, 19, 9, 35, 26, 17, 11, 40, 15, 25, 13, 25, 13, 17, 16, 29, 0, 13, 22, 7, 10, 5, 39, 3, 22, 21, 25, 8, 33, 28, 26, 11, 9, 13, 32, 25, 33, 14
            |27, 19, 18, 30, 22, 21, 10, 20, 22, 4, 22, 22, 6, 18, 22, 21, 38, 7, 26, 16, 7, 38, 6, 28, 21, 30, 33, 32, 32, 30, 11, 20, 14, 24, 33, 9, 20, 25, 10, 25, 12, 24, 30, 25, 20, 22, 37, 26, 6, 23, 43, 23, 12, 1, 22, 5, 30, 28, 35, 13, 0, 11, 20, 21, 15, 26, 10, 10, 19, 37, 10, 28, 31, 16, 8, 21, 25, 29, 13, 22, 4
            |38, 28, 16, 40, 30, 24, 11, 30, 31, 14, 21, 33, 16, 29, 22, 31, 49, 10, 33, 26, 14, 48, 16, 35, 22, 41, 44, 42, 42, 40, 20, 24, 24, 24, 41, 5, 30, 21, 21, 30, 5, 35, 40, 36, 30, 31, 47, 24, 13, 32, 52, 28, 9, 10, 19, 15, 39, 38, 46, 22, 11, 0, 30, 28, 23, 23, 20, 4, 29, 47, 21, 35, 42, 19, 13, 29, 35, 36, 15, 20, 8
            |16, 2, 27, 28, 28, 35, 22, 15, 4, 16, 26, 11, 18, 16, 25, 19, 19, 26, 14, 4, 23, 18, 18, 34, 37, 15, 23, 30, 24, 11, 10, 33, 5, 40, 16, 29, 0, 43, 17, 19, 28, 10, 26, 11, 20, 5, 33, 31, 23, 7, 37, 16, 31, 20, 30, 18, 11, 9, 25, 7, 20, 30, 0, 11, 9, 45, 10, 30, 22, 18, 12, 35, 25, 32, 18, 8, 6, 33, 30, 39, 22
            |26, 9, 19, 38, 36, 40, 17, 25, 8, 17, 17, 22, 23, 25, 16, 28, 27, 27, 6, 9, 27, 25, 22, 42, 41, 25, 33, 40, 34, 17, 10, 39, 10, 44, 14, 28, 11, 45, 23, 9, 25, 21, 36, 22, 29, 7, 43, 22, 26, 6, 47, 6, 32, 20, 22, 22, 12, 18, 36, 10, 21, 28, 11, 0, 5, 47, 12, 29, 30, 26, 18, 43, 36, 36, 15, 3, 12, 42, 34, 42, 21
            |24, 7, 17, 34, 31, 35, 14, 21, 9, 12, 17, 19, 17, 21, 16, 25, 28, 22, 11, 6, 21, 27, 16, 37, 36, 24, 31, 37, 32, 19, 5, 33, 6, 38, 18, 23, 9, 40, 18, 12, 21, 19, 32, 20, 25, 8, 40, 22, 20, 9, 45, 9, 27, 15, 21, 16, 16, 18, 34, 5, 15, 23, 9, 5, 0, 42, 7, 24, 26, 27, 13, 38, 33, 30, 10, 6, 13, 37, 28, 37, 16
            |45, 44, 39, 38, 26, 14, 33, 37, 48, 30, 44, 42, 26, 34, 45, 35, 60, 20, 53, 41, 21, 61, 27, 27, 9, 50, 48, 39, 45, 54, 37, 16, 40, 8, 59, 20, 45, 2, 28, 51, 28, 45, 40, 45, 33, 48, 44, 47, 22, 49, 50, 49, 15, 27, 42, 26, 55, 50, 49, 39, 26, 23, 45, 47, 42, 0, 36, 19, 30, 59, 33, 26, 43, 14, 33, 48, 50, 30, 14, 6, 27
            |21, 9, 20, 29, 25, 28, 13, 16, 12, 6, 21, 15, 10, 15, 21, 19, 29, 16, 18, 6, 15, 28, 9, 31, 30, 22, 27, 31, 27, 21, 2, 26, 4, 32, 24, 19, 10, 34, 11, 19, 19, 16, 27, 17, 18, 12, 35, 26, 14, 14, 40, 16, 22, 10, 24, 10, 20, 18, 30, 3, 10, 20, 10, 12, 7, 36, 0, 20, 19, 27, 6, 31, 28, 24, 9, 12, 15, 30, 22, 31, 12
            |36, 28, 20, 36, 26, 20, 14, 28, 32, 13, 25, 31, 14, 26, 25, 28, 48, 6, 35, 26, 10, 48, 14, 30, 18, 40, 41, 38, 39, 40, 20, 20, 24, 19, 42, 1, 30, 17, 18, 32, 9, 34, 36, 35, 27, 31, 43, 28, 10, 33, 49, 30, 5, 9, 23, 13, 39, 37, 43, 22, 10, 4, 30, 29, 24, 19, 20, 0, 25, 46, 19, 30, 39, 14, 14, 30, 35, 32, 11, 16, 8
            |16, 23, 37, 11, 6, 17, 29, 8, 26, 18, 40, 14, 13, 6, 39, 5, 32, 19, 35, 21, 15, 33, 13, 12, 21, 21, 18, 13, 15, 29, 22, 14, 20, 23, 38, 24, 22, 29, 9, 38, 31, 17, 11, 17, 3, 27, 18, 44, 15, 29, 24, 35, 23, 21, 41, 14, 33, 24, 19, 21, 19, 29, 22, 30, 26, 30, 19, 25, 0, 30, 13, 13, 14, 16, 26, 29, 27, 11, 18, 24, 23
            |15, 20, 44, 30, 36, 47, 40, 23, 18, 33, 43, 17, 34, 25, 42, 26, 1, 42, 25, 22, 38, 3, 33, 41, 50, 9, 18, 31, 22, 9, 28, 45, 23, 52, 19, 46, 18, 58, 31, 33, 46, 14, 27, 13, 28, 19, 31, 48, 38, 20, 32, 31, 47, 37, 48, 34, 16, 9, 20, 25, 37, 47, 18, 26, 27, 59, 27, 46, 30, 0, 27, 42, 24, 45, 36, 23, 14, 38, 45, 53, 39
            |17, 12, 25, 23, 18, 23, 17, 10, 16, 7, 27, 12, 6, 9, 26, 13, 29, 14, 23, 9, 11, 29, 6, 24, 25, 20, 23, 25, 22, 22, 9, 21, 8, 27, 28, 18, 12, 31, 5, 25, 22, 14, 21, 15, 12, 16, 29, 32, 11, 18, 34, 22, 20, 11, 29, 7, 23, 18, 26, 8, 10, 21, 12, 18, 13, 33, 6, 19, 13, 27, 0, 25, 22, 19, 14, 17, 18, 24, 18, 27, 13
            |27, 36, 47, 14, 7, 13, 38, 21, 39, 29, 50, 27, 22, 19, 50, 17, 44, 25, 48, 34, 22, 45, 23, 1, 17, 33, 26, 14, 23, 41, 34, 11, 33, 18, 51, 30, 35, 26, 20, 51, 38, 30, 17, 30, 16, 40, 19, 55, 22, 42, 24, 48, 26, 30, 51, 24, 46, 36, 26, 33, 28, 35, 35, 43, 38, 26, 31, 30, 13, 42, 25, 0, 21, 17, 36, 42, 40, 4, 20, 22, 31
            |10, 27, 47, 6, 17, 29, 40, 12, 29, 30, 49, 14, 25, 13, 48, 10, 25, 33, 38, 26, 28, 27, 26, 19, 34, 15, 6, 8, 2, 26, 30, 27, 26, 36, 38, 38, 25, 43, 21, 44, 43, 16, 4, 15, 12, 30, 8, 54, 29, 32, 12, 41, 37, 33, 51, 27, 33, 21, 6, 28, 31, 42, 25, 36, 33, 43, 28, 39, 14, 24, 22, 21, 0, 30, 36, 33, 27, 16, 32, 38, 35
            |31, 31, 33, 26, 14, 5, 25, 23, 35, 18, 37, 28, 13, 21, 37, 21, 46, 10, 41, 29, 9, 47, 14, 17, 6, 36, 34, 27, 32, 41, 25, 6, 27, 8, 47, 14, 32, 13, 15, 41, 23, 31, 27, 32, 19, 35, 32, 41, 10, 37, 38, 39, 10, 17, 37, 14, 43, 37, 36, 26, 16, 19, 32, 36, 30, 14, 24, 14, 16, 45, 19, 17, 30, 0, 24, 36, 37, 19, 4, 8, 18
            |30, 16, 11, 36, 30, 29, 4, 24, 19, 7, 14, 24, 13, 23, 14, 26, 37, 14, 21, 14, 15, 36, 13, 35, 29, 31, 36, 38, 36, 29, 8, 28, 13, 31, 29, 14, 18, 31, 16, 18, 10, 25, 35, 27, 25, 18, 43, 19, 14, 19, 48, 16, 18, 7, 16, 12, 26, 27, 39, 11, 8, 13, 18, 15, 10, 33, 9, 14, 26, 36, 14, 36, 36, 24, 0, 17, 23, 36, 21, 29, 6
            |24, 6, 22, 36, 35, 40, 20, 23, 5, 18, 20, 19, 22, 23, 19, 27, 24, 28, 6, 8, 27, 22, 22, 41, 42, 22, 31, 38, 32, 14, 11, 38, 9, 44, 12, 30, 8, 46, 22, 11, 27, 18, 34, 19, 27, 4, 41, 25, 26, 3, 45, 9, 33, 21, 25, 22, 9, 15, 33, 9, 21, 29, 8, 3, 6, 48, 12, 30, 29, 23, 17, 42, 33, 36, 17, 0, 9, 40, 34, 43, 22
            |17, 7, 30, 31, 33, 40, 26, 19, 4, 22, 29, 14, 24, 20, 28, 23, 15, 31, 12, 9, 29, 14, 23, 39, 43, 14, 24, 33, 26, 6, 15, 38, 11, 45, 11, 34, 6, 49, 22, 19, 33, 11, 28, 13, 24, 5, 35, 34, 28, 6, 38, 17, 37, 26, 33, 24, 6, 7, 26, 13, 25, 35, 6, 12, 13, 50, 15, 35, 27, 14, 18, 40, 27, 37, 23, 9, 0, 37, 36, 45, 27
            |23, 34, 47, 10, 6, 16, 39, 18, 37, 29, 50, 24, 22, 17, 50, 14, 40, 26, 46, 32, 23, 41, 23, 3, 21, 29, 22, 10, 18, 38, 33, 14, 31, 22, 48, 31, 33, 30, 20, 49, 40, 27, 13, 26, 13, 38, 14, 55, 23, 40, 20, 46, 29, 30, 51, 24, 43, 33, 22, 32, 29, 36, 33, 42, 37, 30, 30, 32, 11, 38, 24, 4, 16, 19, 36, 40, 37, 0, 22, 25, 32
            |32, 30, 30, 28, 17, 9, 22, 23, 34, 16, 34, 28, 12, 21, 34, 22, 46, 7, 39, 27, 7, 47, 13, 20, 8, 37, 36, 30, 33, 40, 23, 9, 26, 10, 45, 10, 30, 13, 14, 39, 20, 31, 29, 32, 20, 34, 35, 38, 8, 36, 41, 36, 6, 14, 33, 12, 41, 36, 37, 25, 13, 15, 30, 34, 28, 14, 22, 11, 18, 45, 18, 20, 32, 4, 21, 34, 36, 22, 0, 9, 15
            |39, 39, 36, 33, 21, 9, 29, 31, 42, 25, 41, 36, 21, 29, 41, 29, 54, 15, 48, 36, 16, 55, 21, 22, 4, 44, 42, 34, 39, 49, 32, 11, 34, 4, 54, 16, 39, 5, 23, 47, 25, 39, 35, 40, 27, 42, 39, 44, 17, 44, 45, 44, 11, 22, 39, 21, 50, 45, 43, 33, 22, 20, 39, 42, 37, 6, 31, 16, 24, 53, 27, 22, 38, 8, 29, 43, 45, 25, 9, 0, 23
            |30, 20, 15, 34, 26, 23, 7, 23, 23, 6, 19, 25, 10, 22, 19, 25, 40, 8, 26, 17, 10, 40, 9, 31, 23, 33, 36, 36, 35, 32, 12, 23, 16, 25, 34, 8, 22, 25, 14, 24, 9, 27, 33, 28, 23, 23, 40, 23, 9, 24, 46, 22, 12, 2, 19, 9, 31, 30, 39, 14, 4, 8, 22, 21, 16, 27, 12, 8, 23, 39, 13, 31, 35, 18, 6, 22, 27, 32, 15, 23, 0|];