% N80w120.001    21.44 732
n = 81;
duration = [|0, 30, 24, 36, 39, 44, 29, 38, 36, 22, 25, 22, 46, 37, 43, 47, 34, 1, 37, 14, 26, 31, 21, 50, 21, 24, 39, 47, 34, 5, 17, 9, 28, 25, 7, 24, 60, 2, 22, 3, 49, 34, 21, 52, 32, 61, 36, 21, 33, 42, 19, 51, 40, 6, 35, 35, 29, 46, 5, 47, 22, 34, 20, 26, 9, 44, 31, 41, 46, 8, 44, 16, 44, 31, 33, 37, 25, 10, 50, 16, 28
            |30, 0, 6, 8, 45, 20, 1, 15, 6, 8, 6, 26, 33, 47, 17, 21, 26, 31, 44, 16, 36, 44, 17, 32, 20, 33, 49, 40, 22, 27, 14, 38, 38, 8, 37, 28, 41, 28, 8, 27, 30, 35, 41, 32, 25, 43, 34, 34, 4, 17, 11, 41, 42, 25, 9, 19, 24, 25, 30, 27, 32, 44, 31, 41, 22, 48, 12, 19, 25, 38, 47, 15, 29, 16, 7, 7, 21, 20, 31, 15, 4
            |24, 6, 0, 14, 43, 25, 6, 19, 12, 2, 2, 23, 35, 44, 23, 26, 26, 25, 42, 10, 33, 41, 14, 35, 17, 30, 47, 41, 23, 21, 9, 32, 35, 4, 31, 25, 45, 22, 2, 21, 33, 34, 36, 36, 25, 47, 34, 30, 9, 22, 5, 43, 41, 18, 14, 21, 23, 29, 24, 30, 28, 41, 28, 38, 15, 47, 14, 23, 29, 32, 46, 9, 31, 17, 11, 13, 19, 14, 35, 10, 6
            |36, 8, 14, 0, 44, 13, 8, 8, 7, 15, 14, 28, 28, 47, 10, 13, 24, 38, 43, 23, 38, 46, 19, 25, 22, 34, 49, 36, 19, 33, 19, 44, 39, 16, 43, 29, 35, 34, 15, 34, 23, 34, 44, 25, 23, 36, 33, 36, 4, 10, 17, 37, 40, 31, 4, 15, 23, 18, 35, 20, 33, 44, 34, 43, 28, 46, 10, 12, 18, 44, 45, 22, 24, 13, 4, 7, 21, 27, 24, 20, 9
            |39, 45, 43, 44, 0, 38, 43, 38, 50, 42, 45, 20, 25, 5, 42, 43, 20, 40, 2, 41, 13, 12, 29, 34, 26, 15, 7, 18, 25, 35, 35, 37, 11, 47, 41, 18, 39, 39, 42, 39, 35, 10, 22, 38, 21, 39, 12, 18, 44, 40, 39, 23, 5, 41, 40, 30, 21, 36, 34, 35, 17, 6, 19, 15, 41, 5, 34, 37, 36, 40, 6, 43, 28, 30, 40, 50, 24, 40, 35, 35, 41
            |44, 20, 25, 13, 38, 0, 20, 6, 20, 26, 26, 28, 17, 42, 4, 4, 19, 45, 39, 33, 36, 44, 23, 12, 24, 33, 45, 26, 14, 39, 26, 49, 37, 28, 50, 28, 21, 42, 26, 41, 10, 29, 45, 11, 18, 23, 26, 36, 17, 3, 26, 26, 34, 40, 11, 10, 20, 5, 41, 7, 33, 41, 34, 42, 37, 39, 12, 2, 5, 51, 38, 33, 13, 13, 13, 20, 21, 35, 11, 28, 19
            |29, 1, 6, 8, 43, 20, 0, 14, 7, 8, 6, 25, 32, 45, 17, 21, 25, 31, 43, 16, 35, 43, 16, 31, 19, 31, 48, 39, 21, 26, 13, 37, 37, 8, 36, 26, 41, 27, 8, 26, 29, 34, 40, 31, 23, 42, 33, 32, 4, 17, 10, 40, 40, 24, 9, 18, 22, 24, 29, 26, 30, 42, 30, 40, 21, 46, 11, 18, 24, 37, 46, 15, 28, 15, 6, 8, 19, 20, 30, 14, 3
            |38, 15, 19, 8, 38, 6, 14, 0, 15, 20, 20, 25, 20, 42, 5, 8, 18, 40, 38, 27, 34, 42, 18, 17, 20, 31, 44, 29, 13, 34, 21, 45, 35, 22, 45, 25, 27, 37, 20, 36, 15, 28, 42, 17, 17, 29, 26, 33, 11, 4, 21, 29, 34, 34, 5, 9, 18, 10, 36, 12, 30, 39, 31, 40, 31, 40, 7, 4, 10, 46, 39, 27, 16, 9, 8, 15, 18, 30, 16, 22, 13
            |36, 6, 12, 7, 50, 20, 7, 15, 0, 14, 11, 32, 35, 52, 16, 20, 30, 37, 49, 22, 42, 50, 23, 32, 26, 38, 55, 43, 26, 33, 20, 44, 44, 12, 43, 33, 41, 34, 14, 33, 30, 40, 47, 31, 29, 43, 39, 39, 6, 17, 17, 44, 46, 30, 11, 22, 28, 25, 36, 27, 37, 49, 37, 47, 27, 52, 16, 19, 25, 44, 51, 21, 31, 19, 9, 1, 26, 26, 31, 21, 10
            |22, 8, 2, 15, 42, 26, 8, 20, 14, 0, 4, 22, 35, 43, 24, 28, 26, 23, 41, 8, 32, 40, 13, 36, 16, 28, 46, 41, 23, 19, 8, 30, 34, 5, 29, 24, 46, 20, 0, 19, 34, 33, 34, 37, 24, 48, 33, 28, 11, 23, 4, 43, 40, 16, 15, 22, 23, 30, 22, 31, 27, 40, 26, 36, 13, 46, 15, 24, 30, 30, 45, 7, 32, 17, 13, 15, 18, 12, 35, 8, 7
            |25, 6, 2, 14, 45, 26, 6, 20, 11, 4, 0, 26, 37, 46, 24, 27, 29, 26, 44, 11, 35, 43, 17, 37, 19, 32, 49, 43, 25, 22, 11, 33, 38, 2, 32, 27, 47, 23, 4, 22, 35, 36, 38, 37, 27, 48, 36, 32, 10, 23, 7, 45, 43, 19, 15, 23, 25, 30, 25, 32, 30, 43, 30, 40, 16, 49, 16, 24, 30, 33, 48, 9, 33, 19, 13, 12, 21, 15, 36, 12, 7
            |22, 26, 23, 28, 20, 28, 25, 25, 32, 22, 26, 0, 25, 21, 30, 32, 13, 23, 19, 21, 10, 18, 9, 31, 6, 6, 24, 25, 15, 17, 15, 24, 12, 27, 26, 2, 40, 21, 22, 21, 30, 13, 17, 34, 12, 40, 15, 8, 26, 28, 19, 29, 19, 22, 24, 18, 9, 28, 17, 29, 5, 18, 6, 15, 21, 25, 18, 26, 28, 26, 24, 23, 24, 16, 24, 33, 7, 20, 31, 15, 22
            |46, 33, 35, 28, 25, 17, 32, 20, 35, 35, 37, 25, 0, 30, 22, 21, 12, 47, 26, 39, 28, 34, 25, 9, 25, 26, 32, 9, 13, 41, 32, 49, 28, 39, 51, 23, 16, 45, 35, 44, 10, 17, 39, 13, 14, 16, 14, 31, 30, 20, 34, 9, 20, 44, 25, 14, 16, 13, 42, 11, 27, 29, 29, 34, 42, 24, 21, 17, 13, 51, 23, 41, 4, 18, 26, 35, 21, 41, 10, 33, 30
            |37, 47, 44, 47, 5, 42, 45, 42, 52, 43, 46, 21, 30, 0, 46, 46, 24, 38, 4, 41, 12, 8, 30, 39, 27, 15, 3, 24, 29, 34, 36, 34, 9, 48, 38, 19, 45, 37, 43, 37, 39, 14, 19, 43, 25, 44, 16, 16, 46, 43, 40, 28, 10, 40, 42, 33, 24, 40, 32, 40, 17, 3, 18, 11, 40, 10, 37, 41, 40, 37, 11, 43, 32, 33, 43, 52, 26, 39, 40, 36, 42
            |43, 17, 23, 10, 42, 4, 17, 5, 16, 24, 24, 30, 22, 46, 0, 4, 22, 45, 42, 31, 39, 46, 24, 16, 25, 35, 48, 31, 17, 39, 26, 50, 40, 25, 50, 30, 25, 42, 24, 41, 14, 32, 47, 15, 21, 27, 30, 38, 14, 2, 25, 30, 38, 39, 9, 13, 23, 9, 41, 11, 35, 44, 36, 45, 36, 43, 12, 5, 9, 51, 42, 31, 17, 14, 11, 16, 23, 35, 15, 27, 17
            |47, 21, 26, 13, 43, 4, 21, 8, 20, 28, 27, 32, 21, 46, 4, 0, 23, 48, 43, 35, 40, 48, 26, 14, 28, 37, 49, 30, 18, 42, 29, 53, 41, 29, 53, 32, 22, 45, 28, 44, 12, 33, 49, 12, 22, 24, 30, 40, 17, 4, 28, 29, 38, 42, 13, 14, 24, 8, 44, 9, 37, 45, 38, 46, 39, 43, 15, 6, 8, 54, 42, 35, 16, 16, 15, 19, 25, 38, 13, 31, 21
            |34, 26, 26, 24, 20, 19, 25, 18, 30, 26, 29, 13, 12, 24, 22, 23, 0, 35, 20, 28, 18, 25, 14, 18, 13, 16, 26, 15, 5, 29, 21, 37, 19, 31, 39, 12, 27, 33, 26, 32, 18, 10, 28, 22, 2, 28, 8, 19, 25, 20, 24, 18, 16, 33, 20, 9, 4, 17, 30, 17, 16, 22, 18, 24, 31, 22, 14, 17, 17, 39, 21, 30, 11, 11, 21, 31, 9, 29, 19, 22, 22
            |1, 31, 25, 38, 40, 45, 31, 40, 37, 23, 26, 23, 47, 38, 45, 48, 35, 0, 38, 15, 27, 31, 23, 52, 23, 25, 40, 49, 35, 6, 19, 8, 29, 26, 6, 25, 62, 3, 23, 4, 50, 36, 21, 54, 34, 62, 38, 22, 34, 43, 21, 52, 41, 7, 36, 37, 31, 47, 6, 48, 24, 35, 21, 27, 10, 45, 33, 43, 47, 7, 45, 17, 45, 33, 34, 38, 26, 11, 52, 17, 29
            |37, 44, 42, 43, 2, 39, 43, 38, 49, 41, 44, 19, 26, 4, 42, 43, 20, 38, 0, 39, 11, 10, 27, 35, 25, 13, 6, 20, 25, 33, 34, 35, 9, 46, 39, 17, 41, 37, 41, 37, 35, 10, 20, 39, 21, 40, 12, 16, 43, 40, 38, 24, 6, 39, 39, 30, 21, 36, 32, 36, 15, 4, 17, 13, 39, 8, 33, 37, 36, 38, 8, 42, 28, 30, 40, 50, 23, 38, 36, 34, 40
            |14, 16, 10, 23, 41, 33, 16, 27, 22, 8, 11, 21, 39, 41, 31, 35, 28, 15, 39, 0, 29, 36, 14, 41, 16, 26, 43, 43, 27, 12, 7, 22, 31, 11, 21, 23, 52, 12, 8, 11, 40, 33, 29, 43, 26, 53, 34, 25, 19, 30, 6, 46, 40, 8, 22, 26, 24, 36, 15, 37, 24, 38, 23, 32, 5, 45, 21, 30, 36, 22, 45, 3, 36, 22, 20, 23, 19, 4, 41, 6, 15
            |26, 36, 33, 38, 13, 36, 35, 34, 42, 32, 35, 10, 28, 12, 39, 40, 18, 27, 11, 29, 0, 8, 19, 36, 16, 4, 14, 25, 22, 22, 24, 25, 2, 37, 28, 9, 44, 26, 32, 26, 36, 11, 11, 40, 18, 44, 14, 5, 36, 36, 28, 30, 14, 28, 34, 26, 16, 35, 21, 35, 5, 9, 6, 6, 28, 18, 28, 34, 35, 28, 18, 32, 29, 25, 34, 43, 17, 28, 37, 24, 32
            |31, 44, 41, 46, 12, 44, 43, 42, 50, 40, 43, 18, 34, 8, 46, 48, 25, 31, 10, 36, 8, 0, 27, 42, 24, 12, 9, 29, 29, 28, 32, 27, 6, 45, 31, 17, 49, 31, 40, 31, 42, 16, 11, 46, 25, 49, 19, 11, 44, 44, 36, 34, 16, 34, 42, 34, 24, 42, 26, 42, 13, 6, 13, 4, 34, 17, 36, 42, 42, 30, 18, 39, 35, 33, 42, 51, 25, 34, 43, 32, 40
            |21, 17, 14, 19, 29, 23, 16, 18, 23, 13, 17, 9, 25, 30, 24, 26, 14, 23, 27, 14, 19, 27, 0, 29, 3, 16, 33, 29, 13, 16, 7, 26, 21, 18, 27, 11, 39, 20, 13, 19, 28, 20, 25, 31, 12, 40, 20, 17, 17, 22, 10, 32, 27, 19, 16, 14, 10, 24, 18, 26, 14, 27, 14, 24, 17, 32, 11, 21, 24, 28, 32, 16, 23, 10, 15, 24, 5, 15, 29, 8, 13
            |50, 32, 35, 25, 34, 12, 31, 17, 32, 36, 37, 31, 9, 39, 16, 14, 18, 52, 35, 41, 36, 42, 29, 0, 29, 34, 41, 18, 16, 45, 34, 54, 37, 39, 56, 30, 10, 49, 36, 48, 2, 26, 47, 4, 19, 12, 23, 38, 28, 15, 35, 16, 29, 48, 22, 15, 22, 7, 47, 5, 35, 38, 36, 42, 45, 33, 21, 13, 7, 56, 32, 42, 7, 19, 25, 32, 26, 44, 1, 36, 29
            |21, 20, 17, 22, 26, 24, 19, 20, 26, 16, 19, 6, 25, 27, 25, 28, 13, 23, 25, 16, 16, 24, 3, 29, 0, 13, 30, 28, 13, 16, 9, 26, 18, 21, 27, 8, 39, 20, 16, 19, 28, 17, 22, 32, 11, 40, 18, 14, 20, 23, 13, 31, 24, 20, 18, 15, 9, 25, 18, 26, 12, 24, 12, 21, 18, 30, 13, 22, 25, 27, 29, 18, 23, 11, 18, 26, 4, 16, 29, 10, 16
            |24, 33, 30, 34, 15, 33, 31, 31, 38, 28, 32, 6, 26, 15, 35, 37, 16, 25, 13, 26, 4, 12, 16, 34, 13, 0, 17, 25, 19, 20, 21, 24, 6, 33, 27, 5, 42, 24, 28, 24, 33, 11, 13, 37, 15, 42, 13, 4, 33, 33, 25, 29, 15, 26, 30, 23, 13, 32, 19, 33, 2, 12, 4, 9, 25, 20, 24, 31, 32, 27, 20, 29, 27, 22, 30, 39, 13, 25, 34, 21, 29
            |39, 49, 47, 49, 7, 45, 48, 44, 55, 46, 49, 24, 32, 3, 48, 49, 26, 40, 6, 43, 14, 9, 33, 41, 30, 17, 0, 25, 31, 36, 38, 36, 12, 51, 40, 22, 46, 40, 46, 40, 41, 16, 20, 45, 27, 46, 19, 19, 49, 46, 42, 30, 12, 42, 45, 36, 27, 42, 34, 42, 19, 6, 21, 13, 42, 10, 39, 43, 42, 39, 11, 46, 35, 36, 46, 55, 29, 42, 42, 39, 45
            |47, 40, 41, 36, 18, 26, 39, 29, 43, 41, 43, 25, 9, 24, 31, 30, 15, 49, 20, 43, 25, 29, 29, 18, 28, 25, 25, 0, 18, 43, 36, 49, 25, 45, 52, 24, 21, 47, 41, 46, 19, 14, 37, 22, 17, 20, 11, 29, 38, 29, 39, 4, 14, 47, 32, 21, 19, 22, 43, 21, 26, 24, 29, 30, 45, 16, 28, 26, 22, 51, 15, 45, 13, 25, 34, 43, 24, 44, 19, 37, 37
            |34, 22, 23, 19, 25, 14, 21, 13, 26, 23, 25, 15, 13, 29, 17, 18, 5, 35, 25, 27, 22, 29, 13, 16, 13, 19, 31, 18, 0, 29, 19, 38, 23, 27, 40, 14, 26, 33, 23, 32, 15, 15, 32, 19, 4, 27, 13, 22, 20, 15, 21, 20, 21, 32, 15, 4, 6, 13, 30, 14, 19, 27, 21, 28, 30, 27, 10, 12, 13, 40, 26, 28, 10, 6, 16, 26, 9, 28, 17, 21, 18
            |5, 27, 21, 33, 35, 39, 26, 34, 33, 19, 22, 17, 41, 34, 39, 42, 29, 6, 33, 12, 22, 28, 16, 45, 16, 20, 36, 43, 29, 0, 13, 11, 24, 23, 11, 19, 55, 4, 19, 4, 44, 30, 19, 48, 27, 56, 32, 17, 29, 38, 16, 46, 35, 7, 30, 31, 24, 41, 3, 42, 18, 30, 16, 23, 8, 40, 27, 37, 41, 12, 40, 14, 39, 27, 29, 34, 20, 8, 45, 12, 24
            |17, 14, 9, 19, 35, 26, 13, 21, 20, 8, 11, 15, 32, 36, 26, 29, 21, 19, 34, 7, 24, 32, 7, 34, 9, 21, 38, 36, 19, 13, 0, 24, 26, 13, 24, 17, 45, 16, 8, 15, 33, 27, 27, 36, 19, 46, 27, 21, 16, 25, 4, 39, 33, 13, 17, 19, 17, 29, 16, 30, 19, 32, 18, 28, 11, 39, 14, 24, 29, 25, 39, 9, 29, 15, 16, 21, 12, 9, 34, 1, 11
            |9, 38, 32, 44, 37, 49, 37, 45, 44, 30, 33, 24, 49, 34, 50, 53, 37, 8, 35, 22, 25, 27, 26, 54, 26, 24, 36, 49, 38, 11, 24, 0, 26, 33, 4, 25, 64, 10, 30, 11, 53, 35, 16, 57, 35, 64, 37, 20, 40, 48, 27, 53, 39, 15, 41, 40, 33, 51, 8, 52, 22, 32, 20, 23, 17, 43, 37, 47, 51, 3, 43, 25, 48, 37, 40, 45, 29, 18, 55, 23, 35
            |28, 38, 35, 39, 11, 37, 37, 35, 44, 34, 38, 12, 28, 9, 40, 41, 19, 29, 9, 31, 2, 6, 21, 37, 18, 6, 12, 25, 23, 24, 26, 26, 0, 39, 30, 11, 44, 28, 34, 28, 36, 11, 12, 40, 19, 44, 14, 7, 38, 38, 31, 29, 13, 31, 35, 27, 17, 36, 23, 36, 7, 6, 9, 5, 30, 16, 30, 36, 36, 29, 17, 34, 29, 27, 35, 45, 18, 30, 37, 27, 34
            |25, 8, 4, 16, 47, 28, 8, 22, 12, 5, 2, 27, 39, 48, 25, 29, 31, 26, 46, 11, 37, 45, 18, 39, 21, 33, 51, 45, 27, 23, 13, 33, 39, 0, 32, 29, 49, 23, 5, 22, 37, 38, 39, 39, 29, 50, 38, 33, 11, 25, 8, 47, 45, 19, 17, 25, 27, 32, 26, 34, 32, 45, 31, 41, 16, 51, 18, 26, 32, 33, 50, 9, 35, 21, 14, 13, 23, 15, 38, 13, 9
            |7, 37, 31, 43, 41, 50, 36, 45, 43, 29, 32, 26, 51, 38, 50, 53, 39, 6, 39, 21, 28, 31, 27, 56, 27, 27, 40, 52, 40, 11, 24, 4, 30, 32, 0, 28, 66, 9, 29, 10, 55, 38, 20, 59, 37, 66, 40, 23, 40, 49, 26, 55, 42, 13, 41, 42, 35, 52, 9, 53, 25, 35, 23, 27, 16, 46, 38, 48, 52, 1, 47, 23, 50, 38, 40, 44, 30, 17, 56, 23, 35
            |24, 28, 25, 29, 18, 28, 26, 25, 33, 24, 27, 2, 23, 19, 30, 32, 12, 25, 17, 23, 9, 17, 11, 30, 8, 5, 22, 24, 14, 19, 17, 25, 11, 29, 28, 0, 39, 23, 24, 23, 29, 11, 17, 33, 11, 39, 13, 8, 27, 28, 21, 27, 17, 24, 25, 18, 8, 28, 19, 28, 5, 16, 6, 15, 23, 23, 19, 26, 28, 28, 22, 25, 23, 16, 25, 34, 8, 22, 30, 17, 23
            |60, 41, 45, 35, 39, 21, 41, 27, 41, 46, 47, 40, 16, 45, 25, 22, 27, 62, 41, 52, 44, 49, 39, 10, 39, 42, 46, 21, 26, 55, 45, 64, 44, 49, 66, 39, 0, 59, 46, 58, 12, 33, 55, 10, 28, 2, 30, 46, 38, 24, 46, 17, 34, 58, 32, 25, 31, 17, 57, 15, 43, 44, 45, 49, 55, 37, 31, 23, 17, 66, 36, 52, 16, 30, 34, 41, 35, 54, 11, 46, 40
            |2, 28, 22, 34, 39, 42, 27, 37, 34, 20, 23, 21, 45, 37, 42, 45, 33, 3, 37, 12, 26, 31, 20, 49, 20, 24, 40, 47, 33, 4, 16, 10, 28, 23, 9, 23, 59, 0, 20, 1, 47, 34, 21, 51, 31, 60, 36, 21, 31, 40, 17, 50, 39, 4, 33, 34, 28, 44, 5, 45, 22, 34, 20, 27, 7, 44, 30, 40, 44, 10, 44, 14, 43, 30, 31, 35, 24, 8, 49, 14, 26
            |22, 8, 2, 15, 42, 26, 8, 20, 14, 0, 4, 22, 35, 43, 24, 28, 26, 23, 41, 8, 32, 40, 13, 36, 16, 28, 46, 41, 23, 19, 8, 30, 34, 5, 29, 24, 46, 20, 0, 19, 34, 33, 34, 37, 24, 48, 33, 28, 11, 23, 4, 43, 40, 16, 15, 22, 23, 30, 22, 31, 27, 40, 26, 36, 13, 46, 15, 24, 30, 30, 45, 7, 32, 17, 13, 15, 18, 12, 35, 8, 7
            |3, 27, 21, 34, 39, 41, 26, 36, 33, 19, 22, 21, 44, 37, 41, 44, 32, 4, 37, 11, 26, 31, 19, 48, 19, 24, 40, 46, 32, 4, 15, 11, 28, 22, 10, 23, 58, 1, 19, 0, 47, 34, 22, 50, 31, 59, 35, 21, 30, 39, 16, 50, 39, 4, 32, 33, 28, 43, 6, 45, 22, 34, 20, 27, 6, 44, 29, 39, 43, 11, 44, 13, 42, 29, 30, 34, 23, 7, 48, 13, 25
            |49, 30, 33, 23, 35, 10, 29, 15, 30, 34, 35, 30, 10, 39, 14, 12, 18, 50, 35, 40, 36, 42, 28, 2, 28, 33, 41, 19, 15, 44, 33, 53, 36, 37, 55, 29, 12, 47, 34, 47, 0, 26, 46, 4, 18, 14, 23, 37, 26, 13, 34, 17, 30, 46, 20, 13, 21, 5, 46, 3, 34, 38, 35, 42, 43, 34, 19, 11, 5, 55, 33, 40, 7, 18, 23, 30, 24, 42, 1, 34, 28
            |34, 35, 34, 34, 10, 29, 34, 28, 40, 33, 36, 13, 17, 14, 32, 33, 10, 36, 10, 33, 11, 16, 20, 26, 17, 11, 16, 14, 15, 30, 27, 35, 11, 38, 38, 11, 33, 34, 33, 34, 26, 0, 23, 30, 11, 33, 3, 15, 34, 30, 30, 18, 7, 35, 30, 20, 11, 26, 30, 26, 13, 12, 15, 17, 34, 13, 24, 27, 26, 38, 12, 36, 19, 21, 30, 40, 15, 33, 27, 27, 31
            |21, 41, 36, 44, 22, 45, 40, 42, 47, 34, 38, 17, 39, 19, 47, 49, 28, 21, 20, 29, 11, 11, 25, 47, 22, 13, 20, 37, 32, 19, 27, 16, 12, 39, 20, 17, 55, 21, 34, 22, 46, 23, 0, 50, 28, 55, 26, 9, 42, 45, 31, 41, 25, 25, 40, 35, 25, 45, 16, 45, 12, 16, 11, 8, 26, 28, 35, 43, 45, 19, 28, 32, 40, 33, 40, 48, 24, 26, 47, 26, 37
            |52, 32, 36, 25, 38, 11, 31, 17, 31, 37, 37, 34, 13, 43, 15, 12, 22, 54, 39, 43, 40, 46, 31, 4, 32, 37, 45, 22, 19, 48, 36, 57, 40, 39, 59, 33, 10, 51, 37, 50, 4, 30, 50, 0, 22, 12, 27, 41, 28, 14, 37, 19, 33, 50, 22, 17, 25, 7, 49, 6, 38, 42, 40, 46, 47, 37, 22, 13, 7, 59, 36, 43, 11, 21, 25, 31, 28, 45, 3, 38, 30
            |32, 25, 25, 23, 21, 18, 23, 17, 29, 24, 27, 12, 14, 25, 21, 22, 2, 34, 21, 26, 18, 25, 12, 19, 11, 15, 27, 17, 4, 27, 19, 35, 19, 29, 37, 11, 28, 31, 24, 31, 18, 11, 28, 22, 0, 29, 10, 19, 23, 19, 22, 20, 18, 31, 18, 9, 3, 17, 28, 17, 16, 22, 17, 24, 29, 23, 13, 16, 17, 37, 23, 28, 12, 9, 19, 29, 8, 28, 20, 20, 21
            |61, 43, 47, 36, 39, 23, 42, 29, 43, 48, 48, 40, 16, 44, 27, 24, 28, 62, 40, 53, 44, 49, 40, 12, 40, 42, 46, 20, 27, 56, 46, 64, 44, 50, 66, 39, 2, 60, 48, 59, 14, 33, 55, 12, 29, 0, 30, 46, 40, 26, 47, 16, 34, 59, 34, 26, 32, 18, 57, 16, 43, 44, 45, 49, 56, 36, 33, 25, 18, 66, 35, 54, 17, 31, 36, 43, 36, 55, 12, 47, 41
            |36, 34, 34, 33, 12, 26, 33, 26, 39, 33, 36, 15, 14, 16, 30, 30, 8, 38, 12, 34, 14, 19, 20, 23, 18, 13, 19, 11, 13, 32, 27, 37, 14, 38, 40, 13, 30, 36, 33, 35, 23, 3, 26, 27, 10, 30, 0, 18, 33, 28, 31, 16, 8, 37, 28, 18, 11, 24, 32, 23, 15, 15, 17, 20, 35, 13, 23, 25, 24, 40, 13, 36, 16, 19, 29, 39, 15, 34, 24, 28, 30
            |21, 34, 30, 36, 18, 36, 32, 33, 39, 28, 32, 8, 31, 16, 38, 40, 19, 22, 16, 25, 5, 11, 17, 38, 14, 4, 19, 29, 22, 17, 21, 20, 7, 33, 23, 8, 46, 21, 28, 21, 37, 15, 9, 41, 19, 46, 18, 0, 34, 36, 25, 33, 19, 24, 32, 26, 16, 36, 16, 36, 3, 13, 2, 8, 23, 23, 26, 34, 36, 23, 23, 27, 30, 24, 32, 40, 15, 23, 38, 21, 30
            |33, 4, 9, 4, 44, 17, 4, 11, 6, 11, 10, 26, 30, 46, 14, 17, 25, 34, 43, 19, 36, 44, 17, 28, 20, 33, 49, 38, 20, 29, 16, 40, 38, 11, 40, 27, 38, 31, 11, 30, 26, 34, 42, 28, 23, 40, 33, 34, 0, 14, 13, 39, 41, 28, 6, 17, 23, 21, 32, 23, 32, 43, 32, 42, 24, 46, 10, 15, 21, 41, 46, 18, 26, 14, 4, 6, 20, 23, 27, 17, 5
            |42, 17, 22, 10, 40, 3, 17, 4, 17, 23, 23, 28, 20, 43, 2, 4, 20, 43, 40, 30, 36, 44, 22, 15, 23, 33, 46, 29, 15, 38, 25, 48, 38, 25, 49, 28, 24, 40, 23, 39, 13, 30, 45, 14, 19, 26, 28, 36, 14, 0, 24, 28, 36, 38, 9, 10, 20, 8, 40, 10, 33, 41, 34, 42, 35, 41, 11, 3, 8, 49, 40, 30, 15, 12, 11, 17, 21, 34, 14, 26, 16
            |19, 11, 5, 17, 39, 26, 10, 21, 17, 4, 7, 19, 34, 40, 25, 28, 24, 21, 38, 6, 28, 36, 10, 35, 13, 25, 42, 39, 21, 16, 4, 27, 31, 8, 26, 21, 46, 17, 4, 16, 34, 30, 31, 37, 22, 47, 31, 25, 13, 24, 0, 41, 37, 14, 16, 21, 20, 29, 19, 31, 23, 37, 23, 33, 11, 43, 14, 24, 29, 27, 42, 7, 31, 16, 14, 18, 15, 10, 35, 4, 9
            |51, 41, 43, 37, 23, 26, 40, 29, 44, 43, 45, 29, 9, 28, 30, 29, 18, 52, 24, 46, 30, 34, 32, 16, 31, 29, 30, 4, 20, 46, 39, 53, 29, 47, 55, 27, 17, 50, 43, 50, 17, 18, 41, 19, 20, 16, 16, 33, 39, 28, 41, 0, 18, 50, 33, 22, 22, 21, 47, 19, 30, 28, 33, 35, 48, 20, 29, 25, 21, 55, 19, 48, 13, 26, 35, 44, 27, 47, 17, 40, 38
            |40, 42, 41, 40, 5, 34, 40, 34, 46, 40, 43, 19, 20, 10, 38, 38, 16, 41, 6, 40, 14, 16, 27, 29, 24, 15, 12, 14, 21, 35, 33, 39, 13, 45, 42, 17, 34, 39, 40, 39, 30, 7, 25, 33, 18, 34, 8, 19, 41, 36, 37, 18, 0, 41, 36, 26, 18, 31, 35, 30, 17, 10, 19, 18, 40, 6, 30, 33, 31, 42, 5, 42, 23, 27, 37, 47, 22, 39, 30, 34, 38
            |6, 25, 18, 31, 41, 40, 24, 34, 30, 16, 19, 22, 44, 40, 39, 42, 33, 7, 39, 8, 28, 34, 19, 48, 20, 26, 42, 47, 32, 7, 13, 15, 31, 19, 13, 24, 58, 4, 16, 4, 46, 35, 25, 50, 31, 59, 37, 24, 28, 38, 14, 50, 41, 0, 30, 33, 28, 42, 9, 44, 24, 37, 22, 30, 3, 46, 28, 38, 42, 14, 46, 10, 42, 28, 28, 31, 23, 4, 48, 12, 23
            |35, 9, 14, 4, 40, 11, 9, 5, 11, 15, 15, 24, 25, 42, 9, 13, 20, 36, 39, 22, 34, 42, 16, 22, 18, 30, 45, 32, 15, 30, 17, 41, 35, 17, 41, 25, 32, 33, 15, 32, 20, 30, 40, 22, 18, 34, 28, 32, 6, 9, 16, 33, 36, 30, 0, 11, 19, 16, 33, 17, 29, 40, 30, 39, 27, 42, 6, 9, 16, 42, 41, 22, 20, 9, 2, 11, 17, 26, 22, 18, 8
            |35, 19, 21, 15, 30, 10, 18, 9, 22, 22, 23, 18, 14, 33, 13, 14, 9, 37, 30, 26, 26, 34, 14, 15, 15, 23, 36, 21, 4, 31, 19, 40, 27, 25, 42, 18, 25, 34, 22, 33, 13, 20, 35, 17, 9, 26, 18, 26, 17, 10, 21, 22, 26, 33, 11, 0, 10, 10, 32, 11, 23, 31, 24, 32, 30, 31, 7, 8, 10, 42, 30, 27, 10, 4, 13, 22, 12, 29, 15, 21, 16
            |29, 24, 23, 23, 21, 20, 22, 18, 28, 23, 25, 9, 16, 24, 23, 24, 4, 31, 21, 24, 16, 24, 10, 22, 9, 13, 27, 19, 6, 24, 17, 33, 17, 27, 35, 8, 31, 28, 23, 28, 21, 11, 25, 25, 3, 32, 11, 16, 23, 20, 20, 22, 18, 28, 19, 10, 0, 19, 25, 20, 13, 21, 15, 22, 26, 24, 13, 18, 19, 35, 23, 26, 15, 9, 19, 29, 5, 25, 22, 18, 20
            |46, 25, 29, 18, 36, 5, 24, 10, 25, 30, 30, 28, 13, 40, 9, 8, 17, 47, 36, 36, 35, 42, 24, 7, 25, 32, 42, 22, 13, 41, 29, 51, 36, 32, 52, 28, 17, 44, 30, 43, 5, 26, 45, 7, 17, 18, 24, 36, 21, 8, 29, 21, 31, 42, 16, 10, 19, 0, 43, 2, 33, 38, 34, 41, 40, 36, 15, 6, 0, 52, 35, 36, 9, 14, 18, 25, 22, 38, 6, 30, 23
            |5, 30, 24, 35, 34, 41, 29, 36, 36, 22, 25, 17, 42, 32, 41, 44, 30, 6, 32, 15, 21, 26, 18, 47, 18, 19, 34, 43, 30, 3, 16, 8, 23, 26, 9, 19, 57, 5, 22, 6, 46, 30, 16, 49, 28, 57, 32, 16, 32, 40, 19, 47, 35, 9, 33, 32, 25, 43, 0, 44, 17, 29, 15, 22, 11, 39, 29, 39, 43, 9, 39, 17, 40, 29, 32, 37, 21, 11, 47, 15, 27
            |47, 27, 30, 20, 35, 7, 26, 12, 27, 31, 32, 29, 11, 40, 11, 9, 17, 48, 36, 37, 35, 42, 26, 5, 26, 33, 42, 21, 14, 42, 30, 52, 36, 34, 53, 28, 15, 45, 31, 45, 3, 26, 45, 6, 17, 16, 23, 36, 23, 10, 31, 19, 30, 44, 17, 11, 20, 2, 44, 0, 33, 38, 34, 41, 41, 35, 17, 8, 2, 53, 34, 38, 8, 16, 20, 27, 23, 40, 4, 32, 25
            |22, 32, 28, 33, 17, 33, 30, 30, 37, 27, 30, 5, 27, 17, 35, 37, 16, 24, 15, 24, 5, 13, 14, 35, 12, 2, 19, 26, 19, 18, 19, 22, 7, 32, 25, 5, 43, 22, 27, 22, 34, 13, 12, 38, 16, 43, 15, 3, 32, 33, 23, 30, 17, 24, 29, 23, 13, 33, 17, 33, 0, 13, 2, 10, 24, 22, 24, 31, 33, 25, 22, 27, 27, 21, 29, 38, 12, 23, 35, 19, 27
            |34, 44, 41, 44, 6, 41, 42, 39, 49, 40, 43, 18, 29, 3, 44, 45, 22, 35, 4, 38, 9, 6, 27, 38, 24, 12, 6, 24, 27, 30, 32, 32, 6, 45, 35, 16, 44, 34, 40, 34, 38, 12, 16, 42, 22, 44, 15, 13, 43, 41, 37, 28, 10, 37, 40, 31, 21, 38, 29, 38, 13, 0, 15, 9, 37, 12, 34, 39, 38, 35, 12, 40, 31, 31, 40, 50, 23, 36, 39, 33, 40
            |20, 31, 28, 34, 19, 34, 30, 31, 37, 26, 30, 6, 29, 18, 36, 38, 18, 21, 17, 23, 6, 13, 14, 36, 12, 4, 21, 29, 21, 16, 18, 20, 9, 31, 23, 6, 45, 20, 26, 20, 35, 15, 11, 40, 17, 45, 17, 2, 32, 34, 23, 33, 19, 22, 30, 24, 15, 34, 15, 34, 2, 15, 0, 10, 22, 24, 24, 32, 34, 23, 24, 26, 29, 22, 29, 38, 13, 21, 37, 18, 27
            |26, 41, 38, 43, 15, 42, 40, 40, 47, 36, 40, 15, 34, 11, 45, 46, 24, 27, 13, 32, 6, 4, 24, 42, 21, 9, 13, 30, 28, 23, 28, 23, 5, 41, 27, 15, 49, 27, 36, 27, 42, 17, 8, 46, 24, 49, 20, 8, 42, 42, 33, 35, 18, 30, 39, 32, 22, 41, 22, 41, 10, 9, 10, 0, 30, 20, 34, 40, 41, 26, 21, 35, 35, 31, 39, 48, 22, 30, 43, 28, 37
            |9, 22, 15, 28, 41, 37, 21, 31, 27, 13, 16, 21, 42, 40, 36, 39, 31, 10, 39, 5, 28, 34, 17, 45, 18, 25, 42, 45, 30, 8, 11, 17, 30, 16, 16, 23, 55, 7, 13, 6, 43, 34, 26, 47, 29, 56, 35, 23, 24, 35, 11, 48, 40, 3, 27, 30, 26, 40, 11, 41, 24, 37, 22, 30, 0, 45, 25, 35, 40, 17, 45, 7, 39, 26, 25, 28, 21, 1, 45, 9, 20
            |44, 48, 47, 46, 5, 39, 46, 40, 52, 46, 49, 25, 24, 10, 43, 43, 22, 45, 8, 45, 18, 17, 32, 33, 30, 20, 10, 16, 27, 40, 39, 43, 16, 51, 46, 23, 37, 44, 46, 44, 34, 13, 28, 37, 23, 36, 13, 23, 46, 41, 43, 20, 6, 46, 42, 31, 24, 36, 39, 35, 22, 12, 24, 20, 45, 0, 36, 38, 36, 46, 1, 48, 27, 33, 43, 53, 28, 44, 34, 40, 44
            |31, 12, 14, 10, 34, 12, 11, 7, 16, 15, 16, 18, 21, 37, 12, 15, 14, 33, 33, 21, 28, 36, 11, 21, 13, 24, 39, 28, 10, 27, 14, 37, 30, 18, 38, 19, 31, 30, 15, 29, 19, 24, 35, 22, 13, 33, 23, 26, 10, 11, 14, 29, 30, 28, 6, 7, 13, 15, 29, 17, 24, 34, 24, 34, 25, 36, 0, 10, 15, 38, 36, 21, 17, 4, 6, 16, 11, 23, 21, 16, 9
            |41, 19, 23, 12, 37, 2, 18, 4, 19, 24, 24, 26, 17, 41, 5, 6, 17, 43, 37, 30, 34, 42, 21, 13, 22, 31, 43, 26, 12, 37, 24, 47, 36, 26, 48, 26, 23, 40, 24, 39, 11, 27, 43, 13, 16, 25, 25, 34, 15, 3, 24, 25, 33, 38, 9, 8, 18, 6, 39, 8, 31, 39, 32, 40, 35, 38, 10, 0, 6, 48, 37, 31, 13, 10, 12, 19, 19, 33, 12, 26, 17
            |46, 25, 29, 18, 36, 5, 24, 10, 25, 30, 30, 28, 13, 40, 9, 8, 17, 47, 36, 36, 35, 42, 24, 7, 25, 32, 42, 22, 13, 41, 29, 51, 36, 32, 52, 28, 17, 44, 30, 43, 5, 26, 45, 7, 17, 18, 24, 36, 21, 8, 29, 21, 31, 42, 16, 10, 19, 0, 43, 2, 33, 38, 34, 41, 40, 36, 15, 6, 0, 52, 35, 36, 9, 14, 18, 25, 22, 38, 6, 30, 23
            |8, 38, 32, 44, 40, 51, 37, 46, 44, 30, 33, 26, 51, 37, 51, 54, 39, 7, 38, 22, 28, 30, 28, 56, 27, 27, 39, 51, 40, 12, 25, 3, 29, 33, 1, 28, 66, 10, 30, 11, 55, 38, 19, 59, 37, 66, 40, 23, 41, 49, 27, 55, 42, 14, 42, 42, 35, 52, 9, 53, 25, 35, 23, 26, 17, 46, 38, 48, 52, 0, 46, 24, 50, 38, 41, 45, 31, 18, 56, 24, 36
            |44, 47, 46, 45, 6, 38, 46, 39, 51, 45, 48, 24, 23, 11, 42, 42, 21, 45, 8, 45, 18, 18, 32, 32, 29, 20, 11, 15, 26, 40, 39, 43, 17, 50, 47, 22, 36, 44, 45, 44, 33, 12, 28, 36, 23, 35, 13, 23, 46, 40, 42, 19, 5, 46, 41, 30, 23, 35, 39, 34, 22, 12, 24, 21, 45, 1, 36, 37, 35, 46, 0, 47, 26, 32, 42, 52, 27, 44, 34, 39, 43
            |16, 15, 9, 22, 43, 33, 15, 27, 21, 7, 9, 23, 41, 43, 31, 35, 30, 17, 42, 3, 32, 39, 16, 42, 18, 29, 46, 45, 28, 14, 9, 25, 34, 9, 23, 25, 52, 14, 7, 13, 40, 36, 32, 43, 28, 54, 36, 27, 18, 30, 7, 48, 42, 10, 22, 27, 26, 36, 17, 38, 27, 40, 26, 35, 7, 48, 21, 31, 36, 24, 47, 0, 37, 23, 20, 22, 21, 6, 42, 8, 14
            |44, 29, 31, 24, 28, 13, 28, 16, 31, 32, 33, 24, 4, 32, 17, 16, 11, 45, 28, 36, 29, 35, 23, 7, 23, 27, 35, 13, 10, 39, 29, 48, 29, 35, 50, 23, 16, 43, 32, 42, 7, 19, 40, 11, 12, 17, 16, 30, 26, 15, 31, 13, 23, 42, 20, 10, 15, 9, 40, 8, 27, 31, 29, 35, 39, 27, 17, 13, 9, 50, 26, 37, 0, 15, 22, 31, 19, 38, 8, 30, 26
            |31, 16, 17, 13, 30, 13, 15, 9, 19, 17, 19, 16, 18, 33, 14, 16, 11, 33, 30, 22, 25, 33, 10, 19, 11, 22, 36, 25, 6, 27, 15, 37, 27, 21, 38, 16, 30, 30, 17, 29, 18, 21, 33, 21, 9, 31, 19, 24, 14, 12, 16, 26, 27, 28, 9, 4, 9, 14, 29, 16, 21, 31, 22, 31, 26, 33, 4, 10, 14, 38, 32, 23, 15, 0, 10, 20, 9, 24, 19, 16, 12
            |33, 7, 11, 4, 40, 13, 6, 8, 9, 13, 13, 24, 26, 43, 11, 15, 21, 34, 40, 20, 34, 42, 15, 25, 18, 30, 46, 34, 16, 29, 16, 40, 35, 14, 40, 25, 34, 31, 13, 30, 23, 30, 40, 25, 19, 36, 29, 32, 4, 11, 14, 35, 37, 28, 2, 13, 19, 18, 32, 20, 29, 40, 29, 39, 25, 43, 6, 12, 18, 41, 42, 20, 22, 10, 0, 10, 17, 24, 24, 17, 6
            |37, 7, 13, 7, 50, 20, 8, 15, 1, 15, 12, 33, 35, 52, 16, 19, 31, 38, 50, 23, 43, 51, 24, 32, 26, 39, 55, 43, 26, 34, 21, 45, 45, 13, 44, 34, 41, 35, 15, 34, 30, 40, 48, 31, 29, 43, 39, 40, 6, 17, 18, 44, 47, 31, 11, 22, 29, 25, 37, 27, 38, 50, 38, 48, 28, 53, 16, 19, 25, 45, 52, 22, 31, 20, 10, 0, 26, 27, 31, 22, 11
            |25, 21, 19, 21, 24, 21, 19, 18, 26, 18, 21, 7, 21, 26, 23, 25, 9, 26, 23, 19, 17, 25, 5, 26, 4, 13, 29, 24, 9, 20, 12, 29, 18, 23, 30, 8, 35, 24, 18, 23, 24, 15, 24, 28, 8, 36, 15, 15, 20, 21, 15, 27, 22, 23, 17, 12, 5, 22, 21, 23, 12, 23, 13, 22, 21, 28, 11, 19, 22, 31, 27, 21, 19, 9, 17, 26, 0, 20, 26, 13, 16
            |10, 20, 14, 27, 40, 35, 20, 30, 26, 12, 15, 20, 41, 39, 35, 38, 29, 11, 38, 4, 28, 34, 15, 44, 16, 25, 42, 44, 28, 8, 9, 18, 30, 15, 17, 22, 54, 8, 12, 7, 42, 33, 26, 45, 28, 55, 34, 23, 23, 34, 10, 47, 39, 4, 26, 29, 25, 38, 11, 40, 23, 36, 21, 30, 1, 44, 23, 33, 38, 18, 44, 6, 38, 24, 24, 27, 20, 0, 43, 8, 18
            |50, 31, 35, 24, 35, 11, 30, 16, 31, 35, 36, 31, 10, 40, 15, 13, 19, 52, 36, 41, 37, 43, 29, 1, 29, 34, 42, 19, 17, 45, 34, 55, 37, 38, 56, 30, 11, 49, 35, 48, 1, 27, 47, 3, 20, 12, 24, 38, 27, 14, 35, 17, 30, 48, 22, 15, 22, 6, 47, 4, 35, 39, 37, 43, 45, 34, 21, 12, 6, 56, 34, 42, 8, 19, 24, 31, 26, 43, 0, 36, 29
            |16, 15, 10, 20, 35, 28, 14, 22, 21, 8, 12, 15, 33, 36, 27, 31, 22, 17, 34, 6, 24, 32, 8, 36, 10, 21, 39, 37, 21, 12, 1, 23, 27, 13, 23, 17, 46, 14, 8, 13, 34, 27, 26, 38, 20, 47, 28, 21, 17, 26, 4, 40, 34, 12, 18, 21, 18, 30, 15, 32, 19, 33, 18, 28, 9, 40, 16, 26, 30, 24, 39, 8, 30, 16, 17, 22, 13, 8, 36, 0, 12
            |28, 4, 6, 9, 41, 19, 3, 13, 10, 7, 7, 22, 30, 42, 17, 21, 22, 29, 40, 15, 32, 40, 13, 29, 16, 29, 45, 37, 18, 24, 11, 35, 34, 9, 35, 23, 40, 26, 7, 25, 28, 31, 37, 30, 21, 41, 30, 30, 5, 16, 9, 38, 38, 23, 8, 16, 20, 23, 27, 25, 27, 40, 27, 37, 20, 44, 9, 17, 23, 36, 43, 14, 26, 12, 6, 11, 16, 18, 29, 12, 0|];