% n80w120.004	   19.65 698
n = 81;
duration = [|0, 26, 16, 36, 26, 35, 27, 9, 30, 27, 27, 36, 18, 6, 16, 30, 21, 36, 32, 27, 11, 38, 34, 50, 9, 33, 17, 16, 9, 45, 39, 44, 12, 24, 36, 24, 36, 28, 29, 29, 36, 20, 41, 34, 37, 35, 8, 14, 37, 12, 13, 33, 9, 35, 3, 36, 30, 25, 11, 12, 27, 33, 23, 25, 34, 13, 25, 45, 11, 12, 3, 40, 37, 29, 16, 35, 9, 20, 27, 33, 38
            |26, 0, 20, 10, 7, 40, 3, 21, 29, 41, 30, 29, 29, 31, 23, 5, 22, 12, 12, 8, 27, 13, 34, 36, 33, 30, 12, 11, 27, 35, 14, 31, 23, 21, 20, 9, 10, 11, 9, 39, 11, 9, 29, 12, 11, 12, 20, 37, 12, 15, 18, 19, 31, 41, 25, 15, 18, 4, 37, 37, 1, 7, 32, 36, 20, 22, 1, 29, 16, 14, 29, 25, 40, 19, 32, 27, 21, 6, 33, 10, 44
            |16, 20, 0, 26, 24, 47, 19, 7, 39, 42, 37, 42, 31, 17, 27, 25, 29, 25, 19, 16, 25, 33, 44, 53, 25, 41, 19, 10, 10, 51, 29, 48, 23, 31, 38, 13, 28, 15, 17, 43, 30, 11, 45, 31, 30, 31, 18, 30, 27, 10, 4, 35, 15, 47, 13, 23, 34, 16, 26, 23, 21, 26, 36, 39, 36, 24, 19, 47, 16, 13, 19, 43, 49, 33, 31, 41, 7, 16, 39, 22, 50
            |36, 10, 26, 0, 16, 49, 9, 30, 38, 51, 39, 36, 39, 40, 34, 10, 32, 4, 9, 10, 38, 11, 42, 38, 43, 37, 22, 20, 35, 40, 3, 35, 34, 30, 24, 14, 3, 12, 10, 49, 9, 16, 34, 15, 6, 14, 31, 47, 1, 24, 26, 25, 40, 49, 34, 9, 25, 11, 47, 46, 10, 6, 42, 46, 25, 32, 11, 31, 26, 24, 39, 29, 49, 26, 42, 33, 30, 16, 42, 5, 52
            |26, 7, 24, 16, 0, 33, 10, 23, 22, 36, 23, 22, 24, 31, 19, 6, 16, 18, 19, 15, 24, 12, 27, 29, 31, 22, 9, 14, 29, 28, 19, 24, 20, 14, 14, 15, 14, 18, 16, 33, 11, 15, 22, 8, 14, 9, 18, 34, 17, 16, 21, 12, 32, 34, 25, 22, 11, 11, 36, 38, 7, 10, 26, 31, 13, 18, 7, 22, 15, 14, 28, 19, 34, 12, 28, 19, 23, 8, 26, 17, 37
            |35, 40, 47, 49, 33, 0, 43, 41, 11, 13, 10, 16, 17, 39, 20, 39, 19, 52, 52, 47, 24, 42, 8, 30, 31, 13, 30, 40, 44, 23, 52, 26, 24, 19, 29, 45, 47, 50, 49, 8, 42, 43, 23, 36, 45, 37, 29, 28, 50, 37, 43, 26, 43, 1, 37, 55, 24, 43, 35, 43, 40, 43, 12, 11, 26, 23, 39, 30, 31, 34, 34, 28, 3, 23, 20, 19, 41, 37, 8, 50, 4
            |27, 3, 19, 9, 10, 43, 0, 21, 32, 44, 33, 32, 32, 31, 26, 7, 25, 10, 9, 5, 29, 14, 37, 38, 34, 33, 14, 11, 27, 38, 12, 34, 25, 24, 23, 6, 9, 8, 6, 42, 12, 8, 32, 15, 12, 14, 22, 38, 10, 15, 17, 22, 31, 44, 25, 12, 22, 2, 38, 37, 4, 8, 35, 39, 23, 24, 4, 31, 18, 15, 30, 28, 44, 22, 34, 30, 21, 8, 35, 7, 47
            |9, 21, 7, 30, 23, 41, 21, 0, 34, 35, 32, 39, 25, 11, 21, 26, 24, 29, 24, 20, 18, 34, 39, 51, 18, 37, 16, 10, 6, 48, 32, 45, 17, 27, 36, 16, 30, 20, 21, 36, 32, 13, 42, 31, 32, 31, 12, 23, 30, 7, 4, 33, 10, 41, 6, 28, 31, 19, 20, 17, 22, 28, 30, 33, 34, 18, 20, 45, 11, 9, 12, 40, 43, 30, 24, 37, 0, 16, 33, 26, 45
            |30, 29, 39, 38, 22, 11, 32, 34, 0, 19, 4, 8, 14, 35, 14, 28, 10, 41, 41, 37, 20, 30, 5, 23, 29, 4, 20, 30, 38, 17, 40, 18, 18, 9, 18, 35, 35, 39, 38, 14, 31, 33, 15, 24, 34, 26, 23, 28, 39, 29, 35, 14, 39, 12, 31, 44, 13, 32, 34, 40, 29, 32, 11, 14, 15, 17, 29, 21, 23, 26, 30, 18, 11, 11, 18, 9, 34, 27, 7, 39, 15
            |27, 41, 42, 51, 36, 13, 44, 35, 19, 0, 15, 26, 12, 30, 18, 42, 20, 53, 52, 47, 17, 46, 19, 42, 21, 22, 29, 37, 36, 35, 54, 37, 19, 23, 36, 44, 50, 49, 48, 6, 46, 41, 34, 41, 49, 42, 24, 16, 52, 34, 38, 32, 34, 13, 30, 55, 30, 43, 24, 32, 41, 46, 9, 5, 33, 20, 40, 40, 28, 31, 25, 37, 16, 28, 11, 28, 35, 36, 12, 51, 14
            |27, 30, 37, 39, 23, 10, 33, 32, 4, 15, 0, 12, 10, 32, 11, 29, 9, 42, 42, 37, 17, 33, 8, 28, 25, 8, 20, 29, 35, 22, 42, 22, 15, 9, 21, 35, 37, 39, 38, 10, 33, 33, 19, 27, 36, 28, 20, 23, 40, 27, 33, 17, 35, 11, 28, 45, 16, 32, 30, 36, 30, 33, 7, 10, 18, 14, 29, 25, 21, 25, 27, 22, 11, 14, 14, 13, 32, 26, 3, 40, 14
            |36, 29, 42, 36, 22, 16, 32, 39, 8, 26, 12, 0, 21, 41, 20, 26, 15, 39, 41, 37, 27, 27, 8, 16, 36, 4, 23, 33, 43, 10, 38, 10, 24, 12, 13, 36, 33, 40, 38, 21, 28, 35, 7, 21, 31, 23, 28, 35, 37, 33, 39, 11, 44, 17, 37, 43, 11, 33, 41, 46, 28, 30, 19, 22, 11, 22, 29, 14, 27, 30, 37, 11, 15, 10, 26, 3, 39, 28, 15, 38, 19
            |18, 29, 31, 39, 24, 17, 32, 25, 14, 12, 10, 21, 0, 23, 6, 30, 9, 41, 40, 35, 7, 36, 17, 37, 15, 18, 17, 25, 27, 31, 42, 31, 8, 13, 27, 32, 38, 37, 36, 12, 35, 29, 28, 30, 38, 31, 13, 14, 41, 22, 27, 23, 26, 17, 20, 43, 21, 31, 20, 26, 30, 35, 5, 8, 25, 8, 28, 34, 16, 19, 17, 30, 19, 19, 4, 22, 25, 24, 9, 39, 20
            |6, 31, 17, 40, 31, 39, 31, 11, 35, 30, 32, 41, 23, 0, 21, 35, 26, 40, 35, 31, 16, 43, 40, 55, 9, 38, 22, 20, 8, 51, 43, 50, 17, 30, 42, 27, 41, 31, 32, 33, 41, 24, 46, 39, 42, 40, 14, 15, 41, 16, 15, 38, 4, 39, 6, 39, 36, 29, 9, 6, 32, 38, 27, 29, 40, 19, 30, 50, 17, 17, 5, 46, 42, 35, 20, 41, 11, 25, 32, 37, 42
            |16, 23, 27, 34, 19, 20, 26, 21, 14, 18, 11, 20, 6, 21, 0, 24, 5, 36, 34, 29, 7, 30, 18, 35, 16, 17, 11, 20, 24, 30, 37, 29, 4, 9, 23, 26, 32, 31, 30, 17, 30, 24, 25, 25, 32, 26, 9, 17, 35, 17, 23, 19, 25, 21, 17, 38, 17, 25, 21, 26, 24, 29, 9, 13, 21, 3, 22, 31, 11, 14, 17, 26, 22, 15, 9, 20, 21, 18, 12, 33, 24
            |30, 5, 25, 10, 6, 39, 7, 26, 28, 42, 29, 26, 30, 35, 24, 0, 22, 13, 15, 12, 29, 8, 32, 31, 36, 27, 14, 16, 31, 31, 13, 27, 25, 20, 16, 13, 8, 15, 13, 39, 6, 14, 25, 7, 8, 7, 23, 39, 11, 19, 23, 16, 35, 40, 28, 17, 16, 9, 40, 41, 4, 4, 32, 37, 16, 24, 6, 24, 19, 18, 33, 21, 39, 17, 33, 24, 26, 10, 32, 12, 42
            |21, 22, 29, 32, 16, 19, 25, 24, 10, 20, 9, 15, 9, 26, 5, 22, 0, 34, 33, 29, 12, 27, 15, 30, 21, 13, 11, 21, 28, 25, 35, 24, 9, 4, 19, 26, 30, 31, 30, 17, 27, 24, 21, 21, 30, 23, 13, 22, 33, 19, 25, 15, 29, 19, 22, 37, 12, 24, 26, 31, 22, 26, 10, 15, 16, 7, 21, 26, 13, 16, 21, 21, 20, 10, 13, 15, 24, 18, 11, 32, 22
            |36, 12, 25, 4, 18, 52, 10, 29, 41, 53, 42, 39, 41, 40, 36, 13, 34, 0, 6, 9, 39, 15, 45, 42, 44, 40, 24, 20, 34, 43, 4, 39, 35, 33, 28, 13, 7, 10, 8, 51, 13, 16, 38, 19, 10, 17, 32, 48, 3, 24, 25, 29, 39, 52, 34, 5, 29, 11, 47, 46, 12, 9, 44, 49, 29, 34, 13, 35, 28, 25, 39, 33, 52, 30, 44, 37, 29, 17, 45, 3, 55
            |32, 12, 19, 9, 19, 52, 9, 24, 41, 52, 42, 41, 40, 35, 34, 15, 33, 6, 0, 5, 36, 20, 46, 46, 40, 42, 23, 16, 29, 46, 11, 42, 33, 33, 31, 9, 12, 4, 4, 50, 17, 12, 40, 22, 15, 21, 29, 45, 9, 20, 20, 31, 34, 52, 30, 4, 30, 9, 43, 41, 13, 13, 43, 47, 32, 32, 13, 39, 25, 21, 35, 36, 52, 31, 42, 39, 24, 16, 44, 4, 55
            |27, 8, 16, 10, 15, 47, 5, 20, 37, 47, 37, 37, 35, 31, 29, 12, 29, 9, 5, 0, 31, 18, 42, 43, 35, 37, 18, 11, 25, 43, 13, 39, 28, 28, 28, 4, 12, 3, 1, 45, 16, 7, 37, 19, 15, 19, 24, 40, 11, 16, 16, 27, 30, 48, 25, 9, 26, 4, 39, 37, 9, 12, 38, 42, 28, 27, 8, 36, 20, 17, 31, 33, 48, 27, 37, 35, 20, 11, 39, 6, 51
            |11, 27, 25, 38, 24, 24, 29, 18, 20, 17, 17, 27, 7, 16, 7, 29, 12, 39, 36, 31, 0, 36, 24, 42, 9, 24, 15, 21, 20, 37, 41, 36, 4, 17, 30, 28, 37, 33, 33, 18, 35, 25, 33, 31, 37, 32, 8, 10, 39, 17, 21, 26, 19, 24, 13, 40, 24, 28, 14, 20, 28, 34, 12, 14, 28, 6, 26, 38, 12, 15, 10, 34, 26, 22, 6, 27, 18, 22, 16, 36, 27
            |38, 13, 33, 11, 12, 42, 14, 34, 30, 46, 33, 27, 36, 43, 30, 8, 27, 15, 20, 18, 36, 0, 34, 27, 43, 29, 21, 24, 39, 29, 12, 24, 32, 24, 14, 21, 8, 21, 19, 43, 2, 22, 24, 6, 5, 4, 30, 46, 12, 27, 31, 16, 43, 42, 36, 20, 17, 16, 48, 49, 11, 7, 37, 41, 16, 30, 14, 20, 27, 26, 40, 18, 41, 19, 39, 24, 34, 18, 36, 15, 45
            |34, 34, 44, 42, 27, 8, 37, 39, 5, 19, 8, 8, 17, 40, 18, 32, 15, 45, 46, 42, 24, 34, 0, 23, 33, 5, 25, 36, 43, 16, 45, 18, 23, 14, 21, 40, 40, 44, 43, 14, 35, 38, 15, 28, 38, 30, 27, 30, 43, 34, 40, 18, 43, 9, 36, 49, 17, 37, 37, 44, 34, 36, 13, 15, 18, 21, 34, 22, 28, 31, 35, 20, 7, 16, 21, 11, 39, 32, 8, 44, 11
            |50, 36, 53, 38, 29, 30, 38, 51, 23, 42, 28, 16, 37, 55, 35, 31, 30, 42, 46, 43, 42, 27, 23, 0, 51, 20, 34, 43, 56, 7, 40, 6, 39, 25, 16, 44, 35, 46, 44, 36, 29, 44, 9, 24, 32, 25, 41, 50, 39, 44, 50, 18, 58, 31, 50, 47, 20, 40, 56, 61, 34, 33, 34, 37, 17, 37, 36, 7, 40, 41, 51, 10, 28, 21, 41, 15, 51, 37, 30, 42, 32
            |9, 33, 25, 43, 31, 31, 34, 18, 29, 21, 25, 36, 15, 9, 16, 36, 21, 44, 40, 35, 9, 43, 33, 51, 0, 33, 22, 24, 17, 46, 46, 45, 13, 26, 39, 32, 43, 36, 37, 24, 42, 28, 42, 39, 44, 40, 13, 6, 44, 20, 22, 35, 14, 31, 11, 44, 33, 33, 5, 11, 34, 40, 20, 20, 37, 15, 32, 47, 17, 19, 6, 43, 34, 31, 12, 36, 18, 27, 25, 41, 34
            |33, 30, 41, 37, 22, 13, 33, 37, 4, 22, 8, 4, 18, 38, 17, 27, 13, 40, 42, 37, 24, 29, 5, 20, 33, 0, 22, 32, 41, 14, 40, 15, 21, 10, 16, 36, 35, 40, 39, 17, 30, 35, 11, 23, 33, 25, 25, 31, 39, 31, 37, 13, 42, 14, 34, 44, 12, 33, 38, 43, 29, 31, 15, 18, 13, 20, 29, 18, 25, 28, 34, 15, 12, 11, 22, 6, 37, 28, 10, 39, 16
            |17, 12, 19, 22, 9, 30, 14, 16, 20, 29, 20, 23, 17, 22, 11, 14, 11, 24, 23, 18, 15, 21, 25, 34, 22, 22, 0, 10, 21, 32, 26, 29, 11, 12, 20, 15, 22, 20, 19, 28, 20, 13, 26, 17, 22, 18, 9, 25, 24, 9, 16, 17, 24, 30, 16, 26, 15, 13, 27, 29, 13, 18, 21, 25, 18, 10, 11, 29, 6, 7, 19, 24, 31, 14, 20, 22, 16, 7, 22, 22, 34
            |16, 11, 10, 20, 14, 40, 11, 10, 30, 37, 29, 33, 25, 20, 20, 16, 21, 20, 16, 11, 21, 24, 36, 43, 24, 32, 10, 0, 16, 41, 23, 38, 18, 22, 28, 8, 21, 13, 13, 36, 22, 4, 35, 22, 22, 22, 13, 29, 21, 4, 7, 25, 20, 40, 14, 20, 24, 9, 27, 26, 13, 18, 29, 33, 27, 17, 10, 37, 9, 6, 19, 33, 41, 23, 26, 31, 10, 6, 31, 17, 43
            |9, 27, 10, 35, 29, 44, 27, 6, 38, 36, 35, 43, 27, 8, 24, 31, 28, 34, 29, 25, 20, 39, 43, 56, 17, 41, 21, 16, 0, 52, 38, 50, 20, 31, 41, 21, 36, 25, 26, 38, 38, 19, 47, 37, 38, 37, 16, 22, 36, 13, 9, 38, 5, 44, 7, 33, 36, 24, 17, 12, 28, 34, 32, 34, 39, 21, 26, 50, 16, 15, 11, 46, 46, 35, 25, 42, 6, 22, 36, 31, 47
            |45, 35, 51, 40, 28, 23, 38, 48, 17, 35, 22, 10, 31, 51, 30, 31, 25, 43, 46, 43, 37, 29, 16, 7, 46, 14, 32, 41, 52, 0, 41, 5, 34, 21, 15, 43, 37, 46, 44, 29, 31, 42, 6, 25, 34, 26, 37, 45, 41, 41, 47, 16, 54, 24, 46, 48, 17, 39, 51, 56, 34, 34, 28, 31, 15, 32, 35, 10, 36, 38, 46, 11, 21, 18, 36, 10, 48, 35, 24, 43, 25
            |39, 14, 29, 3, 19, 52, 12, 32, 40, 54, 42, 38, 42, 43, 37, 13, 35, 4, 11, 13, 41, 12, 45, 40, 46, 40, 26, 23, 38, 41, 0, 37, 37, 33, 26, 16, 5, 14, 12, 52, 11, 19, 36, 17, 7, 16, 34, 50, 2, 27, 29, 27, 43, 52, 37, 9, 28, 14, 50, 49, 13, 8, 45, 49, 28, 35, 15, 33, 30, 27, 42, 31, 52, 29, 45, 36, 32, 19, 45, 7, 55
            |44, 31, 48, 35, 24, 26, 34, 45, 18, 37, 22, 10, 31, 50, 29, 27, 24, 39, 42, 39, 36, 24, 18, 6, 45, 15, 29, 38, 50, 5, 37, 0, 33, 20, 11, 39, 32, 42, 40, 31, 26, 39, 4, 20, 29, 21, 36, 45, 36, 38, 44, 13, 52, 27, 44, 44, 14, 35, 50, 55, 30, 29, 29, 32, 11, 31, 31, 5, 34, 36, 45, 6, 24, 15, 36, 9, 45, 32, 25, 38, 28
            |12, 23, 23, 34, 20, 24, 25, 17, 18, 19, 15, 24, 8, 17, 4, 25, 9, 35, 33, 28, 4, 32, 23, 39, 13, 21, 11, 18, 20, 34, 37, 33, 0, 13, 27, 25, 33, 30, 29, 19, 31, 22, 30, 27, 33, 28, 5, 14, 35, 14, 19, 23, 20, 24, 13, 37, 21, 24, 17, 22, 24, 30, 12, 16, 24, 2, 22, 34, 8, 12, 12, 30, 26, 19, 9, 24, 17, 18, 16, 33, 27
            |24, 21, 31, 30, 14, 19, 24, 27, 9, 23, 9, 12, 13, 30, 9, 20, 4, 33, 33, 28, 17, 24, 14, 25, 26, 10, 12, 22, 31, 21, 33, 20, 13, 0, 14, 27, 28, 31, 30, 19, 24, 25, 16, 18, 27, 19, 16, 26, 31, 21, 27, 10, 33, 20, 25, 36, 8, 24, 31, 35, 21, 24, 13, 18, 11, 11, 20, 21, 16, 18, 25, 17, 20, 6, 17, 11, 27, 18, 12, 31, 23
            |36, 20, 38, 24, 14, 29, 23, 36, 18, 36, 21, 13, 27, 42, 23, 16, 19, 28, 31, 28, 30, 14, 21, 16, 39, 16, 20, 28, 41, 15, 26, 11, 27, 14, 0, 28, 22, 31, 29, 32, 16, 28, 9, 9, 19, 11, 28, 40, 26, 29, 34, 4, 44, 30, 36, 33, 6, 24, 44, 48, 19, 19, 27, 31, 3, 25, 20, 9, 25, 26, 38, 5, 28, 8, 32, 10, 36, 22, 24, 27, 32
            |24, 9, 13, 14, 15, 45, 6, 16, 35, 44, 35, 36, 32, 27, 26, 13, 26, 13, 9, 4, 28, 21, 40, 44, 32, 36, 15, 8, 21, 43, 16, 39, 25, 27, 28, 0, 15, 5, 5, 43, 18, 3, 37, 21, 18, 20, 20, 36, 15, 12, 12, 27, 26, 46, 21, 13, 26, 4, 35, 33, 10, 14, 36, 40, 28, 24, 8, 37, 16, 13, 27, 34, 46, 26, 33, 34, 16, 9, 37, 10, 49
            |36, 10, 28, 3, 14, 47, 9, 30, 35, 50, 37, 33, 38, 41, 32, 8, 30, 7, 12, 12, 37, 8, 40, 35, 43, 35, 22, 21, 36, 37, 5, 32, 33, 28, 22, 15, 0, 14, 12, 47, 6, 17, 31, 12, 3, 11, 30, 47, 4, 24, 27, 22, 41, 47, 34, 12, 23, 12, 47, 47, 9, 4, 40, 45, 23, 31, 11, 28, 26, 24, 39, 26, 47, 24, 41, 31, 30, 16, 40, 8, 50
            |28, 11, 15, 12, 18, 50, 8, 20, 39, 49, 39, 40, 37, 31, 31, 15, 31, 10, 4, 3, 33, 21, 44, 46, 36, 40, 20, 13, 25, 46, 14, 42, 30, 31, 31, 5, 14, 0, 2, 48, 19, 8, 40, 22, 17, 22, 25, 41, 12, 17, 16, 30, 30, 50, 26, 8, 29, 7, 39, 37, 12, 14, 40, 45, 31, 29, 11, 39, 21, 18, 31, 36, 51, 30, 38, 38, 20, 13, 42, 7, 53
            |29, 9, 17, 10, 16, 49, 6, 21, 38, 48, 38, 38, 36, 32, 30, 13, 30, 8, 4, 1, 33, 19, 43, 44, 37, 39, 19, 13, 26, 44, 12, 40, 29, 30, 29, 5, 12, 2, 0, 47, 17, 8, 38, 20, 15, 19, 25, 41, 10, 17, 17, 28, 31, 49, 26, 8, 28, 6, 40, 38, 10, 12, 40, 44, 29, 28, 9, 37, 21, 18, 32, 34, 49, 28, 38, 36, 21, 12, 41, 5, 52
            |29, 39, 43, 49, 33, 8, 42, 36, 14, 6, 10, 21, 12, 33, 17, 39, 17, 51, 50, 45, 18, 43, 14, 36, 24, 17, 28, 36, 38, 29, 52, 31, 19, 19, 32, 43, 47, 48, 47, 0, 43, 40, 28, 37, 46, 38, 25, 20, 50, 34, 39, 28, 37, 7, 31, 54, 26, 41, 28, 36, 39, 43, 7, 4, 29, 19, 38, 35, 27, 31, 28, 32, 11, 24, 13, 23, 36, 35, 7, 49, 9
            |36, 11, 30, 9, 11, 42, 12, 32, 31, 46, 33, 28, 35, 41, 30, 6, 27, 13, 17, 16, 35, 2, 35, 29, 42, 30, 20, 22, 38, 31, 11, 26, 31, 24, 16, 18, 6, 19, 17, 43, 0, 20, 25, 6, 4, 5, 29, 45, 10, 25, 29, 17, 42, 43, 35, 18, 18, 14, 47, 47, 9, 4, 37, 41, 17, 29, 12, 22, 25, 24, 39, 20, 42, 19, 39, 25, 32, 16, 36, 13, 45
            |20, 9, 11, 16, 15, 43, 8, 13, 33, 41, 33, 35, 29, 24, 24, 14, 24, 16, 12, 7, 25, 22, 38, 44, 28, 35, 13, 4, 19, 42, 19, 39, 22, 25, 28, 3, 17, 8, 8, 40, 20, 0, 36, 21, 20, 21, 17, 33, 17, 9, 9, 26, 23, 43, 18, 16, 25, 6, 32, 30, 11, 16, 33, 37, 27, 21, 9, 37, 13, 10, 24, 33, 44, 25, 30, 33, 13, 7, 35, 13, 47
            |41, 29, 45, 34, 22, 23, 32, 42, 15, 34, 19, 7, 28, 46, 25, 25, 21, 38, 40, 37, 33, 24, 15, 9, 42, 11, 26, 35, 47, 6, 36, 4, 30, 16, 9, 37, 31, 40, 38, 28, 25, 36, 0, 19, 29, 20, 32, 41, 35, 35, 41, 10, 49, 24, 41, 42, 11, 33, 47, 52, 28, 28, 26, 29, 9, 28, 29, 7, 31, 33, 42, 6, 22, 12, 32, 6, 42, 29, 22, 37, 26
            |34, 12, 31, 15, 8, 36, 15, 31, 24, 41, 27, 21, 30, 39, 25, 7, 21, 19, 22, 19, 31, 6, 28, 24, 39, 23, 17, 22, 37, 25, 17, 20, 27, 18, 9, 21, 12, 22, 20, 37, 6, 21, 19, 0, 10, 1, 26, 41, 16, 24, 29, 11, 40, 37, 33, 23, 11, 16, 44, 46, 11, 9, 31, 36, 11, 25, 13, 17, 23, 22, 36, 14, 35, 13, 34, 19, 31, 16, 30, 18, 39
            |37, 11, 30, 6, 14, 45, 12, 32, 34, 49, 36, 31, 38, 42, 32, 8, 30, 10, 15, 15, 37, 5, 38, 32, 44, 33, 22, 22, 38, 34, 7, 29, 33, 27, 19, 18, 3, 17, 15, 46, 4, 20, 29, 10, 0, 9, 31, 47, 7, 26, 29, 21, 42, 46, 36, 15, 21, 14, 48, 49, 10, 4, 40, 44, 21, 32, 12, 25, 27, 25, 40, 23, 45, 23, 41, 29, 32, 17, 39, 11, 49
            |35, 12, 31, 14, 9, 37, 14, 31, 26, 42, 28, 23, 31, 40, 26, 7, 23, 17, 21, 19, 32, 4, 30, 25, 40, 25, 18, 22, 37, 26, 16, 21, 28, 19, 11, 20, 11, 22, 19, 38, 5, 21, 20, 1, 9, 0, 27, 42, 15, 24, 29, 12, 41, 38, 34, 22, 13, 16, 44, 46, 10, 8, 33, 37, 12, 26, 12, 18, 23, 23, 37, 15, 37, 14, 35, 20, 31, 16, 31, 17, 41
            |8, 20, 18, 31, 18, 29, 22, 12, 23, 24, 20, 28, 13, 14, 9, 23, 13, 32, 29, 24, 8, 30, 27, 41, 13, 25, 9, 13, 16, 37, 34, 36, 5, 16, 28, 20, 30, 25, 25, 25, 29, 17, 32, 26, 31, 27, 0, 16, 32, 9, 14, 24, 17, 29, 9, 33, 22, 20, 17, 20, 21, 27, 18, 21, 25, 6, 19, 36, 4, 7, 10, 32, 31, 21, 13, 27, 12, 14, 21, 29, 33
            |14, 37, 30, 47, 34, 28, 38, 23, 28, 16, 23, 35, 14, 15, 17, 39, 22, 48, 45, 40, 10, 46, 30, 50, 6, 31, 25, 29, 22, 45, 50, 45, 14, 26, 40, 36, 47, 41, 41, 20, 45, 33, 41, 41, 47, 42, 16, 0, 48, 25, 27, 36, 19, 27, 17, 49, 34, 37, 8, 16, 37, 43, 17, 17, 37, 16, 36, 47, 21, 23, 11, 43, 30, 32, 9, 36, 23, 31, 22, 45, 30
            |37, 12, 27, 1, 17, 50, 10, 30, 39, 52, 40, 37, 41, 41, 35, 11, 33, 3, 9, 11, 39, 12, 43, 39, 44, 39, 24, 21, 36, 41, 2, 36, 35, 31, 26, 15, 4, 12, 10, 50, 10, 17, 35, 16, 7, 15, 32, 48, 0, 25, 27, 26, 41, 51, 35, 8, 27, 12, 48, 47, 11, 7, 43, 48, 27, 34, 13, 32, 28, 25, 40, 30, 50, 28, 43, 34, 30, 17, 43, 5, 54
            |12, 15, 10, 24, 16, 37, 15, 7, 29, 34, 27, 33, 22, 16, 17, 19, 19, 24, 20, 16, 17, 27, 34, 44, 20, 31, 9, 4, 13, 41, 27, 38, 14, 21, 29, 12, 24, 17, 17, 34, 25, 9, 35, 24, 26, 24, 9, 25, 25, 0, 6, 26, 17, 38, 10, 24, 24, 13, 23, 23, 16, 22, 26, 30, 27, 14, 14, 38, 6, 3, 15, 34, 39, 23, 23, 31, 7, 9, 29, 21, 41
            |13, 18, 4, 26, 21, 43, 17, 4, 35, 38, 33, 39, 27, 15, 23, 23, 25, 25, 20, 16, 21, 31, 40, 50, 22, 37, 16, 7, 9, 47, 29, 44, 19, 27, 34, 12, 27, 16, 17, 39, 29, 9, 41, 29, 29, 29, 14, 27, 27, 6, 0, 32, 14, 43, 10, 24, 30, 15, 24, 21, 19, 25, 32, 35, 33, 20, 17, 43, 12, 9, 16, 39, 45, 29, 27, 37, 4, 13, 35, 22, 46
            |33, 19, 35, 25, 12, 26, 22, 33, 14, 32, 17, 11, 23, 38, 19, 16, 15, 29, 31, 27, 26, 16, 18, 18, 35, 13, 17, 25, 38, 16, 27, 13, 23, 10, 4, 27, 22, 30, 28, 28, 17, 26, 10, 11, 21, 12, 24, 36, 26, 26, 32, 0, 40, 26, 33, 33, 2, 23, 40, 44, 18, 19, 23, 27, 1, 21, 19, 12, 22, 23, 34, 8, 25, 4, 28, 8, 33, 19, 21, 28, 29
            |9, 31, 15, 40, 32, 43, 31, 10, 39, 34, 35, 44, 26, 4, 25, 35, 29, 39, 34, 30, 19, 43, 43, 58, 14, 42, 24, 20, 5, 54, 43, 52, 20, 33, 44, 26, 41, 30, 31, 37, 42, 23, 49, 40, 42, 41, 17, 19, 41, 17, 14, 40, 0, 43, 8, 38, 38, 29, 13, 7, 32, 38, 31, 33, 42, 22, 30, 52, 18, 18, 9, 48, 46, 37, 24, 44, 10, 25, 36, 36, 46
            |35, 41, 47, 49, 34, 1, 44, 41, 12, 13, 11, 17, 17, 39, 21, 40, 19, 52, 52, 48, 24, 42, 9, 31, 31, 14, 30, 40, 44, 24, 52, 27, 24, 20, 30, 46, 47, 50, 49, 7, 43, 43, 24, 37, 46, 38, 29, 27, 51, 38, 43, 26, 43, 0, 37, 56, 25, 43, 35, 42, 40, 44, 12, 11, 27, 24, 40, 31, 31, 35, 34, 29, 4, 24, 19, 20, 41, 37, 9, 50, 3
            |3, 25, 13, 34, 25, 37, 25, 6, 31, 30, 28, 37, 20, 6, 17, 28, 22, 34, 30, 25, 13, 36, 36, 50, 11, 34, 16, 14, 7, 46, 37, 44, 13, 25, 36, 21, 34, 26, 26, 31, 35, 18, 41, 33, 36, 34, 9, 17, 35, 10, 10, 33, 8, 37, 0, 34, 30, 23, 14, 13, 26, 32, 25, 27, 34, 15, 24, 45, 11, 11, 6, 40, 39, 29, 19, 36, 6, 19, 29, 31, 40
            |36, 15, 23, 9, 22, 55, 12, 28, 44, 55, 45, 43, 43, 39, 38, 17, 37, 5, 4, 9, 40, 20, 49, 47, 44, 44, 26, 20, 33, 48, 9, 44, 37, 36, 33, 13, 12, 8, 8, 54, 18, 16, 42, 23, 15, 22, 33, 49, 8, 24, 24, 33, 38, 56, 34, 0, 33, 13, 47, 45, 15, 14, 47, 51, 34, 36, 16, 40, 29, 25, 39, 37, 55, 34, 45, 41, 28, 19, 48, 5, 59
            |30, 18, 34, 25, 11, 24, 22, 31, 13, 30, 16, 11, 21, 36, 17, 16, 12, 29, 30, 26, 24, 17, 17, 20, 33, 12, 15, 24, 36, 17, 28, 14, 21, 8, 6, 26, 23, 29, 28, 26, 18, 25, 11, 11, 21, 13, 22, 34, 27, 24, 30, 2, 38, 25, 30, 33, 0, 22, 38, 42, 18, 19, 21, 25, 4, 18, 18, 14, 20, 21, 32, 10, 24, 2, 25, 8, 31, 18, 19, 27, 28
            |25, 4, 16, 11, 11, 43, 2, 19, 32, 43, 32, 33, 31, 29, 25, 9, 24, 11, 9, 4, 28, 16, 37, 40, 33, 33, 13, 9, 24, 39, 14, 35, 24, 24, 24, 4, 12, 7, 6, 41, 14, 6, 33, 16, 14, 16, 20, 37, 12, 13, 15, 23, 29, 43, 23, 13, 22, 0, 36, 35, 5, 10, 34, 38, 24, 23, 4, 33, 16, 13, 28, 29, 43, 23, 33, 30, 19, 6, 35, 9, 46
            |11, 37, 26, 47, 36, 35, 38, 20, 34, 24, 30, 41, 20, 9, 21, 40, 26, 47, 43, 39, 14, 48, 37, 56, 5, 38, 27, 27, 17, 51, 50, 50, 17, 31, 44, 35, 47, 39, 40, 28, 47, 32, 47, 44, 48, 44, 17, 8, 48, 23, 24, 40, 13, 35, 14, 47, 38, 36, 0, 8, 38, 44, 24, 24, 42, 20, 36, 52, 21, 23, 8, 48, 38, 36, 16, 41, 20, 31, 29, 44, 38
            |12, 37, 23, 46, 38, 43, 37, 17, 40, 32, 36, 46, 26, 6, 26, 41, 31, 46, 41, 37, 20, 49, 44, 61, 11, 43, 29, 26, 12, 56, 49, 55, 22, 35, 48, 33, 47, 37, 38, 36, 47, 30, 52, 46, 49, 46, 20, 16, 47, 23, 21, 44, 7, 42, 13, 45, 42, 35, 8, 0, 38, 44, 31, 32, 45, 24, 36, 56, 23, 23, 10, 52, 45, 40, 23, 46, 17, 31, 36, 43, 45
            |27, 1, 21, 10, 7, 40, 4, 22, 29, 41, 30, 28, 30, 32, 24, 4, 22, 12, 13, 9, 28, 11, 34, 34, 34, 29, 13, 13, 28, 34, 13, 30, 24, 21, 19, 10, 9, 12, 10, 39, 9, 11, 28, 11, 10, 10, 21, 37, 11, 16, 19, 18, 32, 40, 26, 15, 18, 5, 38, 38, 0, 6, 32, 37, 19, 22, 2, 27, 17, 15, 30, 24, 40, 18, 32, 26, 22, 7, 33, 10, 43
            |33, 7, 26, 6, 10, 43, 8, 28, 32, 46, 33, 30, 35, 38, 29, 4, 26, 9, 13, 12, 34, 7, 36, 33, 40, 31, 18, 18, 34, 34, 8, 29, 30, 24, 19, 14, 4, 14, 12, 43, 4, 16, 28, 9, 4, 8, 27, 43, 7, 22, 25, 19, 38, 44, 32, 14, 19, 10, 44, 44, 6, 0, 37, 41, 20, 28, 8, 26, 23, 21, 36, 23, 43, 21, 38, 27, 28, 13, 36, 9, 47
            |23, 32, 36, 42, 26, 12, 35, 30, 11, 9, 7, 19, 5, 27, 9, 32, 10, 44, 43, 38, 12, 37, 13, 34, 20, 15, 21, 29, 32, 28, 45, 29, 12, 13, 27, 36, 40, 40, 40, 7, 37, 33, 26, 31, 40, 33, 18, 17, 43, 26, 32, 23, 31, 12, 25, 47, 21, 34, 24, 31, 32, 37, 0, 4, 24, 12, 31, 32, 20, 24, 22, 28, 14, 19, 8, 20, 30, 28, 5, 42, 15
            |25, 36, 39, 46, 31, 11, 39, 33, 14, 5, 10, 22, 8, 29, 13, 37, 15, 49, 47, 42, 14, 41, 15, 37, 20, 18, 25, 33, 34, 31, 49, 32, 16, 18, 31, 40, 45, 45, 44, 4, 41, 37, 29, 36, 44, 37, 21, 17, 48, 30, 35, 27, 33, 11, 27, 51, 25, 38, 24, 32, 37, 41, 4, 0, 28, 16, 36, 36, 24, 27, 24, 32, 14, 23, 9, 23, 33, 32, 7, 46, 13
            |34, 20, 36, 25, 13, 26, 23, 34, 15, 33, 18, 11, 25, 40, 21, 16, 16, 29, 32, 28, 28, 16, 18, 17, 37, 13, 18, 27, 39, 15, 28, 11, 24, 11, 3, 28, 23, 31, 29, 29, 17, 27, 9, 11, 21, 12, 25, 37, 27, 27, 33, 1, 42, 27, 34, 34, 4, 24, 42, 45, 19, 20, 24, 28, 0, 22, 20, 11, 23, 25, 36, 6, 25, 5, 29, 8, 34, 21, 21, 28, 29
            |13, 22, 24, 32, 18, 23, 24, 18, 17, 20, 14, 22, 8, 19, 3, 24, 7, 34, 32, 27, 6, 30, 21, 37, 15, 20, 10, 17, 21, 32, 35, 31, 2, 11, 25, 24, 31, 29, 28, 19, 29, 21, 28, 25, 32, 26, 6, 16, 34, 14, 20, 21, 22, 24, 15, 36, 18, 23, 20, 24, 22, 28, 12, 16, 22, 0, 21, 32, 8, 12, 14, 28, 25, 17, 10, 22, 18, 17, 15, 31, 27
            |25, 1, 19, 11, 7, 39, 4, 20, 29, 40, 29, 29, 28, 30, 22, 6, 21, 13, 13, 8, 26, 14, 34, 36, 32, 29, 11, 10, 26, 35, 15, 31, 22, 20, 20, 8, 11, 11, 9, 38, 12, 9, 29, 13, 12, 12, 19, 36, 13, 14, 17, 19, 30, 40, 24, 16, 18, 4, 36, 36, 2, 8, 31, 36, 20, 21, 0, 29, 15, 13, 28, 25, 40, 19, 31, 26, 20, 5, 32, 11, 43
            |45, 29, 47, 31, 22, 30, 31, 45, 21, 40, 25, 14, 34, 50, 31, 24, 26, 35, 39, 36, 38, 20, 22, 7, 47, 18, 29, 37, 50, 10, 33, 5, 34, 21, 9, 37, 28, 39, 37, 35, 22, 37, 7, 17, 25, 18, 36, 47, 32, 38, 43, 12, 52, 31, 45, 40, 14, 33, 52, 56, 27, 26, 32, 36, 11, 32, 29, 0, 34, 35, 46, 4, 29, 16, 38, 12, 45, 30, 28, 35, 33
            |11, 16, 16, 26, 15, 31, 18, 11, 23, 28, 21, 27, 16, 17, 11, 19, 13, 28, 25, 20, 12, 27, 28, 40, 17, 25, 6, 9, 16, 36, 30, 34, 8, 16, 25, 16, 26, 21, 21, 27, 25, 13, 31, 23, 27, 23, 4, 21, 28, 6, 12, 22, 18, 31, 11, 29, 20, 16, 21, 23, 17, 23, 20, 24, 23, 8, 15, 34, 0, 4, 14, 30, 33, 19, 17, 26, 11, 10, 23, 25, 34
            |12, 14, 13, 24, 14, 34, 15, 9, 26, 31, 25, 30, 19, 17, 14, 18, 16, 25, 21, 17, 15, 26, 31, 41, 19, 28, 7, 6, 15, 38, 27, 36, 12, 18, 26, 13, 24, 18, 18, 31, 24, 10, 33, 22, 25, 23, 7, 23, 25, 3, 9, 23, 18, 35, 11, 25, 21, 13, 23, 23, 15, 21, 24, 27, 25, 12, 13, 35, 4, 0, 15, 31, 36, 21, 21, 28, 9, 8, 26, 22, 38
            |3, 29, 19, 39, 28, 34, 30, 12, 30, 25, 27, 37, 17, 5, 17, 33, 21, 39, 35, 31, 10, 40, 35, 51, 6, 34, 19, 19, 11, 46, 42, 45, 12, 25, 38, 27, 39, 31, 32, 28, 39, 24, 42, 36, 40, 37, 10, 11, 40, 15, 16, 34, 9, 34, 6, 39, 32, 28, 8, 10, 30, 36, 22, 24, 36, 14, 28, 46, 14, 15, 0, 42, 37, 30, 15, 36, 12, 23, 27, 36, 37
            |40, 25, 43, 29, 19, 28, 28, 40, 18, 37, 22, 11, 30, 46, 26, 21, 21, 33, 36, 33, 34, 18, 20, 10, 43, 15, 24, 33, 46, 11, 31, 6, 30, 17, 5, 34, 26, 36, 34, 32, 20, 33, 6, 14, 23, 15, 32, 43, 30, 34, 39, 8, 48, 29, 40, 37, 10, 29, 48, 52, 24, 23, 28, 32, 6, 28, 25, 4, 30, 31, 42, 0, 27, 11, 34, 9, 40, 27, 25, 32, 31
            |37, 40, 49, 49, 34, 3, 44, 43, 11, 16, 11, 15, 19, 42, 22, 39, 20, 52, 52, 48, 26, 41, 7, 28, 34, 12, 31, 41, 46, 21, 52, 24, 26, 20, 28, 46, 47, 51, 49, 11, 42, 44, 22, 35, 45, 37, 31, 30, 50, 39, 45, 25, 46, 4, 39, 55, 24, 43, 38, 45, 40, 43, 14, 14, 25, 25, 40, 29, 33, 36, 37, 27, 0, 23, 22, 18, 43, 38, 10, 50, 4
            |29, 19, 33, 26, 12, 23, 22, 30, 11, 28, 14, 10, 19, 35, 15, 17, 10, 30, 31, 27, 22, 19, 16, 21, 31, 11, 14, 23, 35, 18, 29, 15, 19, 6, 8, 26, 24, 30, 28, 24, 19, 25, 12, 13, 23, 14, 21, 32, 28, 23, 29, 4, 37, 24, 29, 34, 2, 23, 36, 40, 18, 21, 19, 23, 5, 17, 19, 16, 19, 21, 30, 11, 23, 0, 24, 8, 30, 18, 17, 28, 26
            |16, 32, 31, 42, 28, 20, 34, 24, 18, 11, 14, 26, 4, 20, 9, 33, 13, 44, 42, 37, 6, 39, 21, 41, 12, 22, 20, 26, 25, 36, 45, 36, 9, 17, 32, 33, 41, 38, 38, 13, 39, 30, 32, 34, 41, 35, 13, 9, 43, 23, 27, 28, 24, 19, 19, 45, 25, 33, 16, 23, 32, 38, 8, 9, 29, 10, 31, 38, 17, 21, 15, 34, 22, 24, 0, 26, 24, 26, 13, 41, 22
            |35, 27, 41, 33, 19, 19, 30, 37, 9, 28, 13, 3, 22, 41, 20, 24, 15, 37, 39, 35, 27, 24, 11, 15, 36, 6, 22, 31, 42, 10, 36, 9, 24, 11, 10, 34, 31, 38, 36, 23, 25, 33, 6, 19, 29, 20, 27, 36, 34, 31, 37, 8, 44, 20, 36, 41, 8, 30, 41, 46, 26, 27, 20, 23, 8, 22, 26, 12, 26, 28, 36, 9, 18, 8, 26, 0, 37, 26, 16, 35, 22
            |9, 21, 7, 30, 23, 41, 21, 0, 34, 35, 32, 39, 25, 11, 21, 26, 24, 29, 24, 20, 18, 34, 39, 51, 18, 37, 16, 10, 6, 48, 32, 45, 17, 27, 36, 16, 30, 20, 21, 36, 32, 13, 42, 31, 32, 31, 12, 23, 30, 7, 4, 33, 10, 41, 6, 28, 31, 19, 20, 17, 22, 28, 30, 33, 34, 18, 20, 45, 11, 9, 12, 40, 43, 30, 24, 37, 0, 16, 33, 26, 45
            |20, 6, 16, 16, 8, 37, 8, 16, 27, 36, 26, 28, 24, 25, 18, 10, 18, 17, 16, 11, 22, 18, 32, 37, 27, 28, 7, 6, 22, 35, 19, 32, 18, 18, 22, 9, 16, 13, 12, 35, 16, 7, 29, 16, 17, 16, 14, 31, 17, 9, 13, 19, 25, 37, 19, 19, 18, 6, 31, 31, 7, 13, 28, 32, 21, 17, 5, 30, 10, 8, 23, 27, 38, 18, 26, 26, 16, 0, 29, 15, 40
            |27, 33, 39, 42, 26, 8, 35, 33, 7, 12, 3, 15, 9, 32, 12, 32, 11, 45, 44, 39, 16, 36, 8, 30, 25, 10, 22, 31, 36, 24, 45, 25, 16, 12, 24, 37, 40, 42, 41, 7, 36, 35, 22, 30, 39, 31, 21, 22, 43, 29, 35, 21, 36, 9, 29, 48, 19, 35, 29, 36, 33, 36, 5, 7, 21, 15, 32, 28, 23, 26, 27, 25, 10, 17, 13, 16, 33, 29, 0, 42, 12
            |33, 10, 22, 5, 17, 50, 7, 26, 39, 51, 40, 38, 39, 37, 33, 12, 32, 3, 4, 6, 36, 15, 44, 42, 41, 39, 22, 17, 31, 43, 7, 38, 33, 31, 27, 10, 8, 7, 5, 49, 13, 13, 37, 18, 11, 17, 29, 45, 5, 21, 22, 28, 36, 50, 31, 5, 27, 9, 44, 43, 10, 9, 42, 46, 28, 31, 11, 35, 25, 22, 36, 32, 50, 28, 41, 35, 26, 15, 42, 0, 53
            |38, 44, 50, 52, 37, 4, 47, 45, 15, 14, 14, 19, 20, 42, 24, 42, 22, 55, 55, 51, 27, 45, 11, 32, 34, 16, 34, 43, 47, 25, 55, 28, 27, 23, 32, 49, 50, 53, 52, 9, 45, 47, 26, 39, 49, 41, 33, 30, 54, 41, 46, 29, 46, 3, 40, 59, 28, 46, 38, 45, 43, 47, 15, 13, 29, 27, 43, 33, 34, 38, 37, 31, 4, 26, 22, 22, 45, 40, 12, 53, 0|];