% n80w180.001	   74.17 765
n = 81;
duration = [|0, 46, 20, 35, 35, 41, 18, 20, 9, 37, 39, 12, 31, 28, 53, 13, 66, 41, 11, 34, 31, 8, 26, 22, 47, 62, 40, 28, 35, 35, 60, 16, 15, 14, 38, 32, 36, 45, 36, 43, 33, 32, 27, 34, 37, 34, 39, 18, 28, 2, 51, 46, 13, 43, 52, 39, 32, 37, 30, 38, 38, 14, 28, 62, 28, 28, 10, 57, 48, 54, 56, 50, 12, 29, 46, 30, 36, 8, 52, 38, 62
            |46, 0, 44, 35, 38, 5, 34, 26, 39, 20, 41, 43, 19, 40, 20, 35, 32, 5, 39, 13, 18, 38, 20, 24, 5, 31, 17, 39, 16, 44, 22, 44, 43, 34, 9, 44, 25, 27, 9, 44, 14, 16, 41, 41, 15, 39, 7, 28, 21, 44, 6, 25, 33, 17, 11, 21, 26, 16, 38, 30, 33, 33, 40, 30, 43, 19, 35, 27, 42, 12, 16, 17, 41, 29, 9, 16, 10, 44, 22, 23, 25
            |20, 44, 0, 18, 17, 41, 11, 22, 14, 28, 20, 8, 25, 10, 43, 26, 55, 39, 11, 36, 26, 20, 31, 23, 43, 49, 46, 10, 29, 16, 51, 4, 5, 26, 40, 12, 25, 32, 36, 24, 35, 28, 8, 15, 42, 16, 37, 20, 35, 19, 48, 33, 23, 49, 46, 28, 21, 42, 12, 23, 23, 17, 10, 50, 9, 25, 20, 45, 30, 48, 49, 41, 9, 17, 48, 29, 34, 12, 41, 27, 52
            |35, 35, 18, 0, 3, 34, 17, 26, 27, 16, 6, 24, 18, 9, 27, 35, 37, 31, 24, 33, 20, 31, 31, 24, 32, 31, 44, 8, 20, 9, 35, 21, 22, 34, 35, 10, 11, 15, 30, 10, 33, 22, 11, 6, 40, 4, 31, 24, 36, 34, 37, 16, 31, 46, 33, 15, 10, 41, 6, 6, 4, 25, 9, 33, 11, 22, 30, 28, 13, 34, 34, 26, 23, 9, 42, 25, 28, 28, 24, 13, 36
            |35, 38, 17, 3, 0, 37, 18, 28, 27, 19, 4, 24, 21, 7, 30, 36, 40, 34, 25, 35, 23, 32, 34, 26, 35, 34, 47, 8, 23, 6, 38, 21, 21, 35, 38, 7, 14, 17, 33, 8, 35, 25, 9, 3, 43, 1, 34, 26, 38, 34, 40, 19, 32, 49, 36, 18, 13, 43, 5, 9, 7, 26, 7, 35, 9, 24, 31, 30, 13, 37, 37, 29, 23, 11, 45, 28, 31, 28, 27, 16, 39
            |41, 5, 41, 34, 37, 0, 30, 22, 35, 18, 40, 39, 16, 37, 23, 30, 36, 3, 35, 8, 15, 33, 15, 19, 9, 34, 14, 36, 14, 42, 26, 40, 39, 29, 4, 42, 23, 27, 5, 42, 9, 13, 39, 39, 11, 37, 3, 23, 16, 39, 11, 25, 28, 15, 15, 21, 24, 12, 36, 29, 32, 28, 37, 33, 40, 15, 31, 30, 42, 17, 20, 19, 37, 27, 8, 12, 6, 39, 24, 22, 29
            |18, 34, 11, 17, 18, 30, 0, 12, 10, 20, 22, 10, 15, 13, 36, 18, 49, 29, 8, 25, 16, 14, 20, 13, 33, 44, 35, 11, 20, 20, 44, 10, 9, 18, 29, 17, 18, 27, 25, 26, 25, 18, 13, 17, 31, 17, 27, 10, 24, 17, 38, 28, 15, 38, 37, 21, 14, 32, 13, 19, 20, 8, 13, 45, 14, 15, 13, 40, 30, 39, 40, 33, 8, 11, 37, 18, 24, 12, 34, 20, 45
            |20, 26, 22, 26, 28, 22, 12, 0, 13, 20, 32, 18, 13, 24, 35, 11, 49, 22, 14, 15, 12, 12, 9, 3, 27, 45, 24, 22, 16, 31, 42, 21, 19, 10, 19, 29, 21, 30, 17, 35, 14, 13, 24, 28, 20, 27, 19, 2, 12, 17, 32, 30, 8, 27, 32, 22, 18, 20, 24, 25, 27, 7, 24, 45, 26, 9, 9, 40, 38, 34, 37, 31, 16, 17, 27, 10, 17, 18, 34, 22, 44
            |9, 39, 14, 27, 27, 35, 10, 13, 0, 28, 31, 7, 22, 21, 45, 12, 58, 34, 3, 28, 23, 6, 21, 15, 40, 53, 36, 20, 27, 28, 52, 11, 9, 12, 32, 25, 28, 37, 30, 35, 27, 24, 20, 26, 32, 26, 32, 11, 24, 7, 44, 37, 9, 39, 44, 30, 24, 33, 22, 29, 30, 6, 21, 54, 21, 21, 6, 49, 40, 46, 48, 41, 6, 21, 40, 23, 29, 5, 43, 29, 54
            |37, 20, 28, 16, 19, 18, 20, 20, 28, 0, 22, 30, 7, 21, 16, 31, 30, 16, 27, 19, 8, 30, 21, 17, 17, 25, 30, 20, 5, 25, 24, 29, 28, 30, 20, 25, 5, 11, 15, 24, 20, 9, 23, 21, 26, 19, 16, 20, 25, 35, 22, 10, 27, 32, 18, 3, 7, 27, 19, 11, 13, 23, 21, 26, 24, 11, 28, 21, 24, 20, 21, 13, 28, 11, 27, 13, 13, 32, 15, 4, 26
            |39, 41, 20, 6, 4, 40, 22, 32, 31, 22, 0, 27, 25, 10, 31, 40, 39, 37, 28, 39, 26, 36, 38, 30, 38, 33, 50, 11, 26, 6, 39, 24, 24, 39, 41, 8, 17, 18, 36, 4, 39, 28, 12, 5, 46, 5, 37, 30, 42, 37, 43, 20, 36, 52, 38, 20, 16, 47, 9, 11, 9, 30, 10, 35, 12, 28, 35, 30, 9, 39, 38, 31, 27, 15, 48, 31, 34, 31, 28, 18, 39
            |12, 43, 8, 24, 24, 39, 10, 18, 7, 30, 27, 0, 25, 17, 46, 19, 58, 38, 4, 33, 26, 13, 27, 20, 43, 53, 42, 16, 29, 23, 54, 4, 3, 19, 37, 20, 28, 36, 34, 31, 32, 27, 15, 22, 38, 22, 36, 16, 30, 11, 48, 37, 16, 45, 46, 31, 24, 39, 18, 28, 28, 12, 17, 54, 16, 24, 13, 49, 36, 49, 50, 43, 2, 20, 45, 27, 33, 4, 44, 29, 55
            |31, 19, 25, 18, 21, 16, 15, 13, 22, 7, 25, 25, 0, 21, 23, 24, 36, 14, 22, 14, 1, 23, 14, 10, 18, 32, 26, 20, 4, 26, 30, 25, 24, 22, 16, 26, 10, 18, 12, 28, 14, 4, 22, 23, 21, 21, 13, 13, 18, 28, 23, 17, 20, 28, 22, 10, 9, 22, 20, 15, 18, 17, 21, 32, 24, 4, 21, 28, 29, 24, 26, 19, 23, 11, 24, 7, 10, 26, 22, 10, 32
            |28, 40, 10, 9, 7, 37, 13, 24, 21, 21, 10, 17, 21, 0, 35, 31, 46, 35, 18, 34, 22, 26, 31, 23, 38, 40, 45, 1, 24, 7, 43, 13, 14, 30, 37, 5, 17, 23, 33, 14, 34, 25, 2, 5, 41, 6, 34, 22, 35, 27, 43, 24, 27, 48, 39, 21, 14, 42, 2, 14, 13, 21, 0, 41, 3, 23, 25, 36, 20, 41, 41, 33, 16, 10, 45, 27, 31, 21, 32, 19, 44
            |53, 20, 43, 27, 30, 23, 36, 35, 45, 16, 31, 46, 23, 35, 0, 46, 14, 20, 44, 29, 23, 46, 34, 32, 15, 11, 37, 34, 19, 36, 8, 45, 44, 45, 27, 37, 18, 13, 24, 32, 30, 22, 37, 33, 34, 31, 22, 35, 37, 51, 17, 11, 43, 37, 10, 15, 22, 35, 33, 21, 23, 40, 35, 10, 38, 26, 44, 7, 28, 11, 8, 4, 44, 26, 30, 26, 22, 48, 3, 17, 9
            |13, 35, 26, 35, 36, 30, 18, 11, 12, 31, 40, 19, 24, 31, 46, 0, 60, 31, 15, 22, 23, 6, 15, 14, 37, 56, 27, 30, 27, 38, 52, 23, 21, 1, 26, 36, 32, 41, 26, 44, 21, 24, 31, 36, 24, 35, 28, 11, 15, 11, 41, 41, 4, 30, 42, 34, 29, 24, 32, 35, 37, 10, 31, 56, 32, 20, 6, 51, 48, 45, 47, 42, 18, 27, 33, 21, 26, 16, 45, 33, 55
            |66, 32, 55, 37, 40, 36, 49, 49, 58, 30, 39, 58, 36, 46, 14, 60, 0, 33, 57, 42, 37, 60, 47, 46, 27, 6, 49, 45, 32, 45, 10, 57, 57, 59, 40, 47, 31, 23, 37, 38, 43, 36, 48, 43, 47, 41, 35, 49, 50, 64, 27, 22, 57, 49, 21, 28, 35, 48, 43, 32, 33, 53, 46, 4, 48, 40, 58, 9, 33, 20, 16, 18, 57, 39, 41, 40, 35, 61, 15, 29, 7
            |41, 5, 39, 31, 34, 3, 29, 22, 34, 16, 37, 38, 14, 35, 20, 31, 33, 0, 35, 9, 13, 33, 16, 19, 6, 31, 17, 34, 11, 40, 24, 39, 38, 29, 7, 39, 21, 24, 5, 40, 11, 11, 37, 36, 14, 34, 3, 23, 18, 39, 10, 22, 29, 18, 13, 18, 21, 15, 34, 26, 29, 28, 35, 30, 38, 14, 31, 27, 39, 14, 18, 16, 36, 25, 11, 11, 5, 39, 21, 19, 27
            |11, 39, 11, 24, 25, 35, 8, 14, 3, 27, 28, 4, 22, 18, 44, 15, 57, 35, 0, 29, 22, 9, 23, 16, 40, 52, 38, 17, 26, 25, 51, 8, 6, 15, 33, 22, 26, 35, 30, 32, 28, 24, 17, 23, 34, 23, 32, 12, 26, 9, 44, 35, 12, 41, 43, 29, 22, 34, 19, 27, 28, 7, 18, 52, 18, 21, 9, 47, 37, 46, 47, 40, 3, 19, 41, 23, 29, 4, 42, 28, 53
            |34, 13, 36, 33, 35, 8, 25, 15, 28, 19, 39, 33, 14, 34, 29, 22, 42, 9, 29, 0, 13, 26, 8, 13, 16, 40, 11, 33, 14, 40, 33, 35, 34, 21, 4, 39, 24, 30, 5, 42, 1, 11, 36, 37, 7, 35, 7, 17, 9, 32, 19, 28, 21, 13, 22, 22, 23, 8, 33, 29, 32, 22, 34, 39, 37, 11, 24, 35, 43, 24, 27, 25, 31, 25, 12, 8, 7, 33, 29, 23, 36
            |31, 18, 26, 20, 23, 15, 16, 12, 23, 8, 26, 26, 1, 22, 23, 23, 37, 13, 22, 13, 0, 23, 13, 9, 17, 33, 24, 21, 4, 28, 30, 26, 25, 22, 15, 27, 11, 19, 10, 29, 13, 2, 24, 24, 20, 23, 12, 13, 17, 29, 22, 18, 20, 26, 21, 11, 10, 21, 21, 17, 19, 17, 22, 33, 25, 3, 21, 28, 30, 23, 25, 19, 24, 12, 23, 5, 9, 27, 22, 11, 32
            |8, 38, 20, 31, 32, 33, 14, 12, 6, 30, 36, 13, 23, 26, 46, 6, 60, 33, 9, 26, 23, 0, 18, 14, 39, 55, 32, 25, 28, 33, 53, 17, 15, 7, 30, 31, 30, 39, 28, 40, 25, 24, 25, 31, 29, 31, 30, 11, 20, 6, 43, 39, 5, 35, 44, 32, 26, 29, 27, 33, 34, 7, 26, 56, 27, 21, 2, 51, 44, 46, 48, 42, 12, 24, 37, 22, 28, 10, 45, 31, 55
            |26, 20, 31, 31, 34, 15, 20, 9, 21, 21, 38, 27, 14, 31, 34, 15, 47, 16, 23, 8, 13, 18, 0, 8, 23, 44, 15, 30, 16, 38, 39, 29, 28, 13, 12, 36, 24, 32, 11, 41, 6, 12, 32, 34, 11, 33, 13, 11, 4, 24, 26, 31, 13, 18, 28, 24, 22, 12, 31, 29, 32, 15, 31, 44, 33, 10, 16, 40, 43, 30, 34, 30, 25, 23, 19, 8, 12, 26, 34, 24, 42
            |22, 24, 23, 24, 26, 19, 13, 3, 15, 17, 30, 20, 10, 23, 32, 14, 46, 19, 16, 13, 9, 14, 8, 0, 25, 42, 23, 22, 14, 30, 39, 22, 21, 13, 17, 28, 19, 28, 14, 34, 12, 10, 24, 27, 19, 26, 16, 4, 12, 20, 29, 27, 11, 25, 29, 20, 16, 19, 23, 23, 25, 9, 23, 42, 25, 6, 12, 38, 37, 32, 34, 28, 18, 16, 25, 8, 14, 20, 31, 19, 41
            |47, 5, 43, 32, 35, 9, 33, 27, 40, 17, 38, 43, 18, 38, 15, 37, 27, 6, 40, 16, 17, 39, 23, 25, 0, 26, 22, 36, 14, 41, 18, 43, 42, 36, 13, 41, 22, 23, 11, 40, 17, 16, 39, 38, 20, 36, 9, 29, 24, 45, 5, 21, 35, 22, 6, 18, 24, 21, 36, 27, 30, 34, 38, 25, 41, 19, 37, 22, 38, 8, 12, 12, 41, 27, 14, 17, 11, 44, 17, 20, 21
            |62, 31, 49, 31, 34, 34, 44, 45, 53, 25, 33, 53, 32, 40, 11, 56, 6, 31, 52, 40, 33, 55, 44, 42, 26, 0, 48, 39, 29, 39, 11, 51, 51, 55, 38, 41, 25, 17, 35, 32, 41, 33, 42, 37, 45, 35, 33, 45, 48, 60, 27, 16, 52, 48, 20, 23, 30, 46, 38, 26, 27, 49, 40, 2, 42, 36, 53, 4, 27, 20, 16, 15, 52, 33, 40, 36, 33, 56, 11, 24, 9
            |40, 17, 46, 44, 47, 14, 35, 24, 36, 30, 50, 42, 26, 45, 37, 27, 49, 17, 38, 11, 24, 32, 15, 23, 22, 48, 0, 44, 25, 52, 40, 44, 43, 26, 10, 50, 35, 40, 15, 54, 11, 22, 46, 48, 4, 47, 16, 26, 12, 38, 23, 39, 27, 3, 28, 33, 34, 4, 45, 40, 43, 30, 45, 47, 48, 23, 30, 44, 54, 30, 34, 33, 40, 36, 9, 19, 17, 41, 38, 34, 43
            |28, 39, 10, 8, 8, 36, 11, 22, 20, 20, 11, 16, 20, 1, 34, 30, 45, 34, 17, 33, 21, 25, 30, 22, 36, 39, 44, 0, 23, 9, 42, 13, 13, 29, 36, 6, 16, 22, 31, 15, 33, 23, 3, 6, 40, 6, 33, 21, 34, 26, 41, 24, 26, 46, 38, 20, 13, 40, 2, 13, 13, 20, 1, 41, 4, 22, 24, 36, 20, 40, 40, 32, 16, 9, 44, 25, 30, 20, 32, 18, 43
            |35, 16, 29, 20, 23, 14, 20, 16, 27, 5, 26, 29, 4, 24, 19, 27, 32, 11, 26, 14, 4, 28, 16, 14, 14, 29, 25, 23, 0, 29, 25, 29, 29, 26, 15, 28, 10, 16, 10, 29, 15, 4, 26, 25, 21, 23, 11, 17, 20, 33, 19, 15, 24, 27, 17, 8, 10, 22, 22, 16, 18, 21, 24, 29, 27, 7, 25, 24, 29, 19, 21, 15, 28, 14, 22, 8, 8, 31, 18, 9, 28
            |35, 44, 16, 9, 6, 42, 20, 31, 28, 25, 6, 23, 26, 7, 36, 38, 45, 40, 25, 40, 28, 33, 38, 30, 41, 39, 52, 9, 29, 0, 44, 19, 20, 38, 43, 3, 20, 23, 38, 9, 40, 30, 8, 4, 47, 5, 39, 29, 42, 34, 46, 25, 34, 54, 42, 24, 18, 48, 7, 15, 13, 28, 7, 41, 7, 29, 33, 36, 15, 44, 43, 35, 23, 16, 50, 33, 36, 27, 33, 22, 44
            |60, 22, 51, 35, 38, 26, 44, 42, 52, 24, 39, 54, 30, 43, 8, 52, 10, 24, 51, 33, 30, 53, 39, 39, 18, 11, 40, 42, 25, 44, 0, 53, 52, 51, 31, 45, 27, 21, 28, 39, 34, 29, 45, 41, 37, 39, 26, 42, 42, 58, 17, 19, 50, 39, 11, 23, 30, 38, 41, 29, 31, 47, 43, 9, 46, 33, 51, 10, 35, 10, 6, 11, 52, 35, 31, 32, 27, 56, 11, 25, 3
            |16, 44, 4, 21, 21, 40, 10, 21, 11, 29, 24, 4, 25, 13, 45, 23, 57, 39, 8, 35, 26, 17, 29, 22, 43, 51, 44, 13, 29, 19, 53, 0, 1, 23, 39, 16, 26, 34, 35, 28, 34, 28, 12, 18, 40, 19, 37, 18, 33, 15, 48, 35, 20, 47, 46, 30, 22, 41, 15, 25, 25, 14, 13, 52, 12, 25, 17, 47, 33, 49, 50, 42, 5, 18, 47, 28, 34, 8, 43, 28, 54
            |15, 43, 5, 22, 21, 39, 9, 19, 9, 28, 24, 3, 24, 14, 44, 21, 57, 38, 6, 34, 25, 15, 28, 21, 42, 51, 43, 13, 29, 20, 52, 1, 0, 21, 37, 17, 26, 34, 34, 28, 33, 27, 12, 19, 39, 20, 36, 17, 31, 14, 47, 35, 18, 46, 46, 30, 22, 40, 16, 25, 26, 13, 14, 52, 13, 24, 16, 47, 34, 48, 49, 42, 4, 18, 46, 27, 33, 7, 42, 28, 54
            |14, 34, 26, 34, 35, 29, 18, 10, 12, 30, 39, 19, 22, 30, 45, 1, 59, 29, 15, 21, 22, 7, 13, 13, 36, 55, 26, 29, 26, 38, 51, 23, 21, 0, 25, 35, 31, 40, 24, 43, 20, 22, 30, 35, 23, 35, 27, 10, 14, 12, 40, 40, 3, 29, 41, 32, 27, 23, 31, 34, 36, 9, 30, 55, 31, 19, 6, 50, 47, 43, 46, 41, 18, 26, 32, 19, 25, 17, 44, 32, 53
            |38, 9, 40, 35, 38, 4, 29, 19, 32, 20, 41, 37, 16, 37, 27, 26, 40, 7, 33, 4, 15, 30, 12, 17, 13, 38, 10, 36, 15, 43, 31, 39, 37, 25, 0, 42, 25, 30, 5, 44, 5, 13, 38, 39, 7, 38, 5, 21, 12, 36, 16, 28, 25, 12, 19, 23, 25, 8, 36, 31, 33, 26, 37, 37, 40, 14, 28, 34, 44, 21, 25, 23, 35, 27, 8, 11, 7, 37, 28, 24, 34
            |32, 44, 12, 10, 7, 42, 17, 29, 25, 25, 8, 20, 26, 5, 37, 36, 47, 39, 22, 39, 27, 31, 36, 28, 41, 41, 50, 6, 28, 3, 45, 16, 17, 35, 42, 0, 20, 25, 37, 12, 39, 29, 5, 4, 46, 6, 38, 27, 40, 31, 46, 26, 32, 53, 42, 24, 18, 47, 6, 16, 14, 26, 5, 42, 4, 28, 30, 38, 18, 44, 44, 36, 20, 15, 50, 31, 35, 24, 34, 22, 46
            |36, 25, 25, 11, 14, 23, 18, 21, 28, 5, 17, 28, 10, 17, 18, 32, 31, 21, 26, 24, 11, 30, 24, 19, 22, 25, 35, 16, 10, 20, 27, 26, 26, 31, 25, 20, 0, 9, 20, 19, 24, 13, 19, 16, 31, 15, 21, 21, 29, 34, 26, 9, 28, 37, 22, 4, 4, 32, 15, 6, 8, 24, 17, 26, 20, 14, 29, 21, 19, 24, 24, 16, 26, 8, 32, 17, 18, 30, 16, 2, 28
            |45, 27, 32, 15, 17, 27, 27, 30, 37, 11, 18, 36, 18, 23, 13, 41, 23, 24, 35, 30, 19, 39, 32, 28, 23, 17, 40, 22, 16, 23, 21, 34, 34, 40, 30, 25, 9, 0, 25, 19, 31, 20, 25, 20, 37, 18, 25, 30, 36, 43, 26, 2, 37, 42, 21, 8, 13, 38, 21, 9, 10, 33, 23, 18, 26, 22, 38, 13, 16, 22, 21, 13, 35, 16, 36, 24, 23, 39, 10, 8, 21
            |36, 9, 36, 30, 33, 5, 25, 17, 30, 15, 36, 34, 12, 33, 24, 26, 37, 5, 30, 5, 10, 28, 11, 14, 11, 35, 15, 31, 10, 38, 28, 35, 34, 24, 5, 37, 20, 25, 0, 39, 6, 8, 34, 34, 11, 33, 2, 18, 13, 34, 15, 24, 24, 17, 17, 18, 20, 12, 31, 26, 28, 24, 33, 34, 35, 10, 26, 30, 39, 19, 22, 19, 32, 22, 13, 7, 2, 34, 24, 19, 31
            |43, 44, 24, 10, 8, 42, 26, 35, 35, 24, 4, 31, 28, 14, 32, 44, 38, 40, 32, 42, 29, 40, 41, 34, 40, 32, 54, 15, 29, 9, 39, 28, 28, 43, 44, 12, 19, 19, 39, 0, 42, 31, 16, 9, 49, 9, 40, 34, 46, 41, 44, 21, 40, 55, 39, 22, 19, 50, 13, 13, 11, 34, 14, 34, 15, 31, 39, 30, 6, 40, 39, 32, 31, 18, 51, 35, 37, 35, 28, 21, 39
            |33, 14, 35, 33, 35, 9, 25, 14, 27, 20, 39, 32, 14, 34, 30, 21, 43, 11, 28, 1, 13, 25, 6, 12, 17, 41, 11, 33, 15, 40, 34, 34, 33, 20, 5, 39, 24, 31, 6, 42, 0, 11, 35, 37, 7, 35, 8, 16, 7, 31, 21, 29, 20, 14, 23, 23, 23, 8, 33, 30, 32, 21, 34, 40, 37, 11, 22, 36, 43, 25, 29, 26, 30, 25, 13, 8, 8, 32, 30, 23, 37
            |32, 16, 28, 22, 25, 13, 18, 13, 24, 9, 28, 27, 4, 25, 22, 24, 36, 11, 24, 11, 2, 24, 12, 10, 16, 33, 22, 23, 4, 30, 29, 28, 27, 22, 13, 29, 13, 20, 8, 31, 11, 0, 26, 26, 18, 25, 9, 14, 16, 30, 20, 19, 21, 24, 20, 12, 12, 19, 23, 18, 21, 18, 25, 33, 27, 4, 22, 28, 32, 22, 24, 19, 25, 14, 21, 4, 6, 28, 22, 12, 31
            |27, 41, 8, 11, 9, 39, 13, 24, 20, 23, 12, 15, 22, 2, 37, 31, 48, 37, 17, 36, 24, 25, 32, 24, 39, 42, 46, 3, 26, 8, 45, 12, 12, 30, 38, 5, 19, 25, 34, 16, 35, 26, 0, 7, 42, 8, 35, 22, 36, 26, 44, 27, 27, 49, 41, 23, 16, 43, 4, 16, 15, 21, 2, 43, 1, 24, 25, 38, 21, 43, 43, 35, 15, 12, 47, 28, 32, 19, 34, 21, 46
            |34, 41, 15, 6, 3, 39, 17, 28, 26, 21, 5, 22, 23, 5, 33, 36, 43, 36, 23, 37, 24, 31, 34, 27, 38, 37, 48, 6, 25, 4, 41, 18, 19, 35, 39, 4, 16, 20, 34, 9, 37, 26, 7, 0, 44, 2, 36, 26, 39, 32, 43, 22, 32, 50, 38, 20, 15, 45, 4, 12, 10, 25, 5, 38, 6, 25, 30, 34, 15, 40, 40, 32, 21, 12, 47, 29, 32, 26, 30, 18, 42
            |37, 15, 42, 40, 43, 11, 31, 20, 32, 26, 46, 38, 21, 41, 34, 24, 47, 14, 34, 7, 20, 29, 11, 19, 20, 45, 4, 40, 21, 47, 37, 40, 39, 23, 7, 46, 31, 37, 11, 49, 7, 18, 42, 44, 0, 42, 12, 22, 9, 35, 21, 35, 24, 7, 26, 29, 30, 1, 40, 36, 39, 27, 41, 44, 44, 18, 27, 41, 50, 28, 31, 30, 36, 32, 9, 15, 14, 37, 35, 30, 40
            |34, 39, 16, 4, 1, 37, 17, 27, 26, 19, 5, 22, 21, 6, 31, 35, 41, 34, 23, 35, 23, 31, 33, 26, 36, 35, 47, 6, 23, 5, 39, 19, 20, 35, 38, 6, 15, 18, 33, 9, 35, 25, 8, 2, 42, 0, 34, 25, 38, 33, 41, 20, 31, 49, 36, 18, 13, 43, 4, 10, 8, 25, 6, 36, 8, 24, 30, 32, 14, 38, 38, 30, 22, 11, 45, 28, 31, 26, 28, 16, 40
            |39, 7, 37, 31, 34, 3, 27, 19, 32, 16, 37, 36, 13, 34, 22, 28, 35, 3, 32, 7, 12, 30, 13, 16, 9, 33, 16, 33, 11, 39, 26, 37, 36, 27, 5, 38, 21, 25, 2, 40, 8, 9, 35, 36, 12, 34, 0, 21, 15, 36, 13, 23, 26, 17, 15, 18, 21, 13, 33, 26, 29, 26, 34, 33, 37, 12, 28, 29, 39, 17, 21, 18, 34, 24, 11, 9, 3, 36, 23, 19, 29
            |18, 28, 20, 24, 26, 23, 10, 2, 11, 20, 30, 16, 13, 22, 35, 11, 49, 23, 12, 17, 13, 11, 11, 4, 29, 45, 26, 21, 17, 29, 42, 18, 17, 10, 21, 27, 21, 30, 18, 34, 16, 14, 22, 26, 22, 25, 21, 0, 14, 16, 33, 30, 8, 29, 33, 22, 17, 22, 22, 24, 26, 5, 22, 45, 24, 10, 8, 40, 37, 36, 38, 32, 14, 16, 29, 12, 18, 16, 34, 22, 45
            |28, 21, 35, 36, 38, 16, 24, 12, 24, 25, 42, 30, 18, 35, 37, 15, 50, 18, 26, 9, 17, 20, 4, 12, 24, 48, 12, 34, 20, 42, 42, 33, 31, 14, 12, 40, 29, 36, 13, 46, 7, 16, 36, 39, 9, 38, 15, 14, 0, 26, 28, 35, 15, 15, 31, 28, 27, 9, 35, 34, 36, 18, 35, 47, 37, 15, 18, 43, 47, 32, 36, 33, 28, 27, 18, 12, 15, 29, 37, 28, 44
            |2, 44, 19, 34, 34, 39, 17, 17, 7, 35, 37, 11, 28, 27, 51, 11, 64, 39, 9, 32, 29, 6, 24, 20, 45, 60, 38, 26, 33, 34, 58, 15, 14, 12, 36, 31, 34, 43, 34, 41, 31, 30, 26, 32, 35, 33, 36, 16, 26, 0, 49, 44, 11, 41, 49, 37, 30, 35, 28, 36, 37, 11, 27, 60, 27, 26, 8, 55, 46, 52, 54, 48, 11, 27, 43, 28, 34, 7, 50, 36, 60
            |51, 6, 48, 37, 40, 11, 38, 32, 44, 22, 43, 48, 23, 43, 17, 41, 27, 10, 44, 19, 22, 43, 26, 29, 5, 27, 23, 41, 19, 46, 17, 48, 47, 40, 16, 46, 26, 26, 15, 44, 21, 20, 44, 43, 21, 41, 13, 33, 28, 49, 0, 24, 39, 22, 7, 22, 28, 22, 41, 31, 34, 38, 43, 25, 46, 24, 41, 24, 42, 7, 11, 14, 46, 32, 14, 22, 15, 49, 19, 24, 20
            |46, 25, 33, 16, 19, 25, 28, 30, 37, 10, 20, 37, 17, 24, 11, 41, 22, 22, 35, 28, 18, 39, 31, 27, 21, 16, 39, 24, 15, 25, 19, 35, 35, 40, 28, 26, 9, 2, 24, 21, 29, 19, 27, 22, 35, 20, 23, 30, 35, 44, 24, 0, 37, 40, 18, 7, 13, 36, 22, 10, 12, 33, 24, 17, 27, 21, 38, 12, 18, 20, 18, 11, 35, 17, 34, 23, 22, 40, 8, 8, 20
            |13, 33, 23, 31, 32, 28, 15, 8, 9, 27, 36, 16, 20, 27, 43, 4, 57, 29, 12, 21, 20, 5, 13, 11, 35, 52, 27, 26, 24, 34, 50, 20, 18, 3, 25, 32, 28, 37, 24, 40, 20, 21, 27, 32, 24, 31, 26, 8, 15, 11, 39, 37, 0, 30, 40, 30, 25, 24, 28, 31, 33, 6, 27, 53, 28, 17, 3, 48, 44, 42, 45, 39, 15, 23, 32, 18, 24, 14, 42, 29, 52
            |43, 17, 49, 46, 49, 15, 38, 27, 39, 32, 52, 45, 28, 48, 37, 30, 49, 18, 41, 13, 26, 35, 18, 25, 22, 48, 3, 46, 27, 54, 39, 47, 46, 29, 12, 53, 37, 42, 17, 55, 14, 24, 49, 50, 7, 49, 17, 29, 15, 41, 22, 40, 30, 0, 28, 34, 36, 6, 47, 42, 45, 33, 48, 47, 50, 25, 33, 44, 56, 29, 33, 33, 43, 38, 8, 21, 19, 44, 39, 36, 42
            |52, 11, 46, 33, 36, 15, 37, 32, 44, 18, 38, 46, 22, 39, 10, 42, 21, 13, 43, 22, 21, 44, 28, 29, 6, 20, 28, 38, 17, 42, 11, 46, 46, 41, 19, 42, 22, 21, 17, 39, 23, 20, 41, 38, 26, 36, 15, 33, 31, 49, 7, 18, 40, 28, 0, 18, 25, 27, 37, 27, 29, 38, 39, 19, 42, 23, 42, 17, 36, 2, 5, 8, 45, 29, 20, 22, 16, 48, 13, 20, 14
            |39, 21, 28, 15, 18, 21, 21, 22, 30, 3, 20, 31, 10, 21, 15, 34, 28, 18, 29, 22, 11, 32, 24, 20, 18, 23, 33, 20, 8, 24, 23, 30, 30, 32, 23, 24, 4, 8, 18, 22, 23, 12, 23, 20, 29, 18, 18, 22, 28, 37, 22, 7, 30, 34, 18, 0, 8, 30, 19, 9, 12, 26, 21, 23, 24, 14, 31, 18, 21, 20, 20, 12, 29, 12, 29, 16, 16, 33, 13, 2, 24
            |32, 26, 21, 10, 13, 24, 14, 18, 24, 7, 16, 24, 9, 14, 22, 29, 35, 21, 22, 23, 10, 26, 22, 16, 24, 30, 34, 13, 10, 18, 30, 22, 22, 27, 25, 18, 4, 13, 20, 19, 23, 12, 16, 15, 30, 13, 21, 17, 27, 30, 28, 13, 25, 36, 25, 8, 0, 31, 12, 7, 9, 20, 14, 30, 17, 12, 25, 25, 21, 27, 28, 20, 22, 4, 32, 15, 18, 26, 20, 6, 32
            |37, 16, 42, 41, 43, 12, 32, 20, 33, 27, 47, 39, 22, 42, 35, 24, 48, 15, 34, 8, 21, 29, 12, 19, 21, 46, 4, 40, 22, 48, 38, 41, 40, 23, 8, 47, 32, 38, 12, 50, 8, 19, 43, 45, 1, 43, 13, 22, 9, 35, 22, 36, 24, 6, 27, 30, 31, 0, 41, 37, 40, 27, 42, 45, 44, 19, 27, 42, 51, 28, 32, 31, 37, 33, 10, 16, 15, 38, 36, 31, 41
            |30, 38, 12, 6, 5, 36, 13, 24, 22, 19, 9, 18, 20, 2, 33, 32, 43, 34, 19, 33, 21, 27, 31, 23, 36, 38, 45, 2, 22, 7, 41, 15, 16, 31, 36, 6, 15, 21, 31, 13, 33, 23, 4, 4, 40, 4, 33, 22, 35, 28, 41, 22, 28, 47, 37, 19, 12, 41, 0, 12, 11, 21, 2, 39, 5, 22, 26, 34, 18, 39, 39, 31, 18, 9, 44, 26, 30, 22, 30, 17, 42
            |38, 30, 23, 6, 9, 29, 19, 25, 29, 11, 11, 28, 15, 14, 21, 35, 32, 26, 27, 29, 17, 33, 29, 23, 27, 26, 40, 13, 16, 15, 29, 25, 25, 34, 31, 16, 6, 9, 26, 13, 30, 18, 16, 12, 36, 10, 26, 24, 34, 36, 31, 10, 31, 42, 27, 9, 7, 37, 12, 0, 3, 26, 14, 27, 17, 19, 31, 22, 14, 28, 28, 20, 26, 9, 37, 22, 23, 31, 18, 7, 30
            |38, 33, 23, 4, 7, 32, 20, 27, 30, 13, 9, 28, 18, 13, 23, 37, 33, 29, 28, 32, 19, 34, 32, 25, 30, 27, 43, 13, 18, 13, 31, 25, 26, 36, 33, 14, 8, 10, 28, 11, 32, 21, 15, 10, 39, 8, 29, 26, 36, 37, 34, 12, 33, 45, 29, 12, 9, 40, 11, 3, 0, 27, 13, 28, 16, 22, 33, 23, 11, 31, 30, 22, 27, 10, 40, 25, 26, 31, 20, 10, 32
            |14, 33, 17, 25, 26, 28, 8, 7, 6, 23, 30, 12, 17, 21, 40, 10, 53, 28, 7, 22, 17, 7, 15, 9, 34, 49, 30, 20, 21, 28, 47, 14, 13, 9, 26, 26, 24, 33, 24, 34, 21, 18, 21, 25, 27, 25, 26, 5, 18, 11, 38, 33, 6, 33, 38, 26, 20, 27, 21, 26, 27, 0, 21, 49, 22, 15, 5, 44, 38, 40, 42, 36, 10, 17, 34, 17, 23, 11, 38, 25, 49
            |28, 40, 10, 9, 7, 37, 13, 24, 21, 21, 10, 17, 21, 0, 35, 31, 46, 35, 18, 34, 22, 26, 31, 23, 38, 40, 45, 1, 24, 7, 43, 13, 14, 30, 37, 5, 17, 23, 33, 14, 34, 25, 2, 5, 41, 6, 34, 22, 35, 27, 43, 24, 27, 48, 39, 21, 14, 42, 2, 14, 13, 21, 0, 41, 3, 23, 25, 36, 20, 41, 41, 33, 16, 10, 45, 27, 31, 21, 32, 19, 44
            |62, 30, 50, 33, 35, 33, 45, 45, 54, 26, 35, 54, 32, 41, 10, 56, 4, 30, 52, 39, 33, 56, 44, 42, 25, 2, 47, 41, 29, 41, 9, 52, 52, 55, 37, 42, 26, 18, 34, 34, 40, 33, 43, 38, 44, 36, 33, 45, 47, 60, 25, 17, 53, 47, 19, 23, 30, 45, 39, 27, 28, 49, 41, 0, 44, 36, 54, 5, 29, 18, 15, 15, 52, 34, 39, 36, 32, 57, 11, 25, 7
            |28, 43, 9, 11, 9, 40, 14, 26, 21, 24, 12, 16, 24, 3, 38, 32, 48, 38, 18, 37, 25, 27, 33, 25, 41, 42, 48, 4, 27, 7, 46, 12, 13, 31, 40, 4, 20, 26, 35, 15, 37, 27, 1, 6, 44, 8, 37, 24, 37, 27, 46, 27, 28, 50, 42, 24, 17, 44, 5, 17, 16, 22, 3, 44, 0, 26, 26, 39, 21, 44, 44, 36, 16, 13, 48, 29, 34, 20, 35, 22, 47
            |28, 19, 25, 22, 24, 15, 15, 9, 21, 11, 28, 24, 4, 23, 26, 20, 40, 14, 21, 11, 3, 21, 10, 6, 19, 36, 23, 22, 7, 29, 33, 25, 24, 19, 14, 28, 14, 22, 10, 31, 11, 4, 24, 25, 18, 24, 12, 10, 15, 26, 24, 21, 17, 25, 23, 14, 12, 19, 22, 19, 22, 15, 23, 36, 26, 0, 18, 31, 33, 26, 28, 22, 22, 13, 22, 4, 9, 25, 25, 14, 35
            |10, 35, 20, 30, 31, 31, 13, 9, 6, 28, 35, 13, 21, 25, 44, 6, 58, 31, 9, 24, 21, 2, 16, 12, 37, 53, 30, 24, 25, 33, 51, 17, 16, 6, 28, 30, 29, 38, 26, 39, 22, 22, 25, 30, 27, 30, 28, 8, 18, 8, 41, 38, 3, 33, 42, 31, 25, 27, 26, 31, 33, 5, 25, 54, 26, 18, 0, 49, 43, 44, 46, 40, 12, 23, 35, 20, 26, 11, 43, 30, 53
            |57, 27, 45, 28, 30, 30, 40, 40, 49, 21, 30, 49, 28, 36, 7, 51, 9, 27, 47, 35, 28, 51, 40, 38, 22, 4, 44, 36, 24, 36, 10, 47, 47, 50, 34, 38, 21, 13, 30, 30, 36, 28, 38, 34, 41, 32, 29, 40, 43, 55, 24, 12, 48, 44, 17, 18, 25, 42, 34, 22, 23, 44, 36, 5, 39, 31, 49, 0, 25, 17, 14, 11, 48, 29, 37, 32, 28, 52, 6, 20, 9
            |48, 42, 30, 13, 13, 42, 30, 38, 40, 24, 9, 36, 29, 20, 28, 48, 33, 39, 37, 43, 30, 44, 43, 37, 38, 27, 54, 20, 29, 15, 35, 33, 34, 47, 44, 18, 19, 16, 39, 6, 43, 32, 21, 15, 50, 14, 39, 37, 47, 46, 42, 18, 44, 56, 36, 21, 21, 51, 18, 14, 11, 38, 20, 29, 21, 33, 43, 25, 0, 38, 36, 29, 36, 21, 50, 36, 37, 40, 25, 20, 34
            |54, 12, 48, 34, 37, 17, 39, 34, 46, 20, 39, 49, 24, 41, 11, 45, 20, 14, 46, 24, 23, 46, 30, 32, 8, 20, 30, 40, 19, 44, 10, 49, 48, 43, 21, 44, 24, 22, 19, 40, 25, 22, 43, 40, 28, 38, 17, 36, 32, 52, 7, 20, 42, 29, 2, 20, 27, 28, 39, 28, 31, 40, 41, 18, 44, 26, 44, 17, 38, 0, 4, 9, 47, 31, 21, 24, 18, 50, 13, 22, 13
            |56, 16, 49, 34, 37, 20, 40, 37, 48, 21, 38, 50, 26, 41, 8, 47, 16, 18, 47, 27, 25, 48, 34, 34, 12, 16, 34, 40, 21, 43, 6, 50, 49, 46, 25, 44, 24, 21, 22, 39, 29, 24, 43, 40, 31, 38, 21, 38, 36, 54, 11, 18, 45, 33, 5, 20, 28, 32, 39, 28, 30, 42, 41, 15, 44, 28, 46, 14, 36, 4, 0, 8, 48, 32, 25, 27, 21, 52, 11, 22, 9
            |50, 17, 41, 26, 29, 19, 33, 31, 41, 13, 31, 43, 19, 33, 4, 42, 18, 16, 40, 25, 19, 42, 30, 28, 12, 15, 33, 32, 15, 35, 11, 42, 42, 41, 23, 36, 16, 13, 19, 32, 26, 19, 35, 32, 30, 30, 18, 32, 33, 48, 14, 11, 39, 33, 8, 12, 20, 31, 31, 20, 22, 36, 33, 15, 36, 22, 40, 11, 29, 9, 8, 0, 41, 24, 26, 22, 18, 45, 5, 14, 13
            |12, 41, 9, 23, 23, 37, 8, 16, 6, 28, 27, 2, 23, 16, 44, 18, 57, 36, 3, 31, 24, 12, 25, 18, 41, 52, 40, 16, 28, 23, 52, 5, 4, 18, 35, 20, 26, 35, 32, 31, 30, 25, 15, 21, 36, 22, 34, 14, 28, 11, 46, 35, 15, 43, 45, 29, 22, 37, 18, 26, 27, 10, 16, 52, 16, 22, 12, 48, 36, 47, 48, 41, 0, 18, 43, 25, 31, 4, 42, 28, 54
            |29, 29, 17, 9, 11, 27, 11, 17, 21, 11, 15, 20, 11, 10, 26, 27, 39, 25, 19, 25, 12, 24, 23, 16, 27, 33, 36, 9, 14, 16, 35, 18, 18, 26, 27, 15, 8, 16, 22, 18, 25, 14, 12, 12, 32, 11, 24, 16, 27, 27, 32, 17, 23, 38, 29, 12, 4, 33, 9, 9, 10, 17, 10, 34, 13, 13, 23, 29, 21, 31, 32, 24, 18, 0, 35, 17, 21, 23, 24, 10, 36
            |46, 9, 48, 42, 45, 8, 37, 27, 40, 27, 48, 45, 24, 45, 30, 33, 41, 11, 41, 12, 23, 37, 19, 25, 14, 40, 9, 44, 22, 50, 31, 47, 46, 32, 8, 50, 32, 36, 13, 51, 13, 21, 47, 47, 9, 45, 11, 29, 18, 43, 14, 34, 32, 8, 20, 29, 32, 10, 44, 37, 40, 34, 45, 39, 48, 22, 35, 37, 50, 21, 25, 26, 43, 35, 0, 19, 14, 45, 31, 30, 34
            |30, 16, 29, 25, 28, 12, 18, 10, 23, 13, 31, 27, 7, 27, 26, 21, 40, 11, 23, 8, 5, 22, 8, 8, 17, 36, 19, 25, 8, 33, 32, 28, 27, 19, 11, 31, 17, 24, 7, 35, 8, 4, 28, 29, 15, 28, 9, 12, 12, 28, 22, 23, 18, 21, 22, 16, 15, 16, 26, 22, 25, 17, 27, 36, 29, 4, 20, 32, 36, 24, 27, 22, 25, 17, 19, 0, 6, 27, 26, 16, 34
            |36, 10, 34, 28, 31, 6, 24, 17, 29, 13, 34, 33, 10, 31, 22, 26, 35, 5, 29, 7, 9, 28, 12, 14, 11, 33, 17, 30, 8, 36, 27, 34, 33, 25, 7, 35, 18, 23, 2, 37, 8, 6, 32, 32, 14, 31, 3, 18, 15, 34, 15, 22, 24, 19, 16, 16, 18, 15, 30, 23, 26, 23, 31, 32, 34, 9, 26, 28, 37, 18, 21, 18, 31, 21, 14, 6, 0, 34, 22, 17, 30
            |8, 44, 12, 28, 28, 39, 12, 18, 5, 32, 31, 4, 26, 21, 48, 16, 61, 39, 4, 33, 27, 10, 26, 20, 44, 56, 41, 20, 31, 27, 56, 8, 7, 17, 37, 24, 30, 39, 34, 35, 32, 28, 19, 26, 37, 26, 36, 16, 29, 7, 49, 40, 14, 44, 48, 33, 26, 38, 22, 31, 31, 11, 21, 57, 20, 25, 11, 52, 40, 50, 52, 45, 4, 23, 45, 27, 34, 0, 46, 32, 57
            |52, 22, 41, 24, 27, 24, 34, 34, 43, 15, 28, 44, 22, 32, 3, 45, 15, 21, 42, 29, 22, 45, 34, 31, 17, 11, 38, 32, 18, 33, 11, 43, 42, 44, 28, 34, 16, 10, 24, 28, 30, 22, 34, 30, 35, 28, 23, 34, 37, 50, 19, 8, 42, 39, 13, 13, 20, 36, 30, 18, 20, 38, 32, 11, 35, 25, 43, 6, 25, 13, 11, 5, 42, 24, 31, 26, 22, 46, 0, 14, 12
            |38, 23, 27, 13, 16, 22, 20, 22, 29, 4, 18, 29, 10, 19, 17, 33, 29, 19, 28, 23, 11, 31, 24, 19, 20, 24, 34, 18, 9, 22, 25, 28, 28, 32, 24, 22, 2, 8, 19, 21, 23, 12, 21, 18, 30, 16, 19, 22, 28, 36, 24, 8, 29, 36, 20, 2, 6, 31, 17, 7, 10, 25, 19, 25, 22, 14, 30, 20, 20, 22, 22, 14, 28, 10, 30, 16, 17, 32, 14, 0, 26
            |62, 25, 52, 36, 39, 29, 45, 44, 54, 26, 39, 55, 32, 44, 9, 55, 7, 27, 53, 36, 32, 55, 42, 41, 21, 9, 43, 43, 28, 44, 3, 54, 54, 53, 34, 46, 28, 21, 31, 39, 37, 31, 46, 42, 40, 40, 29, 45, 44, 60, 20, 20, 52, 42, 14, 24, 32, 41, 42, 30, 32, 49, 44, 7, 47, 35, 53, 9, 34, 13, 9, 13, 54, 36, 34, 34, 30, 57, 12, 26, 0|];