% n80w200.003    107.55 743
n = 81;
duration = [|0, 20, 32, 28, 46, 9, 43, 42, 30, 17, 49, 49, 47, 34, 49, 53, 27, 62, 15, 40, 45, 54, 35, 28, 29, 47, 41, 56, 9, 38, 26, 42, 23, 40, 39, 39, 28, 16, 18, 45, 36, 60, 23, 38, 53, 32, 49, 19, 39, 55, 42, 12, 24, 49, 5, 25, 60, 41, 32, 2, 53, 20, 50, 34, 19, 42, 30, 29, 49, 25, 49, 33, 31, 31, 42, 26, 41, 49, 25, 59, 21
            |20, 0, 16, 15, 27, 19, 39, 23, 30, 4, 36, 46, 42, 15, 35, 37, 24, 45, 19, 21, 47, 40, 16, 20, 15, 27, 38, 42, 23, 35, 9, 24, 24, 27, 38, 20, 16, 4, 11, 27, 18, 44, 25, 27, 35, 13, 37, 19, 29, 44, 24, 17, 5, 50, 23, 29, 45, 35, 30, 19, 36, 2, 35, 35, 19, 26, 16, 12, 38, 28, 40, 15, 12, 14, 23, 14, 22, 44, 5, 45, 3
            |32, 16, 0, 6, 17, 28, 29, 17, 26, 16, 20, 37, 32, 11, 20, 21, 19, 30, 23, 16, 40, 25, 8, 13, 5, 17, 30, 27, 32, 28, 7, 12, 23, 12, 32, 10, 7, 17, 15, 13, 21, 29, 24, 14, 21, 18, 23, 21, 16, 29, 12, 24, 11, 42, 34, 29, 30, 25, 25, 31, 21, 17, 19, 30, 21, 10, 3, 20, 24, 28, 27, 3, 17, 2, 21, 8, 14, 34, 14, 29, 17
            |28, 15, 6, 0, 23, 23, 25, 23, 21, 14, 21, 33, 28, 16, 21, 25, 13, 33, 18, 21, 35, 26, 13, 7, 1, 23, 25, 28, 27, 23, 7, 18, 17, 13, 27, 16, 1, 15, 11, 18, 26, 32, 18, 12, 26, 22, 23, 15, 14, 29, 18, 19, 11, 38, 29, 23, 32, 21, 19, 27, 25, 17, 21, 24, 15, 14, 3, 23, 23, 22, 25, 9, 20, 7, 26, 2, 20, 30, 16, 31, 17
            |46, 27, 17, 23, 0, 44, 43, 6, 43, 30, 26, 50, 45, 12, 24, 19, 36, 26, 40, 8, 56, 28, 11, 30, 22, 1, 44, 28, 48, 43, 21, 5, 40, 22, 47, 7, 24, 30, 31, 9, 18, 26, 41, 27, 12, 19, 31, 38, 29, 35, 5, 40, 22, 57, 49, 46, 29, 39, 41, 46, 16, 27, 22, 46, 38, 16, 20, 23, 33, 45, 37, 15, 18, 17, 11, 25, 6, 46, 22, 31, 26
            |9, 19, 28, 23, 44, 0, 34, 41, 21, 15, 42, 40, 38, 33, 42, 47, 19, 56, 7, 39, 36, 47, 32, 21, 24, 44, 33, 49, 4, 30, 22, 39, 14, 34, 30, 37, 22, 15, 13, 41, 37, 54, 14, 30, 48, 33, 41, 10, 32, 47, 39, 4, 22, 40, 7, 16, 53, 32, 24, 7, 48, 21, 43, 25, 10, 36, 25, 31, 41, 16, 41, 29, 32, 27, 42, 21, 39, 40, 24, 52, 22
            |43, 39, 29, 25, 43, 34, 0, 45, 13, 36, 22, 8, 4, 41, 23, 32, 16, 36, 27, 45, 13, 25, 37, 19, 26, 42, 2, 27, 36, 4, 32, 38, 20, 21, 8, 38, 24, 37, 29, 35, 50, 34, 20, 16, 38, 47, 17, 24, 14, 19, 38, 30, 36, 14, 41, 20, 30, 4, 10, 41, 34, 41, 25, 11, 24, 27, 27, 48, 15, 19, 11, 32, 45, 31, 50, 25, 42, 6, 40, 27, 41
            |42, 23, 17, 23, 6, 41, 45, 0, 43, 26, 30, 52, 47, 8, 29, 25, 36, 32, 38, 2, 57, 33, 9, 30, 22, 7, 46, 34, 45, 44, 19, 9, 40, 25, 49, 7, 24, 26, 29, 13, 12, 32, 41, 30, 18, 13, 35, 37, 31, 40, 9, 38, 19, 59, 46, 45, 35, 41, 42, 42, 22, 22, 27, 47, 37, 20, 20, 17, 37, 44, 40, 14, 13, 16, 5, 24, 3, 49, 18, 36, 22
            |30, 30, 26, 21, 43, 21, 13, 43, 0, 26, 29, 19, 17, 37, 30, 37, 7, 44, 15, 42, 17, 34, 34, 13, 21, 43, 12, 36, 23, 9, 26, 38, 7, 24, 9, 37, 19, 27, 20, 36, 45, 42, 7, 18, 42, 41, 26, 12, 18, 30, 38, 18, 29, 20, 28, 6, 39, 13, 4, 28, 39, 32, 32, 4, 12, 29, 23, 41, 25, 6, 23, 29, 40, 27, 47, 19, 41, 19, 33, 37, 33
            |17, 4, 16, 14, 30, 15, 36, 26, 26, 0, 35, 43, 39, 18, 35, 38, 20, 46, 14, 24, 43, 40, 18, 17, 14, 30, 35, 42, 19, 32, 9, 26, 20, 26, 35, 23, 15, 1, 7, 29, 22, 45, 21, 25, 36, 18, 36, 15, 27, 42, 26, 13, 7, 46, 19, 25, 45, 32, 27, 16, 37, 6, 35, 31, 15, 26, 15, 16, 37, 24, 38, 16, 16, 15, 27, 12, 25, 41, 9, 45, 7
            |49, 36, 20, 21, 26, 42, 22, 30, 29, 35, 0, 27, 22, 29, 1, 9, 26, 15, 36, 30, 36, 5, 25, 22, 21, 25, 24, 7, 46, 24, 27, 22, 31, 9, 29, 24, 21, 36, 32, 17, 39, 13, 32, 12, 17, 37, 6, 33, 11, 10, 22, 38, 31, 35, 50, 35, 11, 19, 26, 48, 13, 37, 4, 30, 33, 11, 20, 40, 8, 34, 13, 22, 36, 22, 35, 23, 28, 23, 35, 9, 37
            |49, 46, 37, 33, 50, 40, 8, 52, 19, 43, 27, 0, 5, 48, 28, 36, 23, 39, 34, 52, 11, 29, 44, 27, 33, 49, 8, 30, 42, 11, 40, 45, 26, 28, 11, 45, 31, 44, 37, 41, 58, 37, 26, 23, 44, 54, 21, 31, 21, 21, 45, 37, 43, 9, 47, 25, 33, 12, 17, 47, 39, 48, 30, 16, 31, 33, 34, 55, 19, 25, 15, 39, 53, 38, 57, 33, 50, 4, 48, 30, 49
            |47, 42, 32, 28, 45, 38, 4, 47, 17, 39, 22, 5, 0, 43, 23, 32, 20, 35, 32, 47, 14, 24, 39, 23, 29, 44, 6, 26, 40, 9, 35, 40, 24, 23, 11, 40, 27, 40, 33, 36, 53, 33, 24, 18, 39, 50, 16, 28, 16, 17, 40, 35, 39, 13, 45, 24, 29, 7, 15, 45, 35, 44, 26, 15, 28, 28, 30, 51, 14, 23, 10, 35, 48, 34, 52, 28, 45, 2, 44, 26, 45
            |34, 15, 11, 16, 12, 33, 41, 8, 37, 18, 29, 48, 43, 0, 28, 27, 30, 35, 30, 6, 52, 33, 4, 24, 16, 13, 41, 34, 37, 39, 11, 10, 33, 22, 43, 7, 18, 18, 21, 15, 10, 34, 34, 26, 22, 8, 33, 29, 27, 39, 10, 30, 11, 54, 38, 38, 36, 36, 36, 34, 24, 15, 27, 41, 29, 18, 14, 12, 34, 37, 38, 9, 7, 10, 10, 17, 7, 45, 10, 37, 14
            |49, 35, 20, 21, 24, 42, 23, 29, 30, 35, 1, 28, 23, 28, 0, 8, 26, 14, 36, 29, 37, 5, 24, 22, 21, 23, 25, 7, 46, 25, 27, 20, 32, 9, 30, 23, 21, 36, 31, 16, 38, 12, 33, 13, 16, 36, 7, 33, 12, 11, 20, 38, 30, 37, 49, 35, 11, 20, 27, 48, 11, 37, 2, 31, 33, 10, 20, 39, 9, 35, 14, 21, 35, 22, 34, 23, 26, 24, 34, 10, 36
            |53, 37, 21, 25, 19, 47, 32, 25, 37, 38, 9, 36, 32, 27, 8, 0, 33, 9, 42, 26, 45, 9, 23, 28, 24, 18, 33, 9, 51, 33, 29, 17, 38, 14, 38, 20, 25, 38, 35, 12, 36, 8, 39, 19, 9, 35, 15, 38, 19, 18, 17, 43, 32, 45, 54, 42, 10, 28, 34, 52, 4, 38, 6, 39, 38, 11, 23, 38, 17, 41, 22, 22, 34, 23, 30, 27, 23, 32, 34, 12, 38
            |27, 24, 19, 13, 36, 19, 16, 36, 7, 20, 26, 23, 20, 30, 26, 33, 0, 40, 12, 35, 23, 30, 27, 6, 14, 36, 15, 32, 22, 12, 19, 31, 6, 19, 15, 30, 12, 21, 14, 30, 38, 38, 7, 13, 36, 34, 23, 9, 14, 28, 31, 15, 22, 26, 26, 10, 36, 13, 7, 25, 34, 26, 27, 11, 9, 23, 16, 34, 23, 9, 22, 22, 33, 20, 39, 12, 34, 22, 26, 34, 26
            |62, 45, 30, 33, 26, 56, 36, 32, 44, 46, 15, 39, 35, 35, 14, 9, 40, 0, 50, 33, 49, 11, 31, 36, 33, 25, 38, 9, 59, 38, 37, 25, 46, 22, 43, 28, 33, 47, 44, 20, 44, 2, 47, 26, 14, 43, 19, 46, 26, 19, 25, 51, 40, 48, 62, 49, 7, 33, 41, 60, 10, 47, 13, 45, 46, 20, 31, 46, 21, 48, 25, 31, 42, 32, 37, 35, 30, 35, 43, 10, 46
            |15, 19, 23, 18, 40, 7, 27, 38, 15, 14, 36, 34, 32, 30, 36, 42, 12, 50, 0, 36, 31, 41, 29, 14, 19, 40, 26, 43, 10, 23, 19, 35, 8, 28, 24, 33, 17, 15, 9, 36, 36, 48, 8, 24, 43, 32, 35, 4, 25, 40, 35, 3, 20, 35, 14, 11, 47, 25, 17, 13, 42, 21, 37, 19, 4, 31, 21, 31, 34, 11, 34, 25, 30, 23, 40, 16, 36, 34, 23, 45, 22
            |40, 21, 16, 21, 8, 39, 45, 2, 42, 24, 30, 52, 47, 6, 29, 26, 35, 33, 36, 0, 56, 34, 8, 29, 21, 9, 45, 34, 43, 43, 17, 9, 38, 25, 48, 7, 23, 24, 27, 14, 10, 33, 39, 29, 20, 11, 35, 35, 31, 40, 9, 36, 17, 58, 44, 44, 36, 40, 40, 40, 23, 20, 28, 46, 35, 20, 19, 15, 37, 43, 40, 13, 11, 15, 5, 23, 3, 48, 16, 37, 19
            |45, 47, 40, 35, 56, 36, 13, 57, 17, 43, 36, 11, 14, 52, 37, 45, 23, 49, 31, 56, 0, 38, 48, 28, 36, 55, 12, 40, 37, 13, 42, 50, 23, 34, 8, 50, 34, 44, 36, 48, 61, 47, 23, 28, 52, 57, 30, 29, 27, 31, 50, 34, 45, 4, 42, 20, 43, 17, 16, 43, 48, 49, 39, 12, 29, 40, 38, 57, 28, 20, 24, 43, 55, 42, 61, 35, 54, 14, 49, 40, 49
            |54, 40, 25, 26, 28, 47, 25, 33, 34, 40, 5, 29, 24, 33, 5, 9, 30, 11, 41, 34, 38, 0, 29, 27, 26, 27, 27, 2, 51, 27, 32, 25, 36, 14, 32, 27, 26, 41, 37, 20, 43, 9, 37, 17, 18, 41, 8, 38, 16, 9, 25, 43, 36, 37, 54, 39, 6, 22, 30, 53, 13, 42, 6, 34, 38, 15, 25, 44, 10, 38, 14, 26, 40, 27, 38, 28, 31, 25, 39, 4, 42
            |35, 16, 8, 13, 11, 32, 37, 9, 34, 18, 25, 44, 39, 4, 24, 23, 27, 31, 29, 8, 48, 29, 0, 21, 13, 12, 37, 30, 36, 35, 10, 8, 30, 18, 40, 4, 15, 19, 20, 12, 15, 31, 31, 22, 19, 12, 29, 27, 23, 35, 8, 29, 11, 50, 38, 36, 33, 33, 32, 34, 21, 16, 23, 38, 27, 14, 11, 15, 30, 35, 34, 5, 11, 7, 13, 15, 7, 41, 12, 33, 16
            |28, 20, 13, 7, 30, 21, 19, 30, 13, 17, 22, 27, 23, 24, 22, 28, 6, 36, 14, 29, 28, 27, 21, 0, 8, 30, 19, 29, 24, 16, 14, 25, 11, 14, 20, 23, 6, 18, 11, 24, 33, 34, 12, 10, 30, 28, 21, 11, 12, 27, 25, 16, 17, 31, 28, 16, 33, 15, 12, 26, 28, 22, 23, 17, 11, 17, 10, 29, 21, 15, 22, 16, 27, 14, 33, 6, 27, 25, 21, 31, 22
            |29, 15, 5, 1, 22, 24, 26, 22, 21, 14, 21, 33, 29, 16, 21, 24, 14, 33, 19, 21, 36, 26, 13, 8, 0, 22, 26, 28, 28, 23, 7, 17, 18, 12, 28, 16, 2, 15, 11, 17, 25, 31, 19, 12, 25, 21, 22, 16, 14, 28, 17, 20, 11, 38, 30, 24, 31, 21, 20, 28, 24, 17, 21, 25, 16, 13, 2, 22, 23, 23, 25, 8, 20, 6, 25, 3, 19, 30, 15, 30, 17
            |47, 27, 17, 23, 1, 44, 42, 7, 43, 30, 25, 49, 44, 13, 23, 18, 36, 25, 40, 9, 55, 27, 12, 30, 22, 0, 44, 27, 48, 42, 22, 5, 40, 21, 47, 7, 24, 30, 31, 8, 19, 25, 41, 27, 11, 19, 30, 38, 28, 34, 5, 40, 23, 56, 49, 46, 28, 38, 40, 46, 15, 27, 21, 46, 38, 16, 20, 24, 32, 45, 36, 15, 19, 17, 12, 25, 6, 45, 23, 30, 27
            |41, 38, 30, 25, 44, 33, 2, 46, 12, 35, 24, 8, 6, 41, 25, 33, 15, 38, 26, 45, 12, 27, 37, 19, 26, 44, 0, 29, 34, 3, 32, 39, 18, 22, 5, 39, 24, 36, 29, 36, 51, 36, 18, 17, 40, 47, 19, 23, 16, 21, 39, 29, 36, 13, 39, 18, 32, 5, 9, 39, 36, 40, 27, 9, 23, 28, 27, 48, 17, 17, 14, 33, 45, 31, 50, 25, 43, 8, 40, 30, 41
            |56, 42, 27, 28, 28, 49, 27, 34, 36, 42, 7, 30, 26, 34, 7, 9, 32, 9, 43, 34, 40, 2, 30, 29, 28, 27, 29, 0, 53, 30, 34, 25, 38, 16, 34, 28, 28, 43, 39, 20, 44, 7, 39, 19, 17, 42, 10, 40, 18, 10, 25, 45, 37, 39, 57, 42, 4, 25, 32, 55, 13, 44, 7, 36, 40, 16, 27, 45, 12, 41, 16, 28, 41, 28, 39, 30, 31, 26, 41, 3, 43
            |9, 23, 32, 27, 48, 4, 36, 45, 23, 19, 46, 42, 40, 37, 46, 51, 22, 59, 10, 43, 37, 51, 36, 24, 28, 48, 34, 53, 0, 32, 26, 43, 17, 38, 31, 41, 26, 19, 17, 45, 41, 58, 16, 34, 52, 36, 45, 13, 35, 50, 43, 8, 26, 41, 5, 17, 57, 34, 26, 7, 51, 25, 47, 26, 13, 40, 30, 34, 44, 17, 44, 33, 35, 31, 46, 25, 43, 42, 28, 55, 25
            |38, 35, 28, 23, 43, 30, 4, 44, 9, 32, 24, 11, 9, 39, 25, 33, 12, 38, 23, 43, 13, 27, 35, 16, 23, 42, 3, 30, 32, 0, 30, 37, 15, 21, 5, 37, 21, 33, 26, 35, 48, 36, 16, 15, 39, 44, 19, 20, 15, 22, 37, 26, 33, 15, 36, 15, 33, 5, 6, 36, 35, 38, 27, 7, 20, 27, 25, 45, 18, 15, 15, 30, 43, 29, 48, 22, 41, 10, 38, 30, 38
            |26, 9, 7, 7, 21, 22, 32, 19, 26, 9, 27, 40, 35, 11, 27, 29, 19, 37, 19, 17, 42, 32, 10, 14, 7, 22, 32, 34, 26, 30, 0, 17, 21, 18, 33, 14, 9, 10, 10, 19, 19, 36, 22, 19, 27, 15, 29, 18, 21, 35, 17, 19, 4, 44, 28, 27, 37, 28, 25, 25, 28, 10, 26, 30, 18, 17, 7, 16, 30, 26, 32, 7, 13, 6, 21, 7, 17, 37, 8, 36, 10
            |42, 24, 12, 18, 5, 39, 38, 9, 38, 26, 22, 45, 40, 10, 20, 17, 31, 25, 35, 9, 50, 25, 8, 25, 17, 5, 39, 25, 43, 37, 17, 0, 35, 17, 42, 4, 19, 26, 27, 5, 19, 24, 36, 22, 12, 18, 26, 33, 23, 31, 0, 36, 19, 52, 45, 40, 27, 34, 35, 42, 14, 24, 19, 41, 33, 11, 15, 22, 28, 39, 32, 10, 17, 12, 14, 20, 6, 41, 20, 28, 23
            |23, 24, 23, 17, 40, 14, 20, 40, 7, 20, 31, 26, 24, 33, 32, 38, 6, 46, 8, 38, 23, 36, 30, 11, 18, 40, 18, 38, 17, 15, 21, 35, 0, 24, 16, 34, 16, 21, 13, 35, 40, 44, 1, 19, 41, 36, 29, 5, 20, 34, 35, 11, 24, 27, 21, 5, 42, 18, 9, 21, 39, 26, 33, 11, 5, 28, 20, 35, 28, 4, 27, 26, 34, 24, 43, 16, 37, 26, 28, 40, 27
            |40, 27, 12, 13, 22, 34, 21, 25, 24, 26, 9, 28, 23, 22, 9, 14, 19, 22, 28, 25, 34, 14, 18, 14, 12, 21, 22, 16, 38, 21, 18, 17, 24, 0, 26, 18, 12, 27, 23, 14, 33, 20, 25, 6, 18, 30, 11, 25, 7, 17, 17, 30, 22, 35, 41, 29, 19, 17, 21, 39, 15, 29, 9, 26, 25, 6, 11, 32, 12, 28, 16, 14, 28, 14, 30, 14, 22, 24, 26, 18, 28
            |39, 38, 32, 27, 47, 30, 8, 49, 9, 35, 29, 11, 11, 43, 30, 38, 15, 43, 24, 48, 8, 32, 40, 20, 28, 47, 5, 34, 31, 5, 33, 42, 16, 26, 0, 42, 25, 36, 28, 40, 52, 41, 16, 20, 44, 48, 24, 21, 20, 27, 42, 27, 37, 11, 36, 14, 38, 10, 8, 37, 40, 41, 32, 5, 21, 32, 29, 49, 22, 14, 19, 35, 47, 33, 53, 26, 46, 12, 41, 35, 41
            |39, 20, 10, 16, 7, 37, 38, 7, 37, 23, 24, 45, 40, 7, 23, 20, 30, 28, 33, 7, 50, 27, 4, 23, 16, 7, 39, 28, 41, 37, 14, 4, 34, 18, 42, 0, 18, 23, 24, 8, 16, 28, 35, 23, 15, 15, 28, 31, 24, 34, 4, 33, 16, 52, 42, 39, 30, 34, 35, 39, 18, 21, 21, 40, 31, 13, 14, 18, 30, 38, 34, 8, 14, 10, 12, 18, 4, 42, 16, 31, 20
            |28, 16, 7, 1, 24, 22, 24, 24, 19, 15, 21, 31, 27, 18, 21, 25, 12, 33, 17, 23, 34, 26, 15, 6, 2, 24, 24, 28, 26, 21, 9, 19, 16, 12, 25, 18, 0, 16, 11, 19, 27, 32, 17, 11, 26, 23, 22, 14, 13, 28, 19, 18, 12, 36, 29, 21, 31, 20, 18, 27, 25, 18, 21, 23, 14, 14, 4, 24, 22, 20, 24, 10, 22, 8, 27, 2, 22, 29, 17, 31, 18
            |16, 4, 17, 15, 30, 15, 37, 26, 27, 1, 36, 44, 40, 18, 36, 38, 21, 47, 15, 24, 44, 41, 19, 18, 15, 30, 36, 43, 19, 33, 10, 26, 21, 27, 36, 23, 16, 0, 8, 29, 22, 46, 21, 26, 37, 17, 37, 16, 28, 43, 26, 13, 8, 47, 19, 25, 46, 33, 28, 16, 37, 6, 36, 32, 16, 27, 16, 16, 38, 25, 39, 17, 16, 16, 27, 13, 25, 42, 9, 46, 7
            |18, 11, 15, 11, 31, 13, 29, 29, 20, 7, 32, 37, 33, 21, 31, 35, 14, 44, 9, 27, 36, 37, 20, 11, 11, 31, 29, 39, 17, 26, 10, 27, 13, 23, 28, 24, 11, 8, 0, 28, 27, 42, 14, 21, 36, 23, 32, 9, 22, 38, 27, 9, 11, 39, 19, 18, 42, 26, 20, 16, 35, 13, 32, 24, 9, 24, 13, 22, 32, 18, 33, 16, 21, 15, 31, 8, 27, 35, 14, 41, 13
            |45, 27, 13, 18, 9, 41, 35, 13, 36, 29, 17, 41, 36, 15, 16, 12, 30, 20, 36, 14, 48, 20, 12, 24, 17, 8, 36, 20, 45, 35, 19, 5, 35, 14, 40, 8, 19, 29, 28, 0, 24, 19, 36, 20, 8, 23, 22, 34, 21, 27, 5, 37, 22, 49, 47, 40, 22, 31, 34, 44, 9, 28, 14, 39, 34, 8, 16, 27, 24, 39, 28, 12, 22, 14, 18, 21, 11, 38, 24, 23, 27
            |36, 18, 21, 26, 18, 37, 50, 12, 45, 22, 39, 58, 53, 10, 38, 36, 38, 44, 36, 10, 61, 43, 15, 33, 25, 19, 51, 44, 41, 48, 19, 19, 40, 33, 52, 16, 27, 22, 27, 24, 0, 43, 41, 36, 30, 4, 43, 36, 38, 49, 19, 35, 17, 63, 40, 45, 46, 46, 45, 36, 33, 16, 37, 50, 36, 28, 24, 7, 45, 45, 48, 19, 6, 20, 8, 26, 13, 55, 13, 47, 15
            |60, 44, 29, 32, 26, 54, 34, 32, 42, 45, 13, 37, 33, 34, 12, 8, 38, 2, 48, 33, 47, 9, 31, 34, 31, 25, 36, 7, 58, 36, 36, 24, 44, 20, 41, 28, 32, 46, 42, 19, 43, 0, 45, 25, 14, 42, 17, 45, 24, 17, 24, 50, 39, 46, 61, 48, 5, 31, 39, 59, 10, 46, 11, 43, 45, 19, 30, 46, 19, 47, 23, 30, 41, 31, 37, 34, 30, 33, 42, 8, 45
            |23, 25, 24, 18, 41, 14, 20, 41, 7, 21, 32, 26, 24, 34, 33, 39, 7, 47, 8, 39, 23, 37, 31, 12, 19, 41, 18, 39, 16, 16, 22, 36, 1, 25, 16, 35, 17, 21, 14, 36, 41, 45, 0, 20, 42, 37, 30, 6, 21, 35, 36, 11, 24, 27, 21, 4, 43, 18, 9, 21, 40, 27, 34, 11, 6, 29, 21, 36, 29, 4, 28, 27, 35, 25, 43, 16, 38, 26, 28, 41, 28
            |38, 27, 14, 12, 27, 30, 16, 30, 18, 25, 12, 23, 18, 26, 13, 19, 13, 26, 24, 29, 28, 17, 22, 10, 12, 27, 17, 19, 34, 15, 19, 22, 19, 6, 20, 23, 11, 26, 21, 20, 36, 25, 20, 0, 24, 32, 11, 21, 2, 17, 22, 26, 23, 29, 38, 23, 23, 11, 15, 36, 21, 29, 14, 20, 21, 12, 12, 34, 11, 22, 13, 17, 31, 16, 34, 13, 27, 19, 27, 21, 29
            |53, 35, 21, 26, 12, 48, 38, 18, 42, 36, 17, 44, 39, 22, 16, 9, 36, 14, 43, 20, 52, 18, 19, 30, 25, 11, 40, 17, 52, 39, 27, 12, 41, 18, 44, 15, 26, 37, 36, 8, 30, 14, 42, 24, 0, 30, 23, 41, 25, 26, 12, 44, 30, 52, 55, 46, 18, 34, 39, 52, 5, 35, 14, 44, 41, 13, 23, 34, 25, 45, 30, 20, 29, 22, 23, 28, 17, 40, 31, 20, 35
            |32, 13, 18, 22, 19, 33, 47, 13, 41, 18, 37, 54, 50, 8, 36, 35, 34, 43, 32, 11, 57, 41, 12, 28, 21, 19, 47, 42, 36, 44, 15, 18, 36, 30, 48, 15, 23, 17, 23, 23, 4, 42, 37, 32, 30, 0, 41, 31, 34, 46, 18, 31, 12, 59, 36, 41, 44, 43, 40, 32, 32, 12, 35, 45, 31, 26, 20, 4, 42, 40, 45, 16, 1, 16, 11, 22, 13, 51, 9, 45, 11
            |49, 37, 23, 23, 31, 41, 17, 35, 26, 36, 6, 21, 16, 33, 7, 15, 23, 19, 35, 35, 30, 8, 29, 21, 22, 30, 19, 10, 45, 19, 29, 26, 29, 11, 24, 28, 22, 37, 32, 22, 43, 17, 30, 11, 23, 41, 0, 31, 9, 6, 26, 37, 33, 30, 49, 32, 14, 14, 22, 47, 18, 39, 9, 26, 31, 15, 22, 43, 2, 31, 7, 25, 39, 25, 40, 24, 32, 17, 37, 11, 39
            |19, 19, 21, 15, 38, 10, 24, 37, 12, 15, 33, 31, 28, 29, 33, 38, 9, 46, 4, 35, 29, 38, 27, 11, 16, 38, 23, 40, 13, 20, 18, 33, 5, 25, 21, 31, 14, 16, 9, 34, 36, 45, 6, 21, 41, 31, 31, 0, 22, 37, 33, 6, 19, 32, 17, 10, 43, 22, 14, 17, 39, 21, 34, 17, 0, 28, 18, 31, 31, 9, 30, 23, 30, 21, 39, 13, 34, 30, 23, 42, 22
            |39, 29, 16, 14, 29, 32, 14, 31, 18, 27, 11, 21, 16, 27, 12, 19, 14, 26, 25, 31, 27, 16, 23, 12, 14, 28, 16, 18, 35, 15, 21, 23, 20, 7, 20, 24, 13, 28, 22, 21, 38, 24, 21, 2, 25, 34, 9, 22, 0, 15, 23, 28, 25, 28, 39, 24, 22, 10, 15, 38, 21, 31, 13, 20, 22, 13, 14, 36, 9, 23, 11, 19, 33, 18, 36, 15, 28, 18, 29, 20, 31
            |55, 44, 29, 29, 35, 47, 19, 40, 30, 42, 10, 21, 17, 39, 11, 18, 28, 19, 40, 40, 31, 9, 35, 27, 28, 34, 21, 10, 50, 22, 35, 31, 34, 17, 27, 34, 28, 43, 38, 27, 49, 17, 35, 17, 26, 46, 6, 37, 15, 0, 31, 43, 39, 30, 54, 36, 12, 17, 26, 53, 21, 45, 13, 30, 37, 21, 28, 49, 6, 35, 8, 31, 45, 31, 45, 30, 37, 17, 43, 9, 45
            |42, 24, 12, 18, 5, 39, 38, 9, 38, 26, 22, 45, 40, 10, 20, 17, 31, 25, 35, 9, 50, 25, 8, 25, 17, 5, 39, 25, 43, 37, 17, 0, 35, 17, 42, 4, 19, 26, 27, 5, 19, 24, 36, 22, 12, 18, 26, 33, 23, 31, 0, 36, 19, 52, 45, 40, 27, 34, 35, 42, 14, 24, 19, 41, 33, 11, 15, 22, 28, 39, 32, 10, 17, 12, 14, 20, 6, 41, 20, 28, 23
            |12, 17, 24, 19, 40, 4, 30, 38, 18, 13, 38, 37, 35, 30, 38, 43, 15, 51, 3, 36, 34, 43, 29, 16, 20, 40, 29, 45, 8, 26, 19, 36, 11, 30, 27, 33, 18, 13, 9, 37, 35, 50, 11, 26, 44, 31, 37, 6, 28, 43, 36, 0, 19, 38, 11, 14, 49, 28, 20, 10, 43, 19, 39, 22, 6, 32, 22, 29, 37, 14, 37, 25, 29, 24, 39, 17, 36, 36, 22, 47, 20
            |24, 5, 11, 11, 22, 22, 36, 19, 29, 7, 31, 43, 39, 11, 30, 32, 22, 40, 20, 17, 45, 36, 11, 17, 11, 23, 36, 37, 26, 33, 4, 19, 24, 22, 37, 16, 12, 8, 11, 22, 17, 39, 24, 23, 30, 12, 33, 19, 25, 39, 19, 19, 0, 48, 27, 29, 40, 32, 29, 23, 31, 6, 30, 33, 19, 21, 11, 12, 34, 28, 36, 10, 11, 9, 20, 11, 17, 41, 4, 40, 6
            |49, 50, 42, 38, 57, 40, 14, 59, 20, 46, 35, 9, 13, 54, 37, 45, 26, 48, 35, 58, 4, 37, 50, 31, 38, 56, 13, 39, 41, 15, 44, 52, 27, 35, 11, 52, 36, 47, 39, 49, 63, 46, 27, 29, 52, 59, 30, 32, 28, 30, 52, 38, 48, 0, 46, 24, 42, 18, 19, 47, 48, 52, 39, 16, 32, 41, 40, 60, 28, 24, 23, 45, 58, 44, 63, 37, 56, 13, 52, 39, 52
            |5, 23, 34, 29, 49, 7, 41, 46, 28, 19, 50, 47, 45, 38, 49, 54, 26, 62, 14, 44, 42, 54, 38, 28, 30, 49, 39, 57, 5, 36, 28, 45, 21, 41, 36, 42, 29, 19, 19, 47, 40, 61, 21, 38, 55, 36, 49, 17, 39, 54, 45, 11, 27, 46, 0, 22, 60, 39, 30, 4, 54, 24, 50, 31, 17, 43, 32, 33, 48, 22, 48, 35, 35, 33, 46, 27, 44, 47, 28, 59, 25
            |25, 29, 29, 23, 46, 16, 20, 45, 6, 25, 35, 25, 24, 38, 35, 42, 10, 49, 11, 44, 20, 39, 36, 16, 24, 46, 18, 42, 17, 15, 27, 40, 5, 29, 14, 39, 21, 25, 18, 40, 45, 48, 4, 23, 46, 41, 32, 10, 24, 36, 40, 14, 29, 24, 22, 0, 45, 19, 10, 23, 44, 31, 37, 9, 10, 33, 25, 40, 31, 1, 29, 31, 40, 29, 48, 21, 43, 25, 33, 43, 32
            |60, 45, 30, 32, 29, 53, 30, 35, 39, 45, 11, 33, 29, 36, 11, 10, 36, 7, 47, 36, 43, 6, 33, 33, 31, 28, 32, 4, 57, 33, 37, 27, 42, 19, 38, 30, 31, 46, 42, 22, 46, 5, 43, 23, 18, 44, 14, 43, 22, 12, 27, 49, 40, 42, 60, 45, 0, 28, 36, 58, 13, 47, 10, 40, 43, 19, 30, 48, 15, 44, 19, 31, 44, 31, 40, 34, 33, 29, 43, 3, 46
            |41, 35, 25, 21, 39, 32, 4, 41, 13, 32, 19, 12, 7, 36, 20, 28, 13, 33, 25, 40, 17, 22, 33, 15, 21, 38, 5, 25, 34, 5, 28, 34, 18, 17, 10, 34, 20, 33, 26, 31, 46, 31, 18, 11, 34, 43, 14, 22, 10, 17, 34, 28, 32, 18, 39, 19, 28, 0, 9, 39, 31, 37, 22, 12, 22, 23, 22, 44, 13, 18, 10, 28, 41, 27, 45, 21, 38, 9, 36, 25, 37
            |32, 30, 25, 19, 41, 24, 10, 42, 4, 27, 26, 17, 15, 36, 27, 34, 7, 41, 17, 40, 16, 30, 32, 12, 20, 40, 9, 32, 26, 6, 25, 35, 9, 21, 8, 35, 18, 28, 20, 34, 45, 39, 9, 15, 39, 40, 22, 14, 15, 26, 35, 20, 29, 19, 30, 10, 36, 9, 0, 30, 36, 33, 28, 5, 14, 26, 22, 41, 21, 9, 19, 27, 39, 26, 45, 18, 39, 16, 33, 34, 33
            |2, 19, 31, 27, 46, 7, 41, 42, 28, 16, 48, 47, 45, 34, 48, 52, 25, 60, 13, 40, 43, 53, 34, 26, 28, 46, 39, 55, 7, 36, 25, 42, 21, 39, 37, 39, 27, 16, 16, 44, 36, 59, 21, 36, 52, 32, 47, 17, 38, 53, 42, 10, 23, 47, 4, 23, 58, 39, 30, 0, 51, 20, 48, 32, 17, 40, 29, 29, 47, 23, 47, 32, 31, 30, 42, 25, 41, 47, 24, 57, 21
            |53, 36, 21, 25, 16, 48, 34, 22, 39, 37, 13, 39, 35, 24, 11, 4, 34, 10, 42, 23, 48, 13, 21, 28, 24, 15, 36, 13, 51, 35, 28, 14, 39, 15, 40, 18, 25, 37, 35, 9, 33, 10, 40, 21, 5, 32, 18, 39, 21, 21, 14, 43, 31, 48, 54, 44, 13, 31, 36, 51, 0, 37, 9, 41, 39, 11, 22, 36, 21, 43, 25, 21, 32, 22, 27, 27, 20, 35, 33, 15, 36
            |20, 2, 17, 17, 27, 21, 41, 22, 32, 6, 37, 48, 44, 15, 37, 38, 26, 47, 21, 20, 49, 42, 16, 22, 17, 27, 40, 44, 25, 38, 10, 24, 26, 29, 41, 21, 18, 6, 13, 28, 16, 46, 27, 29, 35, 12, 39, 21, 31, 45, 24, 19, 6, 52, 24, 31, 47, 37, 33, 20, 37, 0, 36, 37, 21, 27, 17, 10, 40, 30, 42, 16, 11, 15, 22, 16, 21, 46, 4, 46, 1
            |50, 35, 19, 21, 22, 43, 25, 27, 32, 35, 4, 30, 26, 27, 2, 6, 27, 13, 37, 28, 39, 6, 23, 23, 21, 21, 27, 7, 47, 27, 26, 19, 33, 9, 32, 21, 21, 36, 32, 14, 37, 11, 34, 14, 14, 35, 9, 34, 13, 13, 19, 39, 30, 39, 50, 37, 10, 22, 28, 48, 9, 36, 0, 33, 34, 9, 20, 38, 12, 36, 16, 21, 34, 21, 32, 23, 25, 26, 33, 10, 36
            |34, 35, 30, 24, 46, 25, 11, 47, 4, 31, 30, 16, 15, 41, 31, 39, 11, 45, 19, 46, 12, 34, 38, 17, 25, 46, 9, 36, 26, 7, 30, 41, 11, 26, 5, 40, 23, 32, 24, 39, 50, 43, 11, 20, 44, 45, 26, 17, 20, 30, 41, 22, 33, 16, 31, 9, 40, 12, 5, 32, 41, 37, 33, 0, 17, 32, 27, 45, 25, 9, 22, 33, 44, 31, 50, 23, 44, 17, 38, 37, 37
            |19, 19, 21, 15, 38, 10, 24, 37, 12, 15, 33, 31, 28, 29, 33, 38, 9, 46, 4, 35, 29, 38, 27, 11, 16, 38, 23, 40, 13, 20, 18, 33, 5, 25, 21, 31, 14, 16, 9, 34, 36, 45, 6, 21, 41, 31, 31, 0, 22, 37, 33, 6, 19, 32, 17, 10, 43, 22, 14, 17, 39, 21, 34, 17, 0, 28, 18, 31, 31, 9, 30, 23, 30, 21, 39, 13, 34, 30, 23, 42, 22
            |42, 26, 10, 14, 16, 36, 27, 20, 29, 26, 11, 33, 28, 18, 10, 11, 23, 20, 31, 20, 40, 15, 14, 17, 13, 16, 28, 16, 40, 27, 17, 11, 28, 6, 32, 13, 14, 27, 24, 8, 28, 19, 29, 12, 13, 26, 15, 28, 13, 21, 11, 32, 21, 41, 43, 33, 19, 23, 26, 40, 11, 27, 9, 32, 28, 0, 11, 29, 17, 32, 21, 11, 25, 12, 25, 16, 17, 30, 24, 19, 27
            |30, 16, 3, 3, 20, 25, 27, 20, 23, 15, 20, 34, 30, 14, 20, 23, 16, 31, 21, 19, 38, 25, 11, 10, 2, 20, 27, 27, 30, 25, 7, 15, 20, 11, 29, 14, 4, 16, 13, 16, 24, 30, 21, 12, 23, 20, 22, 18, 14, 28, 15, 22, 11, 40, 32, 25, 30, 22, 22, 29, 22, 17, 20, 27, 18, 11, 0, 22, 23, 25, 25, 6, 19, 4, 24, 5, 17, 31, 15, 30, 17
            |29, 12, 20, 23, 23, 31, 48, 17, 41, 16, 40, 55, 51, 12, 39, 38, 34, 46, 31, 15, 57, 44, 15, 29, 22, 24, 48, 45, 34, 45, 16, 22, 35, 32, 49, 18, 24, 16, 22, 27, 7, 46, 36, 34, 34, 4, 43, 31, 36, 49, 22, 29, 12, 60, 33, 40, 48, 44, 41, 29, 36, 10, 38, 45, 31, 29, 22, 0, 44, 40, 47, 18, 4, 18, 15, 23, 17, 53, 8, 48, 9
            |49, 38, 24, 23, 33, 41, 15, 37, 25, 37, 8, 19, 14, 34, 9, 17, 23, 21, 34, 37, 28, 10, 30, 21, 23, 32, 17, 12, 44, 18, 30, 28, 28, 12, 22, 30, 22, 38, 32, 24, 45, 19, 29, 11, 25, 42, 2, 31, 9, 6, 28, 37, 34, 28, 48, 31, 15, 13, 21, 47, 21, 40, 12, 25, 31, 17, 23, 44, 0, 30, 4, 26, 41, 26, 42, 25, 34, 15, 38, 13, 40
            |25, 28, 28, 22, 45, 16, 19, 44, 6, 24, 34, 25, 23, 37, 35, 41, 9, 48, 11, 43, 20, 38, 35, 15, 23, 45, 17, 41, 17, 15, 26, 39, 4, 28, 14, 38, 20, 25, 18, 39, 45, 47, 4, 22, 45, 40, 31, 9, 23, 35, 39, 14, 28, 24, 22, 1, 44, 18, 9, 23, 43, 30, 36, 9, 9, 32, 25, 40, 30, 0, 28, 30, 39, 28, 47, 20, 42, 25, 32, 42, 31
            |49, 40, 27, 25, 37, 41, 11, 40, 23, 38, 13, 15, 10, 38, 14, 22, 22, 25, 34, 40, 24, 14, 34, 22, 25, 36, 14, 16, 44, 15, 32, 32, 27, 16, 19, 34, 24, 39, 33, 28, 48, 23, 28, 13, 30, 45, 7, 30, 11, 8, 32, 37, 36, 23, 48, 29, 19, 10, 19, 47, 25, 42, 16, 22, 30, 21, 25, 47, 4, 28, 0, 29, 44, 29, 45, 26, 38, 10, 40, 16, 42
            |33, 15, 3, 9, 15, 29, 32, 14, 29, 16, 22, 39, 35, 9, 21, 22, 22, 31, 25, 13, 43, 26, 5, 16, 8, 15, 33, 28, 33, 30, 7, 10, 26, 14, 35, 8, 10, 17, 16, 12, 19, 30, 27, 17, 20, 16, 25, 23, 19, 31, 10, 25, 10, 45, 35, 31, 31, 28, 27, 32, 21, 16, 21, 33, 23, 11, 6, 18, 26, 30, 29, 0, 14, 2, 18, 10, 12, 36, 13, 31, 16
            |31, 12, 17, 20, 18, 32, 45, 13, 40, 16, 36, 53, 48, 7, 35, 34, 33, 42, 30, 11, 55, 40, 11, 27, 20, 19, 45, 41, 35, 43, 13, 17, 34, 28, 47, 14, 22, 16, 21, 22, 6, 41, 35, 31, 29, 1, 39, 30, 33, 45, 17, 29, 11, 58, 35, 40, 44, 41, 39, 31, 32, 11, 34, 44, 30, 25, 19, 4, 41, 39, 44, 14, 0, 15, 11, 21, 13, 50, 7, 44, 10
            |31, 14, 2, 7, 17, 27, 31, 16, 27, 15, 22, 38, 34, 10, 22, 23, 20, 32, 23, 15, 42, 27, 7, 14, 6, 17, 31, 28, 31, 29, 6, 12, 24, 14, 33, 10, 8, 16, 15, 14, 20, 31, 25, 16, 22, 16, 25, 21, 18, 31, 12, 24, 9, 44, 33, 29, 31, 27, 26, 30, 22, 15, 21, 31, 21, 12, 4, 18, 26, 28, 29, 2, 15, 0, 19, 8, 14, 35, 12, 31, 15
            |42, 23, 21, 26, 11, 42, 50, 5, 47, 27, 35, 57, 52, 10, 34, 30, 39, 37, 40, 5, 61, 38, 13, 33, 25, 12, 50, 39, 46, 48, 21, 14, 43, 30, 53, 12, 27, 27, 31, 18, 8, 37, 43, 34, 23, 11, 40, 39, 36, 45, 14, 39, 20, 63, 46, 48, 40, 45, 45, 42, 27, 22, 32, 50, 39, 25, 24, 15, 42, 47, 45, 18, 11, 19, 0, 27, 8, 53, 18, 42, 21
            |26, 14, 8, 2, 25, 21, 25, 24, 19, 12, 23, 33, 28, 17, 23, 27, 12, 35, 16, 23, 35, 28, 15, 6, 3, 25, 25, 30, 25, 22, 7, 20, 16, 14, 26, 18, 2, 13, 8, 21, 26, 34, 16, 13, 28, 22, 24, 13, 15, 30, 20, 17, 11, 37, 27, 21, 34, 21, 18, 25, 27, 16, 23, 23, 13, 16, 5, 23, 25, 20, 26, 10, 21, 8, 27, 0, 22, 30, 15, 33, 16
            |41, 22, 14, 20, 6, 39, 42, 3, 41, 25, 28, 50, 45, 7, 26, 23, 34, 30, 36, 3, 54, 31, 7, 27, 19, 6, 43, 31, 43, 41, 17, 6, 37, 22, 46, 4, 22, 25, 27, 11, 13, 30, 38, 27, 17, 13, 32, 34, 28, 37, 6, 36, 17, 56, 44, 43, 33, 38, 39, 41, 20, 21, 25, 44, 34, 17, 17, 17, 34, 42, 38, 12, 13, 14, 8, 22, 0, 46, 17, 34, 21
            |49, 44, 34, 30, 46, 40, 6, 49, 19, 41, 23, 4, 2, 45, 24, 32, 22, 35, 34, 48, 14, 25, 41, 25, 30, 45, 8, 26, 42, 10, 37, 41, 26, 24, 12, 42, 29, 42, 35, 38, 55, 33, 26, 19, 40, 51, 17, 30, 18, 17, 41, 36, 41, 13, 47, 25, 29, 9, 16, 47, 35, 46, 26, 17, 30, 30, 31, 53, 15, 25, 10, 36, 50, 35, 53, 30, 46, 0, 46, 26, 47
            |25, 5, 14, 16, 22, 24, 40, 18, 33, 9, 35, 48, 44, 10, 34, 34, 26, 43, 23, 16, 49, 39, 12, 21, 15, 23, 40, 41, 28, 38, 8, 20, 28, 26, 41, 16, 17, 9, 14, 24, 13, 42, 28, 27, 31, 9, 37, 23, 29, 43, 20, 22, 4, 52, 28, 33, 43, 36, 33, 24, 33, 4, 33, 38, 23, 24, 15, 8, 38, 32, 40, 13, 7, 12, 18, 15, 17, 46, 0, 43, 4
            |59, 45, 29, 31, 31, 52, 27, 36, 37, 45, 9, 30, 26, 37, 10, 12, 34, 10, 45, 37, 40, 4, 33, 31, 30, 30, 30, 3, 55, 30, 36, 28, 40, 18, 35, 31, 31, 46, 41, 23, 47, 8, 41, 21, 20, 45, 11, 42, 20, 9, 28, 47, 40, 39, 59, 43, 3, 25, 34, 57, 15, 46, 10, 37, 42, 19, 30, 48, 13, 42, 16, 31, 44, 31, 42, 33, 34, 26, 43, 0, 46
            |21, 3, 17, 17, 26, 22, 41, 22, 33, 7, 37, 49, 45, 14, 36, 38, 26, 46, 22, 19, 49, 42, 16, 22, 17, 27, 41, 43, 25, 38, 10, 23, 27, 28, 41, 20, 18, 7, 13, 27, 15, 45, 28, 29, 35, 11, 39, 22, 31, 45, 23, 20, 6, 52, 25, 32, 46, 37, 33, 21, 36, 1, 36, 37, 22, 27, 17, 9, 40, 31, 42, 16, 10, 15, 21, 16, 21, 47, 4, 46, 0|];
early = [0, 0, 149, 172, 479, 0, 324, 29, 594, 25, 96, 357, 352, 226, 125, 71, 467, 131, 0, 640, 447, 43, 182, 165, 234, 166, 338, 51, 0, 342, 231, 179, 0, 155, 338, 20, 211, 7, 0, 58, 21, 119, 0, 230, 63, 215, 240, 0, 339, 259, 93, 0, 0, 321, 0, 417, 63, 299, 423, 0, 162, 189, 49, 350, 0, 95, 226, 25, 509, 0, 276, 133, 13, 310, 8, 176, 2, 388, 48, 43, 493];
late = [810, 163, 342, 364, 703, 172, 581, 225, 776, 232, 279, 572, 589, 488, 357, 254, 640, 343, 132, 770, 634, 275, 390, 420, 379, 399, 512, 279, 70, 530, 438, 394, 152, 316, 512, 255, 375, 180, 134, 282, 239, 315, 180, 478, 280, 469, 483, 140, 472, 534, 223, 84, 176, 564, 126, 657, 270, 492, 635, 163, 364, 413, 264, 607, 140, 328, 356, 210, 684, 205, 539, 427, 231, 492, 269, 444, 233, 604, 252, 294, 716];