% n80w140.001	   38.66 744
n = 81;
duration = [|0, 8, 28, 27, 13, 4, 12, 2, 34, 22, 24, 32, 30, 20, 26, 15, 25, 11, 18, 17, 16, 17, 15, 32, 16, 28, 21, 23, 30, 32, 24, 12, 10, 18, 9, 24, 21, 14, 9, 21, 30, 27, 21, 24, 15, 28, 16, 15, 32, 19, 19, 14, 11, 9, 16, 29, 5, 32, 37, 12, 15, 24, 21, 10, 27, 11, 20, 32, 30, 30, 23, 28, 19, 11, 26, 26, 21, 35, 30, 14, 27
            |8, 0, 21, 28, 19, 9, 16, 8, 27, 23, 23, 25, 23, 20, 28, 10, 25, 18, 25, 25, 11, 13, 19, 28, 17, 21, 16, 31, 28, 25, 26, 13, 2, 21, 12, 17, 17, 19, 16, 29, 23, 20, 14, 30, 10, 32, 20, 14, 25, 17, 27, 21, 5, 16, 23, 21, 12, 25, 30, 6, 22, 32, 19, 9, 22, 7, 15, 25, 23, 31, 27, 27, 19, 9, 24, 23, 22, 31, 23, 8, 22
            |28, 21, 0, 40, 38, 29, 34, 28, 17, 36, 32, 17, 7, 32, 41, 18, 35, 39, 45, 45, 19, 20, 35, 26, 31, 10, 20, 51, 32, 9, 40, 29, 18, 35, 29, 12, 21, 37, 35, 49, 13, 1, 7, 48, 19, 46, 36, 26, 11, 25, 47, 41, 19, 37, 43, 1, 33, 14, 11, 18, 43, 52, 26, 25, 16, 21, 19, 5, 14, 43, 42, 36, 30, 24, 27, 28, 35, 30, 14, 17, 19
            |27, 28, 40, 0, 20, 31, 16, 30, 31, 5, 51, 29, 36, 8, 4, 38, 52, 31, 26, 28, 21, 41, 42, 56, 12, 32, 45, 39, 56, 36, 5, 39, 29, 9, 18, 44, 19, 17, 35, 37, 49, 39, 34, 47, 38, 9, 43, 41, 34, 14, 35, 36, 33, 28, 35, 41, 30, 32, 42, 34, 35, 41, 47, 19, 26, 22, 20, 45, 30, 3, 9, 5, 10, 37, 52, 51, 48, 59, 30, 36, 50
            |13, 19, 38, 20, 0, 16, 6, 15, 39, 15, 36, 37, 38, 16, 17, 28, 36, 11, 8, 9, 21, 30, 24, 45, 12, 35, 34, 19, 42, 40, 15, 23, 21, 11, 10, 36, 24, 3, 17, 17, 42, 37, 31, 27, 28, 17, 25, 27, 39, 20, 15, 16, 24, 9, 15, 39, 13, 38, 46, 25, 15, 21, 34, 14, 32, 18, 24, 43, 36, 21, 13, 23, 17, 24, 39, 38, 31, 48, 36, 27, 40
            |4, 9, 29, 31, 16, 0, 16, 2, 36, 26, 21, 34, 32, 24, 30, 14, 21, 10, 19, 18, 19, 15, 11, 29, 20, 30, 18, 22, 26, 34, 28, 8, 11, 22, 14, 23, 25, 17, 6, 20, 29, 28, 23, 21, 13, 32, 12, 12, 34, 23, 19, 12, 11, 9, 14, 30, 4, 34, 39, 12, 13, 23, 18, 14, 30, 15, 23, 33, 32, 34, 27, 32, 23, 8, 23, 22, 17, 32, 32, 13, 25
            |12, 16, 34, 16, 6, 16, 0, 14, 33, 11, 36, 31, 33, 10, 14, 26, 37, 15, 13, 14, 16, 28, 26, 43, 7, 30, 32, 25, 42, 35, 12, 24, 18, 7, 5, 34, 19, 3, 19, 22, 39, 33, 27, 31, 26, 16, 27, 27, 34, 14, 20, 20, 21, 12, 19, 35, 14, 33, 41, 22, 19, 26, 33, 9, 27, 13, 18, 39, 30, 18, 11, 18, 11, 23, 38, 38, 32, 46, 30, 24, 38
            |2, 8, 28, 30, 15, 2, 14, 0, 35, 24, 22, 33, 30, 22, 28, 14, 22, 11, 19, 18, 17, 16, 13, 30, 18, 28, 19, 23, 28, 33, 26, 9, 10, 21, 12, 23, 23, 16, 8, 21, 29, 27, 22, 22, 13, 30, 14, 13, 33, 21, 19, 13, 10, 9, 15, 29, 4, 33, 38, 11, 14, 24, 19, 12, 29, 13, 21, 32, 31, 32, 25, 30, 21, 9, 24, 24, 18, 33, 31, 13, 26
            |34, 27, 17, 31, 39, 36, 33, 35, 0, 30, 46, 2, 10, 26, 33, 30, 49, 44, 47, 47, 18, 33, 46, 43, 28, 8, 35, 56, 48, 9, 34, 40, 25, 31, 29, 28, 15, 36, 43, 54, 30, 17, 17, 57, 32, 39, 47, 38, 6, 20, 52, 48, 28, 41, 49, 18, 39, 3, 13, 28, 48, 57, 40, 25, 6, 23, 15, 21, 4, 34, 37, 26, 24, 35, 43, 43, 48, 47, 4, 29, 36
            |22, 23, 36, 5, 15, 26, 11, 24, 30, 0, 46, 28, 33, 4, 4, 33, 47, 26, 22, 23, 17, 36, 37, 51, 6, 29, 40, 34, 51, 34, 4, 34, 24, 4, 13, 39, 16, 12, 30, 32, 44, 35, 30, 42, 33, 10, 38, 36, 32, 11, 30, 31, 28, 23, 30, 37, 25, 30, 40, 29, 30, 36, 42, 14, 24, 17, 17, 41, 28, 8, 8, 8, 6, 32, 47, 46, 43, 54, 28, 31, 45
            |24, 23, 32, 51, 36, 21, 36, 22, 46, 46, 0, 45, 38, 43, 50, 16, 3, 27, 38, 36, 34, 13, 14, 14, 39, 38, 12, 35, 6, 40, 48, 13, 24, 42, 33, 20, 40, 37, 21, 34, 23, 32, 29, 24, 15, 52, 13, 10, 42, 40, 34, 25, 19, 28, 28, 31, 23, 43, 43, 19, 28, 34, 6, 32, 42, 31, 38, 32, 42, 54, 48, 51, 42, 14, 7, 6, 7, 14, 42, 18, 16
            |32, 25, 17, 29, 37, 34, 31, 33, 2, 28, 45, 0, 10, 24, 31, 29, 47, 42, 44, 45, 16, 32, 44, 42, 25, 7, 34, 54, 47, 9, 32, 38, 24, 29, 27, 28, 13, 34, 41, 52, 30, 17, 16, 55, 30, 37, 45, 37, 6, 17, 49, 46, 27, 39, 47, 18, 37, 4, 14, 27, 46, 55, 39, 23, 4, 21, 13, 21, 3, 32, 35, 24, 22, 33, 42, 42, 46, 46, 3, 27, 35
            |30, 23, 7, 36, 38, 32, 33, 30, 10, 33, 38, 10, 0, 29, 37, 23, 41, 41, 46, 46, 17, 25, 40, 33, 29, 4, 26, 53, 39, 2, 37, 33, 21, 33, 28, 19, 17, 36, 38, 51, 20, 7, 9, 52, 24, 43, 40, 31, 4, 22, 49, 44, 22, 38, 46, 9, 35, 7, 8, 22, 45, 54, 32, 24, 10, 21, 16, 11, 7, 39, 40, 31, 27, 28, 34, 34, 40, 37, 7, 21, 26
            |20, 20, 32, 8, 16, 24, 10, 22, 26, 4, 43, 24, 29, 0, 9, 30, 44, 25, 23, 24, 13, 33, 35, 47, 4, 25, 36, 35, 48, 30, 8, 31, 21, 5, 10, 35, 12, 13, 28, 33, 40, 31, 26, 41, 30, 14, 36, 33, 28, 7, 30, 30, 25, 22, 30, 33, 23, 26, 36, 25, 30, 37, 39, 11, 20, 13, 13, 37, 24, 11, 11, 8, 2, 29, 44, 43, 40, 51, 24, 28, 41
            |26, 28, 41, 4, 17, 30, 14, 28, 33, 4, 50, 31, 37, 9, 0, 38, 50, 28, 23, 24, 22, 40, 40, 55, 11, 33, 44, 36, 55, 38, 2, 37, 28, 7, 16, 44, 20, 14, 33, 33, 49, 40, 34, 44, 37, 6, 41, 40, 36, 15, 31, 33, 33, 25, 32, 42, 28, 34, 44, 33, 32, 37, 46, 18, 28, 22, 21, 46, 32, 4, 6, 9, 10, 36, 51, 50, 46, 59, 32, 35, 49
            |15, 10, 18, 38, 28, 14, 26, 14, 30, 33, 16, 29, 23, 30, 38, 0, 18, 24, 33, 32, 19, 3, 18, 18, 27, 23, 6, 35, 19, 25, 36, 11, 9, 31, 22, 9, 24, 28, 19, 34, 15, 17, 14, 31, 1, 42, 18, 8, 26, 26, 33, 25, 5, 23, 28, 18, 18, 28, 29, 4, 27, 36, 10, 19, 26, 16, 22, 20, 26, 41, 37, 37, 28, 7, 14, 14, 17, 21, 26, 2, 12
            |25, 25, 35, 52, 36, 21, 37, 22, 49, 47, 3, 47, 41, 44, 50, 18, 0, 27, 37, 36, 36, 15, 13, 16, 40, 41, 14, 33, 8, 43, 49, 13, 25, 43, 34, 23, 41, 38, 20, 33, 26, 34, 32, 22, 17, 53, 12, 11, 44, 41, 32, 24, 21, 28, 27, 34, 23, 46, 46, 21, 26, 33, 9, 33, 44, 32, 39, 35, 44, 54, 48, 52, 43, 16, 9, 9, 5, 16, 44, 20, 18
            |11, 18, 39, 31, 11, 10, 15, 11, 44, 26, 27, 42, 41, 25, 28, 24, 27, 0, 11, 9, 26, 25, 14, 38, 21, 38, 28, 12, 34, 43, 26, 16, 21, 22, 16, 33, 31, 14, 7, 10, 39, 38, 32, 16, 23, 29, 15, 20, 43, 27, 9, 5, 21, 3, 5, 39, 6, 42, 48, 22, 4, 13, 27, 19, 38, 21, 29, 43, 40, 32, 24, 33, 26, 18, 32, 31, 21, 40, 40, 24, 35
            |18, 25, 45, 26, 8, 19, 13, 19, 47, 22, 38, 44, 46, 23, 23, 33, 37, 11, 0, 2, 29, 35, 25, 48, 20, 42, 38, 13, 44, 47, 21, 26, 27, 18, 17, 42, 32, 11, 17, 11, 48, 44, 38, 24, 32, 21, 26, 31, 47, 28, 9, 14, 29, 10, 12, 46, 16, 46, 53, 30, 12, 15, 37, 21, 40, 25, 32, 50, 44, 26, 17, 30, 24, 28, 42, 41, 32, 51, 44, 32, 45
            |17, 25, 45, 28, 9, 18, 14, 18, 47, 23, 36, 45, 46, 24, 24, 32, 36, 9, 2, 0, 29, 33, 23, 47, 21, 43, 36, 11, 42, 47, 22, 24, 27, 20, 18, 41, 33, 12, 16, 9, 47, 44, 38, 22, 31, 23, 24, 29, 47, 28, 7, 12, 28, 9, 9, 46, 14, 46, 53, 29, 10, 13, 36, 22, 41, 25, 32, 49, 44, 28, 19, 31, 25, 26, 40, 40, 30, 49, 44, 31, 43
            |16, 11, 19, 21, 21, 19, 16, 17, 18, 17, 34, 16, 17, 13, 22, 19, 36, 26, 29, 29, 0, 22, 29, 36, 12, 14, 25, 37, 38, 19, 21, 24, 10, 16, 11, 23, 6, 19, 25, 35, 27, 18, 13, 39, 19, 27, 30, 24, 18, 7, 33, 30, 15, 23, 31, 20, 21, 17, 25, 15, 30, 39, 29, 7, 12, 4, 4, 25, 15, 24, 23, 18, 11, 20, 33, 33, 33, 40, 15, 17, 29
            |17, 13, 20, 41, 30, 15, 28, 16, 33, 36, 13, 32, 25, 33, 40, 3, 15, 25, 35, 33, 22, 0, 17, 15, 30, 25, 4, 36, 16, 28, 39, 11, 12, 33, 24, 9, 28, 30, 19, 34, 15, 19, 16, 30, 3, 44, 17, 6, 29, 29, 33, 25, 8, 24, 28, 19, 19, 30, 31, 7, 27, 36, 7, 22, 29, 19, 25, 21, 29, 44, 39, 40, 31, 7, 11, 11, 15, 18, 29, 5, 10
            |15, 19, 35, 42, 24, 11, 26, 13, 46, 37, 14, 44, 40, 35, 40, 18, 13, 14, 25, 23, 29, 17, 0, 26, 31, 38, 18, 21, 20, 42, 38, 6, 20, 33, 25, 26, 35, 26, 8, 20, 31, 35, 30, 13, 16, 42, 1, 10, 43, 34, 20, 12, 17, 16, 15, 35, 12, 43, 46, 18, 14, 21, 15, 25, 40, 25, 34, 38, 42, 44, 37, 43, 34, 11, 19, 18, 7, 27, 42, 18, 25
            |32, 28, 26, 56, 45, 29, 43, 30, 43, 51, 14, 42, 33, 47, 55, 18, 16, 38, 48, 47, 36, 15, 26, 0, 45, 35, 11, 47, 9, 35, 54, 23, 27, 48, 39, 15, 41, 45, 32, 46, 14, 26, 27, 38, 18, 59, 26, 18, 37, 43, 45, 37, 23, 38, 40, 25, 33, 40, 36, 22, 39, 47, 11, 37, 40, 34, 39, 24, 39, 59, 54, 54, 46, 21, 7, 8, 20, 4, 39, 20, 7
            |16, 17, 31, 12, 12, 20, 7, 18, 28, 6, 39, 25, 29, 4, 11, 27, 40, 21, 20, 21, 12, 30, 31, 45, 0, 25, 33, 31, 44, 30, 9, 27, 18, 4, 6, 33, 13, 9, 24, 29, 38, 30, 25, 37, 27, 15, 32, 30, 29, 8, 27, 26, 22, 18, 26, 32, 19, 28, 36, 23, 26, 33, 36, 8, 22, 11, 13, 36, 25, 14, 11, 12, 4, 25, 40, 40, 36, 48, 25, 25, 39
            |28, 21, 10, 32, 35, 30, 30, 28, 8, 29, 38, 7, 4, 25, 33, 23, 41, 38, 42, 43, 14, 25, 38, 35, 25, 0, 27, 50, 40, 5, 33, 32, 19, 29, 25, 20, 13, 33, 36, 48, 22, 9, 9, 50, 24, 39, 39, 30, 4, 18, 46, 42, 21, 36, 43, 11, 33, 5, 11, 21, 42, 52, 32, 21, 6, 17, 12, 15, 4, 35, 36, 27, 23, 27, 35, 35, 40, 39, 4, 21, 28
            |21, 16, 20, 45, 34, 18, 32, 19, 35, 40, 12, 34, 26, 36, 44, 6, 14, 28, 38, 36, 25, 4, 18, 11, 33, 27, 0, 38, 13, 29, 43, 13, 16, 37, 28, 9, 30, 34, 22, 37, 13, 20, 18, 31, 6, 48, 19, 8, 30, 32, 36, 28, 11, 27, 31, 20, 22, 32, 31, 11, 30, 39, 5, 25, 31, 23, 28, 21, 31, 47, 43, 43, 35, 10, 8, 8, 16, 15, 31, 9, 7
            |23, 31, 51, 39, 19, 22, 25, 23, 56, 34, 35, 54, 53, 35, 36, 35, 33, 12, 13, 11, 37, 36, 21, 47, 31, 50, 38, 0, 41, 55, 34, 25, 33, 31, 27, 45, 42, 22, 16, 2, 50, 50, 44, 13, 34, 34, 21, 30, 55, 38, 4, 10, 33, 15, 8, 51, 18, 54, 60, 34, 9, 2, 36, 30, 50, 33, 41, 55, 52, 39, 30, 42, 36, 29, 40, 39, 28, 48, 52, 35, 45
            |30, 28, 32, 56, 42, 26, 42, 28, 48, 51, 6, 47, 39, 48, 55, 19, 8, 34, 44, 42, 38, 16, 20, 9, 44, 40, 13, 41, 0, 41, 53, 19, 28, 48, 38, 20, 43, 43, 27, 40, 22, 32, 31, 30, 18, 58, 20, 15, 43, 44, 40, 32, 23, 34, 35, 32, 29, 45, 43, 23, 34, 40, 9, 37, 44, 35, 41, 32, 44, 59, 53, 55, 47, 19, 5, 5, 13, 8, 44, 21, 14
            |32, 25, 9, 36, 40, 34, 35, 33, 9, 34, 40, 9, 2, 30, 38, 25, 43, 43, 47, 47, 19, 28, 42, 35, 30, 5, 29, 55, 41, 0, 38, 36, 23, 34, 30, 21, 18, 38, 40, 53, 22, 9, 12, 54, 26, 44, 43, 33, 3, 23, 51, 46, 24, 40, 48, 10, 37, 6, 6, 24, 47, 56, 34, 26, 10, 22, 17, 13, 7, 39, 41, 32, 28, 31, 36, 36, 43, 39, 7, 24, 28
            |24, 26, 40, 5, 15, 28, 12, 26, 34, 4, 48, 32, 37, 8, 2, 36, 49, 26, 21, 22, 21, 39, 38, 54, 9, 33, 43, 34, 53, 38, 0, 36, 27, 6, 15, 43, 20, 12, 31, 31, 48, 39, 34, 42, 36, 6, 39, 38, 36, 15, 29, 31, 31, 24, 30, 41, 26, 34, 44, 32, 30, 36, 45, 17, 28, 21, 21, 45, 32, 6, 4, 10, 10, 34, 50, 49, 44, 57, 32, 34, 48
            |12, 13, 29, 39, 23, 8, 24, 9, 40, 34, 13, 38, 33, 31, 37, 11, 13, 16, 26, 24, 24, 11, 6, 23, 27, 32, 13, 25, 19, 36, 36, 0, 14, 30, 21, 20, 30, 25, 9, 24, 26, 28, 24, 19, 10, 40, 7, 5, 36, 29, 23, 15, 11, 16, 18, 29, 11, 37, 40, 12, 17, 25, 11, 21, 34, 20, 28, 31, 35, 41, 35, 39, 30, 5, 16, 15, 9, 25, 35, 12, 20
            |10, 2, 18, 29, 21, 11, 18, 10, 25, 24, 24, 24, 21, 21, 28, 9, 25, 21, 27, 27, 10, 12, 20, 27, 18, 19, 16, 33, 28, 23, 27, 14, 0, 22, 13, 16, 16, 20, 18, 31, 22, 17, 12, 32, 9, 33, 21, 14, 23, 17, 29, 23, 4, 18, 25, 19, 14, 23, 28, 5, 24, 34, 19, 10, 20, 7, 14, 23, 21, 32, 28, 27, 19, 10, 23, 23, 23, 30, 21, 7, 21
            |18, 21, 35, 9, 11, 22, 7, 21, 31, 4, 42, 29, 33, 5, 7, 31, 43, 22, 18, 20, 16, 33, 33, 48, 4, 29, 37, 31, 48, 34, 6, 30, 22, 0, 9, 37, 16, 8, 26, 28, 43, 34, 29, 38, 30, 11, 34, 33, 33, 11, 26, 27, 26, 19, 26, 36, 21, 31, 40, 26, 26, 33, 39, 12, 25, 15, 17, 41, 29, 11, 7, 11, 7, 28, 44, 43, 39, 52, 29, 29, 42
            |9, 12, 29, 18, 10, 14, 5, 12, 29, 13, 33, 27, 28, 10, 16, 22, 34, 16, 17, 18, 11, 24, 25, 39, 6, 25, 28, 27, 38, 30, 15, 21, 13, 9, 0, 29, 15, 8, 18, 25, 34, 28, 22, 32, 21, 20, 25, 24, 29, 11, 23, 21, 17, 13, 21, 30, 13, 28, 36, 17, 21, 29, 30, 4, 23, 8, 14, 34, 26, 20, 15, 18, 10, 19, 35, 34, 30, 43, 26, 20, 34
            |24, 17, 12, 44, 36, 23, 34, 23, 28, 39, 20, 28, 19, 35, 44, 9, 23, 33, 42, 41, 23, 9, 26, 15, 33, 20, 9, 45, 20, 21, 43, 20, 16, 37, 29, 0, 27, 36, 28, 43, 6, 12, 12, 39, 10, 48, 27, 16, 23, 30, 42, 34, 13, 32, 37, 11, 27, 25, 23, 12, 36, 45, 14, 25, 26, 22, 25, 12, 25, 47, 44, 41, 34, 16, 15, 16, 24, 19, 25, 10, 7
            |21, 17, 21, 19, 24, 25, 19, 23, 15, 16, 40, 13, 17, 12, 20, 24, 41, 31, 32, 33, 6, 28, 35, 41, 13, 13, 30, 42, 43, 18, 20, 30, 16, 16, 15, 27, 0, 22, 31, 40, 31, 20, 16, 45, 25, 26, 36, 30, 16, 5, 38, 35, 20, 27, 36, 22, 26, 15, 24, 21, 35, 44, 34, 12, 9, 10, 2, 26, 12, 22, 23, 15, 10, 26, 39, 38, 39, 45, 12, 22, 34
            |14, 19, 37, 17, 3, 17, 3, 16, 36, 12, 37, 34, 36, 13, 14, 28, 38, 14, 11, 12, 19, 30, 26, 45, 9, 33, 34, 22, 43, 38, 12, 25, 20, 8, 8, 36, 22, 0, 19, 20, 42, 36, 30, 30, 28, 15, 27, 28, 37, 17, 18, 19, 23, 11, 18, 38, 14, 36, 44, 24, 18, 24, 35, 12, 30, 16, 21, 42, 34, 18, 10, 20, 14, 24, 40, 39, 33, 48, 34, 27, 40
            |9, 16, 35, 35, 17, 6, 19, 8, 43, 30, 21, 41, 38, 28, 33, 19, 20, 7, 17, 16, 25, 19, 8, 32, 24, 36, 22, 16, 27, 40, 31, 9, 18, 26, 18, 28, 31, 19, 0, 15, 34, 34, 29, 14, 18, 34, 9, 14, 40, 28, 14, 6, 17, 8, 9, 36, 5, 41, 45, 17, 8, 17, 20, 19, 37, 21, 29, 38, 39, 37, 29, 36, 28, 12, 25, 24, 15, 34, 39, 19, 29
            |21, 29, 49, 37, 17, 20, 22, 21, 54, 32, 34, 52, 51, 33, 33, 34, 33, 10, 11, 9, 35, 34, 20, 46, 29, 48, 37, 2, 40, 53, 31, 24, 31, 28, 25, 43, 40, 20, 15, 0, 49, 48, 43, 14, 33, 32, 21, 29, 53, 36, 2, 9, 31, 13, 6, 50, 17, 52, 59, 32, 7, 4, 35, 28, 47, 31, 39, 53, 50, 37, 28, 40, 34, 27, 39, 38, 27, 48, 50, 34, 44
            |30, 23, 13, 49, 42, 29, 39, 29, 30, 44, 23, 30, 20, 40, 49, 15, 26, 39, 48, 47, 27, 15, 31, 14, 38, 22, 13, 50, 22, 22, 48, 26, 22, 43, 34, 6, 31, 42, 34, 49, 0, 13, 16, 44, 16, 54, 32, 21, 24, 34, 48, 40, 19, 38, 43, 11, 33, 27, 22, 18, 42, 51, 18, 31, 28, 27, 29, 10, 26, 52, 49, 46, 39, 22, 17, 18, 28, 18, 26, 16, 8
            |27, 20, 1, 39, 37, 28, 33, 27, 17, 35, 32, 17, 7, 31, 40, 17, 34, 38, 44, 44, 18, 19, 35, 26, 30, 9, 20, 50, 32, 9, 39, 28, 17, 34, 28, 12, 20, 36, 34, 48, 13, 0, 6, 47, 19, 45, 35, 25, 11, 24, 47, 40, 18, 36, 43, 2, 32, 14, 12, 17, 42, 51, 25, 24, 16, 20, 18, 6, 13, 42, 41, 35, 29, 23, 27, 27, 34, 30, 13, 16, 19
            |21, 14, 7, 34, 31, 23, 27, 22, 17, 30, 29, 16, 9, 26, 34, 14, 32, 32, 38, 38, 13, 16, 30, 27, 25, 9, 18, 44, 31, 12, 34, 24, 12, 29, 22, 12, 16, 30, 29, 43, 16, 6, 0, 43, 15, 40, 31, 22, 13, 19, 41, 35, 13, 30, 37, 8, 26, 14, 16, 12, 36, 45, 23, 18, 14, 14, 14, 12, 13, 37, 36, 30, 24, 19, 26, 26, 31, 31, 13, 12, 19
            |24, 30, 48, 47, 27, 21, 31, 22, 57, 42, 24, 55, 52, 41, 44, 31, 22, 16, 24, 22, 39, 30, 13, 38, 37, 50, 31, 13, 30, 54, 42, 19, 32, 38, 32, 39, 45, 30, 14, 14, 44, 47, 43, 0, 29, 44, 13, 23, 54, 42, 15, 11, 30, 19, 12, 48, 19, 55, 59, 30, 12, 12, 28, 34, 51, 35, 43, 51, 53, 48, 40, 49, 41, 24, 31, 30, 17, 38, 53, 31, 38
            |15, 10, 19, 38, 28, 13, 26, 13, 32, 33, 15, 30, 24, 30, 37, 1, 17, 23, 32, 31, 19, 3, 16, 18, 27, 24, 6, 34, 18, 26, 36, 10, 9, 30, 21, 10, 25, 28, 18, 33, 16, 19, 15, 29, 0, 41, 17, 7, 28, 26, 31, 24, 5, 22, 27, 19, 17, 29, 30, 4, 26, 35, 9, 19, 27, 17, 23, 21, 27, 41, 37, 37, 29, 5, 14, 13, 16, 21, 27, 3, 13
            |28, 32, 46, 9, 17, 32, 16, 30, 39, 10, 52, 37, 43, 14, 6, 42, 53, 29, 21, 23, 27, 44, 42, 59, 15, 39, 48, 34, 58, 44, 6, 40, 33, 11, 20, 48, 26, 15, 34, 32, 54, 45, 40, 44, 41, 0, 43, 43, 42, 21, 30, 34, 37, 26, 32, 47, 30, 40, 50, 37, 32, 36, 50, 23, 34, 26, 27, 51, 38, 7, 5, 14, 16, 39, 54, 54, 48, 62, 38, 40, 54
            |16, 20, 36, 43, 25, 12, 27, 14, 47, 38, 13, 45, 40, 36, 41, 18, 12, 15, 26, 24, 30, 17, 1, 26, 32, 39, 19, 21, 20, 43, 39, 7, 21, 34, 25, 27, 36, 27, 9, 21, 32, 35, 31, 13, 17, 43, 0, 11, 43, 35, 20, 12, 18, 16, 15, 36, 13, 44, 47, 19, 14, 21, 15, 26, 41, 26, 35, 38, 43, 45, 38, 44, 35, 12, 19, 18, 7, 27, 43, 19, 25
            |15, 14, 26, 41, 27, 12, 27, 13, 38, 36, 10, 37, 31, 33, 40, 8, 11, 20, 31, 29, 24, 6, 10, 18, 30, 30, 8, 30, 15, 33, 38, 5, 14, 33, 24, 16, 30, 28, 14, 29, 21, 25, 22, 23, 7, 43, 11, 0, 34, 30, 28, 20, 10, 20, 23, 26, 15, 35, 37, 10, 22, 30, 7, 22, 33, 21, 28, 28, 34, 44, 38, 41, 32, 4, 12, 11, 9, 20, 34, 9, 15
            |32, 25, 11, 34, 39, 34, 34, 33, 6, 32, 42, 6, 4, 28, 36, 26, 44, 43, 47, 47, 18, 29, 43, 37, 29, 4, 30, 55, 43, 3, 36, 36, 23, 33, 29, 23, 16, 37, 40, 53, 24, 11, 13, 54, 28, 42, 43, 34, 0, 21, 51, 46, 25, 40, 47, 13, 37, 3, 8, 25, 47, 56, 36, 25, 8, 22, 16, 15, 4, 37, 39, 29, 26, 31, 38, 38, 44, 41, 4, 25, 30
            |19, 17, 25, 14, 20, 23, 14, 21, 20, 11, 40, 17, 22, 7, 15, 26, 41, 27, 28, 28, 7, 29, 34, 43, 8, 18, 32, 38, 44, 23, 15, 29, 17, 11, 11, 30, 5, 17, 28, 36, 34, 24, 19, 42, 26, 21, 35, 30, 21, 0, 34, 32, 21, 24, 32, 27, 24, 20, 29, 21, 32, 40, 35, 9, 14, 9, 6, 31, 17, 17, 18, 11, 5, 26, 40, 39, 38, 47, 17, 23, 36
            |19, 27, 47, 35, 15, 19, 20, 19, 52, 30, 34, 49, 49, 30, 31, 33, 32, 9, 9, 7, 33, 33, 20, 45, 27, 46, 36, 4, 40, 51, 29, 23, 29, 26, 23, 42, 38, 18, 14, 2, 48, 47, 41, 15, 31, 30, 20, 28, 51, 34, 0, 8, 29, 11, 5, 48, 15, 50, 57, 30, 6, 6, 34, 26, 45, 29, 37, 51, 48, 35, 26, 38, 31, 26, 39, 38, 27, 47, 48, 32, 43
            |14, 21, 41, 36, 16, 12, 20, 13, 48, 31, 25, 46, 44, 30, 33, 25, 24, 5, 14, 12, 30, 25, 12, 37, 26, 42, 28, 10, 32, 46, 31, 15, 23, 27, 21, 34, 35, 19, 6, 9, 40, 40, 35, 11, 24, 34, 12, 20, 46, 32, 8, 0, 23, 8, 3, 42, 9, 46, 51, 24, 2, 11, 26, 23, 42, 25, 34, 45, 44, 37, 29, 38, 31, 19, 30, 29, 19, 39, 44, 25, 35
            |11, 5, 19, 33, 24, 11, 21, 10, 28, 28, 19, 27, 22, 25, 33, 5, 21, 21, 29, 28, 15, 8, 17, 23, 22, 21, 11, 33, 23, 24, 31, 11, 4, 26, 17, 13, 20, 23, 17, 31, 19, 18, 13, 30, 5, 37, 18, 10, 25, 21, 29, 23, 0, 19, 25, 19, 15, 26, 29, 1, 24, 34, 14, 14, 23, 12, 18, 22, 24, 36, 32, 32, 24, 6, 19, 18, 19, 26, 24, 3, 17
            |9, 16, 37, 28, 9, 9, 12, 9, 41, 23, 28, 39, 38, 22, 25, 23, 28, 3, 10, 9, 23, 24, 16, 38, 18, 36, 27, 15, 34, 40, 24, 16, 18, 19, 13, 32, 27, 11, 8, 13, 38, 36, 30, 19, 22, 26, 16, 20, 40, 24, 11, 8, 19, 0, 8, 37, 5, 40, 46, 20, 8, 16, 27, 16, 35, 18, 26, 41, 37, 30, 22, 30, 23, 17, 32, 31, 23, 40, 37, 22, 34
            |16, 23, 43, 35, 15, 14, 19, 15, 49, 30, 28, 47, 46, 30, 32, 28, 27, 5, 12, 9, 31, 28, 15, 40, 26, 43, 31, 8, 35, 48, 30, 18, 25, 26, 21, 37, 36, 18, 9, 6, 43, 43, 37, 12, 27, 32, 15, 23, 47, 32, 5, 3, 25, 8, 0, 44, 11, 47, 53, 26, 1, 9, 29, 24, 43, 26, 34, 47, 45, 36, 27, 37, 30, 21, 34, 33, 22, 42, 45, 28, 38
            |29, 21, 1, 41, 39, 30, 35, 29, 18, 37, 31, 18, 9, 33, 42, 18, 34, 39, 46, 46, 20, 19, 35, 25, 32, 11, 20, 51, 32, 10, 41, 29, 19, 36, 30, 11, 22, 38, 36, 50, 11, 2, 8, 48, 19, 47, 36, 26, 13, 27, 48, 42, 19, 37, 44, 0, 33, 15, 12, 18, 43, 52, 25, 26, 18, 22, 21, 4, 15, 44, 44, 37, 31, 24, 27, 27, 35, 29, 15, 17, 18
            |5, 12, 33, 30, 13, 4, 14, 4, 39, 25, 23, 37, 35, 23, 28, 18, 23, 6, 16, 14, 21, 19, 12, 33, 19, 33, 22, 18, 29, 37, 26, 11, 14, 21, 13, 27, 26, 14, 5, 17, 33, 32, 26, 19, 17, 30, 13, 15, 37, 24, 15, 9, 15, 5, 11, 33, 0, 37, 42, 16, 10, 19, 22, 15, 32, 16, 25, 36, 35, 32, 25, 31, 23, 12, 27, 26, 19, 35, 35, 17, 29
            |32, 25, 14, 32, 38, 34, 33, 33, 3, 30, 43, 4, 7, 26, 34, 28, 46, 42, 46, 46, 17, 30, 43, 40, 28, 5, 32, 54, 45, 6, 34, 37, 23, 31, 28, 25, 15, 36, 41, 52, 27, 14, 14, 55, 29, 40, 44, 35, 3, 20, 50, 46, 26, 40, 47, 15, 37, 0, 10, 26, 47, 56, 37, 24, 6, 21, 14, 18, 2, 35, 38, 27, 25, 32, 40, 40, 45, 44, 2, 26, 32
            |37, 30, 11, 42, 46, 39, 41, 38, 13, 40, 43, 14, 8, 36, 44, 29, 46, 48, 53, 53, 25, 31, 46, 36, 36, 11, 31, 60, 43, 6, 44, 40, 28, 40, 36, 23, 24, 44, 45, 59, 22, 12, 16, 59, 30, 50, 47, 37, 8, 29, 57, 51, 29, 46, 53, 12, 42, 10, 0, 28, 52, 62, 37, 32, 16, 28, 23, 12, 12, 45, 47, 37, 34, 35, 38, 39, 46, 40, 12, 28, 29
            |12, 6, 18, 34, 25, 12, 22, 11, 28, 29, 19, 27, 22, 25, 33, 4, 21, 22, 30, 29, 15, 7, 18, 22, 23, 21, 11, 34, 23, 24, 32, 12, 5, 26, 17, 12, 21, 24, 17, 32, 18, 17, 12, 30, 4, 37, 19, 10, 25, 21, 30, 24, 1, 20, 26, 18, 16, 26, 28, 0, 25, 34, 14, 15, 23, 12, 18, 21, 24, 37, 33, 32, 24, 7, 18, 18, 19, 25, 24, 2, 16
            |15, 22, 43, 35, 15, 13, 19, 14, 48, 30, 28, 46, 45, 30, 32, 27, 26, 4, 12, 10, 30, 27, 14, 39, 26, 42, 30, 9, 34, 47, 30, 17, 24, 26, 21, 36, 35, 18, 8, 7, 42, 42, 36, 12, 26, 32, 14, 22, 47, 32, 6, 2, 24, 8, 1, 43, 10, 47, 52, 25, 0, 9, 28, 23, 42, 26, 34, 46, 45, 36, 27, 37, 30, 20, 33, 32, 21, 41, 45, 27, 37
            |24, 32, 52, 41, 21, 23, 26, 24, 57, 36, 34, 55, 54, 37, 37, 36, 33, 13, 15, 13, 39, 36, 21, 47, 33, 52, 39, 2, 40, 56, 36, 25, 34, 33, 29, 45, 44, 24, 17, 4, 51, 51, 45, 12, 35, 36, 21, 30, 56, 40, 6, 11, 34, 16, 9, 52, 19, 56, 62, 34, 9, 0, 36, 32, 51, 35, 43, 55, 54, 41, 32, 44, 38, 29, 40, 39, 27, 48, 54, 36, 46
            |21, 19, 26, 47, 34, 18, 33, 19, 40, 42, 6, 39, 32, 39, 46, 10, 9, 27, 37, 36, 29, 7, 15, 11, 36, 32, 5, 36, 9, 34, 45, 11, 19, 39, 30, 14, 34, 35, 20, 35, 18, 25, 23, 28, 9, 50, 15, 7, 36, 35, 34, 26, 14, 27, 29, 25, 22, 37, 37, 14, 28, 36, 0, 28, 36, 26, 32, 26, 36, 50, 45, 46, 38, 11, 5, 4, 11, 13, 36, 12, 10
            |10, 9, 25, 19, 14, 14, 9, 12, 25, 14, 32, 23, 24, 11, 18, 19, 33, 19, 21, 22, 7, 22, 25, 37, 8, 21, 25, 30, 37, 26, 17, 21, 10, 12, 4, 25, 12, 12, 19, 28, 31, 24, 18, 34, 19, 23, 26, 22, 25, 9, 26, 23, 14, 16, 24, 26, 15, 24, 32, 15, 23, 32, 28, 0, 19, 4, 11, 30, 22, 22, 18, 18, 10, 18, 33, 32, 30, 40, 22, 17, 31
            |27, 22, 16, 26, 32, 30, 27, 29, 6, 24, 42, 4, 10, 20, 28, 26, 44, 38, 40, 41, 12, 29, 40, 40, 22, 6, 31, 50, 44, 10, 28, 34, 20, 25, 23, 26, 9, 30, 37, 47, 28, 16, 14, 51, 27, 34, 41, 33, 8, 14, 45, 42, 23, 35, 43, 18, 32, 6, 16, 23, 42, 51, 36, 19, 0, 16, 9, 21, 4, 29, 32, 21, 18, 30, 39, 39, 43, 44, 4, 24, 33
            |11, 7, 21, 22, 18, 15, 13, 13, 23, 17, 31, 21, 21, 13, 22, 16, 32, 21, 25, 25, 4, 19, 25, 34, 11, 17, 23, 33, 35, 22, 21, 20, 7, 15, 8, 22, 10, 16, 21, 31, 27, 20, 14, 35, 17, 26, 26, 21, 22, 9, 29, 25, 12, 18, 26, 22, 16, 21, 28, 12, 26, 35, 26, 4, 16, 0, 9, 26, 19, 25, 22, 20, 12, 16, 31, 30, 29, 38, 19, 14, 28
            |20, 15, 19, 20, 24, 23, 18, 21, 15, 17, 38, 13, 16, 13, 21, 22, 39, 29, 32, 32, 4, 25, 34, 39, 13, 12, 28, 41, 41, 17, 21, 28, 14, 17, 14, 25, 2, 21, 29, 39, 29, 18, 14, 43, 23, 27, 35, 28, 16, 6, 37, 34, 18, 26, 34, 21, 25, 14, 23, 18, 34, 43, 32, 11, 9, 9, 0, 25, 12, 23, 24, 17, 11, 24, 36, 36, 37, 43, 12, 20, 32
            |32, 25, 5, 45, 43, 33, 39, 32, 21, 41, 32, 21, 11, 37, 46, 20, 35, 43, 50, 49, 25, 21, 38, 24, 36, 15, 21, 55, 32, 13, 45, 31, 23, 41, 34, 12, 26, 42, 38, 53, 10, 6, 12, 51, 21, 51, 38, 28, 15, 31, 51, 45, 22, 41, 47, 4, 36, 18, 12, 21, 46, 55, 26, 30, 21, 26, 25, 0, 18, 48, 48, 41, 35, 27, 27, 27, 36, 28, 18, 20, 18
            |30, 23, 14, 30, 36, 32, 30, 31, 4, 28, 42, 3, 7, 24, 32, 26, 44, 40, 44, 44, 15, 29, 42, 39, 25, 4, 31, 52, 44, 7, 32, 35, 21, 29, 26, 25, 12, 34, 39, 50, 26, 13, 13, 53, 27, 38, 43, 34, 4, 17, 48, 44, 24, 37, 45, 15, 35, 2, 12, 24, 45, 54, 36, 22, 4, 19, 12, 18, 0, 33, 36, 25, 22, 31, 39, 39, 43, 43, 0, 25, 32
            |30, 31, 43, 3, 21, 34, 18, 32, 34, 8, 54, 32, 39, 11, 4, 41, 54, 32, 26, 28, 24, 44, 44, 59, 14, 35, 47, 39, 59, 39, 6, 41, 32, 11, 20, 47, 22, 18, 37, 37, 52, 42, 37, 48, 41, 7, 45, 44, 37, 17, 35, 37, 36, 30, 36, 44, 32, 35, 45, 37, 36, 41, 50, 22, 29, 25, 23, 48, 33, 0, 9, 8, 13, 39, 55, 54, 50, 62, 33, 39, 52
            |23, 27, 42, 9, 13, 27, 11, 25, 37, 8, 48, 35, 40, 11, 6, 37, 48, 24, 17, 19, 23, 39, 37, 54, 11, 36, 43, 30, 53, 41, 4, 35, 28, 7, 15, 44, 23, 10, 29, 28, 49, 41, 36, 40, 37, 5, 38, 38, 39, 18, 26, 29, 32, 22, 27, 44, 25, 38, 47, 33, 27, 32, 45, 18, 32, 22, 24, 48, 36, 9, 0, 14, 13, 34, 50, 49, 43, 58, 36, 35, 49
            |28, 27, 36, 5, 23, 32, 18, 30, 26, 8, 51, 24, 31, 8, 9, 37, 52, 33, 30, 31, 18, 40, 43, 54, 12, 27, 43, 42, 55, 32, 10, 39, 27, 11, 18, 41, 15, 20, 36, 40, 46, 35, 30, 49, 37, 14, 44, 41, 29, 11, 38, 38, 32, 30, 37, 37, 31, 27, 37, 32, 37, 44, 46, 18, 21, 20, 17, 41, 25, 8, 14, 0, 9, 36, 51, 50, 48, 58, 25, 34, 47
            |19, 19, 30, 10, 17, 23, 11, 21, 24, 6, 42, 22, 27, 2, 10, 28, 43, 26, 24, 25, 11, 31, 34, 46, 4, 23, 35, 36, 47, 28, 10, 30, 19, 7, 10, 34, 10, 14, 28, 34, 39, 29, 24, 41, 29, 16, 35, 32, 26, 5, 31, 31, 24, 23, 30, 31, 23, 25, 34, 24, 30, 38, 38, 10, 18, 12, 11, 35, 22, 13, 13, 9, 0, 28, 42, 42, 40, 50, 22, 26, 40
            |11, 9, 24, 37, 24, 8, 23, 9, 35, 32, 14, 33, 28, 29, 36, 7, 16, 18, 28, 26, 20, 7, 11, 21, 25, 27, 10, 29, 19, 31, 34, 5, 10, 28, 19, 16, 26, 24, 12, 27, 22, 23, 19, 24, 5, 39, 12, 4, 31, 26, 26, 19, 6, 17, 21, 24, 12, 32, 35, 7, 20, 29, 11, 18, 30, 16, 24, 27, 31, 39, 34, 36, 28, 0, 16, 15, 13, 24, 31, 7, 17
            |26, 24, 27, 52, 39, 23, 38, 24, 43, 47, 7, 42, 34, 44, 51, 14, 9, 32, 42, 40, 33, 11, 19, 7, 40, 35, 8, 40, 5, 36, 50, 16, 23, 44, 35, 15, 39, 40, 25, 39, 17, 27, 26, 31, 14, 54, 19, 12, 38, 40, 39, 30, 19, 32, 34, 27, 27, 40, 38, 18, 33, 40, 5, 33, 39, 31, 36, 27, 39, 55, 50, 51, 42, 16, 0, 1, 13, 9, 39, 17, 9
            |26, 23, 28, 51, 38, 22, 38, 24, 43, 46, 6, 42, 34, 43, 50, 14, 9, 31, 41, 40, 33, 11, 18, 8, 40, 35, 8, 39, 5, 36, 49, 15, 23, 43, 34, 16, 38, 39, 24, 38, 18, 27, 26, 30, 13, 54, 18, 11, 38, 39, 38, 29, 18, 31, 33, 27, 26, 40, 39, 18, 32, 39, 4, 32, 39, 30, 36, 27, 39, 54, 49, 50, 42, 15, 1, 0, 12, 9, 39, 16, 10
            |21, 22, 35, 48, 31, 17, 32, 18, 48, 43, 7, 46, 40, 40, 46, 17, 5, 21, 32, 30, 33, 15, 7, 20, 36, 40, 16, 28, 13, 43, 44, 9, 23, 39, 30, 24, 39, 33, 15, 27, 28, 34, 31, 17, 16, 48, 7, 9, 44, 38, 27, 19, 19, 23, 22, 35, 19, 45, 46, 19, 21, 27, 11, 30, 43, 29, 37, 36, 43, 50, 43, 48, 40, 13, 13, 12, 0, 21, 43, 19, 21
            |35, 31, 30, 59, 48, 32, 46, 33, 47, 54, 14, 46, 37, 51, 59, 21, 16, 40, 51, 49, 40, 18, 27, 4, 48, 39, 15, 48, 8, 39, 57, 25, 30, 52, 43, 19, 45, 48, 34, 48, 18, 30, 31, 38, 21, 62, 27, 20, 41, 47, 47, 39, 26, 40, 42, 29, 35, 44, 40, 25, 41, 48, 13, 40, 44, 38, 43, 28, 43, 62, 58, 58, 50, 24, 9, 9, 21, 0, 43, 23, 11
            |30, 23, 14, 30, 36, 32, 30, 31, 4, 28, 42, 3, 7, 24, 32, 26, 44, 40, 44, 44, 15, 29, 42, 39, 25, 4, 31, 52, 44, 7, 32, 35, 21, 29, 26, 25, 12, 34, 39, 50, 26, 13, 13, 53, 27, 38, 43, 34, 4, 17, 48, 44, 24, 37, 45, 15, 35, 2, 12, 24, 45, 54, 36, 22, 4, 19, 12, 18, 0, 33, 36, 25, 22, 31, 39, 39, 43, 43, 0, 25, 32
            |14, 8, 17, 36, 27, 13, 24, 13, 29, 31, 18, 27, 21, 28, 35, 2, 20, 24, 32, 31, 17, 5, 18, 20, 25, 21, 9, 35, 21, 24, 34, 12, 7, 29, 20, 10, 22, 27, 19, 34, 16, 16, 12, 31, 3, 40, 19, 9, 25, 23, 32, 25, 3, 22, 28, 17, 17, 26, 28, 2, 27, 36, 12, 17, 24, 14, 20, 20, 25, 39, 35, 34, 26, 7, 17, 16, 19, 23, 25, 0, 14
            |27, 22, 19, 50, 40, 25, 38, 26, 36, 45, 16, 35, 26, 41, 49, 12, 18, 35, 45, 43, 29, 10, 25, 7, 39, 28, 7, 45, 14, 28, 48, 20, 21, 42, 34, 7, 34, 40, 29, 44, 8, 19, 19, 38, 13, 54, 25, 15, 30, 36, 43, 35, 17, 34, 38, 18, 29, 32, 29, 16, 37, 46, 10, 31, 33, 28, 32, 18, 32, 52, 49, 47, 40, 17, 9, 10, 21, 11, 32, 14, 0|];
early = [0, 255, 463, 40, 5, 0, 4, 266, 165, 53, 304, 600, 149, 43, 30, 218, 327, 0, 423, 13, 134, 203, 648, 522, 38, 154, 289, 0, 301, 139, 30, 353, 212, 43, 13, 199, 106, 399, 0, 397, 473, 209, 199, 357, 264, 52, 347, 282, 127, 110, 0, 0, 223, 0, 0, 194, 0, 118, 185, 236, 0, 0, 288, 422, 150, 466, 114, 535, 128, 43, 83, 105, 64, 272, 312, 284, 357, 563, 156, 213, 649];
late = [824, 380, 632, 199, 143, 62, 133, 389, 286, 164, 424, 746, 303, 183, 176, 375, 451, 109, 573, 124, 254, 356, 809, 653, 146, 295, 428, 122, 439, 305, 172, 490, 368, 160, 158, 348, 257, 555, 80, 510, 625, 344, 329, 518, 415, 212, 450, 419, 284, 262, 113, 86, 369, 141, 129, 346, 62, 270, 305, 374, 94, 103, 424, 562, 269, 586, 269, 663, 289, 221, 192, 236, 217, 404, 437, 436, 502, 703, 286, 345, 782];