% n80w200.005    101.47 705
n = 81;
duration = [|0, 15, 22, 29, 27, 25, 10, 11, 25, 19, 23, 21, 8, 35, 15, 12, 16, 9, 19, 21, 9, 7, 28, 9, 10, 18, 23, 5, 8, 25, 29, 10, 21, 21, 25, 19, 17, 28, 23, 28, 6, 18, 10, 10, 32, 5, 29, 21, 16, 22, 7, 29, 21, 9, 6, 16, 30, 4, 13, 20, 28, 3, 7, 24, 14, 20, 19, 24, 24, 15, 28, 17, 25, 26, 22, 24, 19, 16, 30, 25, 21
            |15, 0, 36, 44, 41, 37, 24, 24, 35, 31, 28, 14, 22, 48, 2, 6, 24, 18, 33, 12, 21, 16, 39, 23, 25, 11, 30, 17, 14, 28, 17, 21, 33, 12, 36, 27, 4, 34, 10, 15, 15, 26, 23, 5, 43, 9, 43, 33, 28, 12, 9, 44, 32, 21, 21, 18, 43, 11, 28, 34, 41, 15, 21, 38, 22, 34, 6, 38, 31, 17, 29, 6, 15, 38, 35, 39, 6, 29, 41, 38, 8
            |22, 36, 0, 8, 11, 20, 15, 15, 23, 16, 31, 40, 16, 17, 37, 33, 24, 22, 10, 41, 18, 23, 22, 16, 12, 38, 28, 20, 25, 34, 49, 19, 14, 41, 23, 25, 38, 32, 44, 48, 24, 25, 17, 32, 26, 27, 14, 19, 17, 42, 28, 9, 18, 19, 16, 30, 18, 26, 8, 10, 16, 22, 16, 4, 25, 3, 40, 9, 29, 30, 38, 38, 45, 20, 14, 7, 41, 15, 22, 16, 42
            |29, 44, 8, 0, 11, 24, 22, 22, 27, 21, 37, 47, 23, 14, 44, 41, 30, 29, 15, 48, 26, 30, 24, 23, 20, 45, 33, 28, 32, 40, 57, 26, 18, 48, 26, 30, 46, 36, 51, 56, 31, 31, 24, 39, 28, 35, 14, 24, 22, 50, 36, 4, 23, 26, 24, 37, 19, 33, 16, 15, 17, 30, 24, 7, 32, 10, 48, 12, 34, 37, 43, 45, 52, 23, 18, 9, 48, 21, 24, 19, 50
            |27, 41, 11, 11, 0, 31, 17, 17, 34, 12, 27, 47, 19, 8, 40, 39, 34, 23, 21, 48, 27, 26, 13, 24, 17, 45, 23, 24, 27, 30, 56, 20, 9, 48, 15, 21, 42, 26, 50, 54, 31, 35, 26, 37, 37, 32, 24, 30, 15, 49, 32, 7, 29, 21, 21, 30, 29, 30, 15, 21, 26, 28, 20, 15, 35, 14, 43, 3, 24, 39, 33, 41, 52, 31, 25, 4, 46, 25, 13, 27, 48
            |25, 37, 20, 24, 31, 0, 27, 28, 4, 34, 45, 33, 26, 37, 38, 31, 13, 32, 10, 34, 17, 31, 41, 16, 23, 32, 44, 28, 32, 48, 43, 30, 32, 34, 41, 39, 40, 48, 39, 43, 22, 12, 15, 32, 7, 29, 11, 4, 32, 36, 31, 27, 4, 30, 25, 41, 8, 28, 21, 10, 8, 23, 25, 17, 16, 17, 42, 29, 44, 22, 51, 41, 38, 1, 6, 27, 38, 9, 42, 4, 39
            |10, 24, 15, 22, 17, 27, 0, 1, 28, 9, 18, 31, 2, 25, 23, 22, 22, 7, 18, 31, 14, 9, 18, 13, 4, 28, 17, 6, 10, 21, 39, 4, 10, 31, 16, 12, 25, 21, 33, 38, 16, 25, 15, 20, 34, 15, 27, 24, 6, 32, 15, 21, 23, 4, 4, 16, 29, 13, 8, 19, 27, 13, 3, 18, 22, 15, 26, 14, 17, 25, 24, 24, 35, 28, 22, 15, 29, 18, 20, 25, 30
            |11, 24, 15, 22, 17, 28, 1, 0, 29, 8, 18, 32, 3, 24, 24, 23, 23, 7, 18, 32, 15, 9, 17, 14, 5, 29, 16, 7, 11, 21, 40, 4, 9, 32, 15, 11, 25, 21, 33, 38, 16, 25, 16, 21, 35, 16, 27, 25, 5, 33, 16, 21, 24, 4, 5, 15, 30, 14, 8, 19, 27, 14, 4, 19, 23, 15, 27, 14, 17, 25, 24, 24, 36, 28, 23, 15, 30, 19, 19, 26, 31
            |25, 35, 23, 27, 34, 4, 28, 29, 0, 35, 46, 30, 27, 40, 37, 30, 11, 33, 13, 32, 16, 31, 43, 16, 24, 30, 45, 28, 33, 49, 40, 31, 34, 32, 43, 40, 39, 50, 37, 40, 21, 10, 15, 31, 7, 28, 15, 4, 34, 34, 31, 30, 5, 31, 26, 41, 11, 28, 22, 13, 11, 22, 26, 20, 14, 20, 41, 32, 46, 20, 52, 40, 35, 4, 9, 30, 36, 10, 44, 8, 37
            |19, 31, 16, 21, 12, 34, 9, 8, 35, 0, 16, 40, 11, 18, 30, 31, 31, 13, 23, 40, 23, 16, 9, 21, 12, 37, 12, 15, 17, 19, 47, 10, 3, 40, 7, 9, 31, 16, 41, 46, 25, 33, 23, 28, 40, 23, 30, 31, 4, 41, 23, 18, 30, 11, 13, 18, 34, 22, 13, 24, 31, 22, 12, 21, 31, 18, 33, 10, 13, 34, 22, 30, 44, 34, 28, 12, 37, 25, 10, 31, 38
            |23, 28, 31, 37, 27, 45, 18, 18, 46, 16, 0, 40, 19, 32, 26, 30, 39, 14, 36, 39, 31, 17, 18, 30, 23, 37, 4, 19, 16, 3, 45, 15, 18, 39, 13, 7, 26, 7, 38, 43, 29, 41, 32, 27, 52, 24, 45, 42, 15, 39, 22, 34, 41, 16, 21, 9, 48, 23, 26, 37, 45, 27, 20, 35, 38, 32, 26, 25, 4, 38, 6, 24, 43, 46, 40, 28, 34, 36, 19, 44, 35
            |21, 14, 40, 47, 47, 33, 31, 32, 30, 40, 40, 0, 29, 55, 16, 10, 20, 28, 33, 2, 21, 25, 49, 24, 30, 3, 41, 25, 25, 41, 10, 30, 41, 2, 46, 38, 17, 46, 8, 10, 16, 20, 23, 13, 37, 17, 42, 29, 36, 4, 18, 48, 29, 29, 27, 31, 40, 18, 33, 34, 39, 19, 28, 40, 17, 37, 18, 44, 42, 10, 42, 19, 5, 34, 33, 44, 9, 28, 50, 35, 9
            |8, 22, 16, 23, 19, 26, 2, 3, 27, 11, 19, 29, 0, 27, 21, 20, 21, 6, 17, 29, 12, 7, 21, 11, 4, 26, 18, 4, 9, 22, 37, 4, 13, 29, 18, 13, 23, 23, 30, 35, 13, 23, 13, 18, 33, 13, 27, 23, 8, 30, 13, 22, 22, 4, 2, 15, 29, 11, 8, 18, 26, 10, 1, 19, 20, 15, 25, 16, 19, 22, 25, 22, 33, 27, 21, 17, 27, 17, 22, 25, 28
            |35, 48, 17, 14, 8, 37, 25, 24, 40, 18, 32, 55, 27, 0, 48, 47, 41, 31, 27, 55, 34, 33, 15, 32, 25, 52, 28, 31, 35, 35, 64, 27, 16, 55, 19, 27, 49, 29, 57, 62, 39, 42, 34, 45, 42, 40, 28, 36, 21, 57, 40, 10, 36, 28, 28, 36, 33, 38, 22, 27, 31, 36, 28, 20, 42, 21, 51, 11, 28, 47, 38, 48, 60, 37, 31, 11, 54, 32, 14, 33, 55
            |15, 2, 37, 44, 40, 38, 23, 24, 37, 30, 26, 16, 21, 48, 0, 8, 26, 18, 34, 14, 22, 15, 38, 24, 25, 13, 28, 17, 13, 26, 19, 21, 33, 14, 34, 26, 2, 33, 12, 17, 16, 28, 24, 6, 44, 10, 44, 34, 27, 14, 9, 44, 34, 20, 21, 17, 44, 11, 28, 35, 42, 16, 21, 39, 23, 35, 4, 38, 29, 19, 27, 4, 17, 39, 36, 38, 8, 30, 40, 39, 9
            |12, 6, 33, 41, 39, 31, 22, 23, 30, 31, 30, 10, 20, 47, 8, 0, 19, 18, 29, 9, 16, 15, 39, 19, 22, 7, 31, 16, 15, 31, 17, 21, 32, 9, 36, 28, 10, 36, 11, 16, 10, 20, 18, 3, 37, 7, 38, 27, 27, 10, 8, 41, 27, 20, 18, 21, 38, 9, 25, 30, 36, 11, 19, 35, 16, 31, 12, 36, 32, 11, 32, 11, 13, 32, 30, 36, 8, 24, 41, 33, 9
            |16, 24, 24, 30, 34, 13, 22, 23, 11, 31, 39, 20, 21, 41, 26, 19, 0, 25, 15, 21, 8, 22, 40, 10, 19, 19, 38, 20, 24, 41, 30, 24, 31, 21, 38, 34, 28, 43, 26, 30, 11, 2, 8, 20, 18, 18, 22, 9, 28, 23, 21, 32, 9, 23, 19, 32, 21, 18, 19, 16, 19, 13, 20, 23, 3, 21, 30, 31, 39, 9, 44, 29, 25, 14, 14, 30, 25, 9, 41, 16, 26
            |9, 18, 22, 29, 23, 32, 7, 7, 33, 13, 14, 28, 6, 31, 18, 18, 25, 0, 24, 28, 17, 3, 21, 16, 10, 25, 14, 4, 4, 17, 35, 3, 15, 28, 17, 10, 19, 19, 28, 33, 15, 27, 18, 16, 39, 11, 33, 28, 9, 29, 10, 28, 28, 3, 7, 9, 35, 10, 14, 25, 33, 12, 7, 25, 23, 21, 20, 21, 15, 24, 19, 17, 32, 33, 27, 22, 24, 23, 22, 31, 26
            |19, 33, 10, 15, 21, 10, 18, 18, 13, 23, 36, 33, 17, 27, 34, 29, 15, 24, 0, 34, 12, 23, 31, 10, 14, 32, 34, 20, 25, 39, 43, 22, 22, 34, 30, 30, 36, 38, 38, 43, 18, 16, 10, 28, 17, 24, 10, 9, 22, 36, 26, 18, 8, 21, 17, 33, 12, 23, 11, 1, 9, 18, 17, 8, 17, 7, 38, 19, 35, 23, 42, 36, 38, 11, 4, 17, 36, 6, 31, 8, 37
            |21, 12, 41, 48, 48, 34, 31, 32, 32, 40, 39, 2, 29, 55, 14, 9, 21, 28, 34, 0, 22, 25, 49, 25, 30, 3, 41, 25, 24, 40, 9, 30, 41, 0, 45, 37, 16, 46, 5, 8, 17, 22, 24, 12, 39, 17, 43, 31, 36, 2, 18, 49, 31, 29, 27, 30, 42, 18, 33, 35, 41, 19, 28, 41, 18, 38, 17, 45, 42, 12, 41, 18, 4, 35, 35, 45, 7, 29, 50, 37, 7
            |9, 21, 18, 26, 27, 17, 14, 15, 16, 23, 31, 21, 12, 34, 22, 16, 8, 17, 12, 22, 0, 15, 32, 3, 11, 20, 30, 12, 16, 33, 31, 16, 23, 22, 30, 26, 24, 35, 26, 30, 6, 10, 2, 16, 23, 12, 22, 13, 20, 24, 15, 27, 12, 15, 10, 25, 22, 12, 12, 13, 20, 6, 11, 19, 8, 16, 26, 24, 31, 12, 36, 25, 27, 17, 14, 23, 24, 8, 33, 17, 25
            |7, 16, 23, 30, 26, 31, 9, 9, 31, 16, 17, 25, 7, 33, 15, 15, 22, 3, 23, 25, 15, 0, 24, 15, 11, 22, 17, 3, 2, 19, 32, 6, 18, 25, 21, 13, 16, 22, 25, 30, 13, 25, 16, 13, 38, 8, 33, 27, 12, 25, 7, 29, 26, 5, 7, 10, 35, 7, 15, 24, 32, 10, 7, 26, 21, 22, 18, 23, 18, 21, 21, 15, 29, 32, 27, 24, 21, 22, 26, 30, 23
            |28, 39, 22, 24, 13, 41, 18, 17, 43, 9, 18, 49, 21, 15, 38, 39, 40, 21, 31, 49, 32, 24, 0, 30, 21, 46, 14, 24, 25, 20, 56, 19, 9, 49, 4, 14, 39, 14, 49, 54, 34, 42, 32, 37, 48, 32, 36, 39, 13, 50, 31, 20, 38, 20, 23, 24, 40, 31, 21, 31, 38, 31, 22, 26, 40, 24, 40, 13, 13, 43, 23, 37, 53, 41, 35, 16, 45, 34, 1, 38, 47
            |9, 23, 16, 23, 24, 16, 13, 14, 16, 21, 30, 24, 11, 32, 24, 19, 10, 16, 10, 25, 3, 15, 30, 0, 9, 22, 29, 12, 17, 33, 34, 15, 21, 25, 28, 25, 26, 34, 29, 33, 9, 12, 2, 18, 23, 14, 20, 12, 18, 27, 16, 24, 11, 14, 9, 25, 21, 13, 9, 11, 18, 8, 10, 16, 10, 13, 28, 22, 30, 15, 35, 26, 29, 17, 12, 21, 26, 7, 31, 16, 28
            |10, 25, 12, 20, 17, 23, 4, 5, 24, 12, 23, 30, 4, 25, 25, 22, 19, 10, 14, 30, 11, 11, 21, 9, 0, 28, 21, 8, 13, 25, 39, 8, 12, 30, 19, 16, 26, 26, 33, 38, 14, 21, 11, 20, 30, 15, 23, 20, 9, 32, 16, 19, 19, 8, 4, 19, 25, 14, 4, 14, 22, 11, 4, 15, 19, 11, 28, 14, 22, 22, 28, 26, 35, 23, 18, 14, 29, 14, 22, 21, 31
            |18, 11, 38, 45, 45, 32, 28, 29, 30, 37, 37, 3, 26, 52, 13, 7, 19, 25, 32, 3, 20, 22, 46, 22, 28, 0, 38, 22, 22, 38, 12, 27, 39, 3, 43, 35, 15, 43, 7, 11, 14, 20, 21, 10, 37, 14, 41, 28, 34, 4, 15, 46, 28, 26, 24, 28, 40, 15, 30, 33, 38, 16, 25, 39, 16, 35, 16, 42, 39, 10, 39, 17, 7, 33, 32, 42, 7, 27, 47, 35, 8
            |23, 30, 28, 33, 23, 44, 17, 16, 45, 12, 4, 41, 18, 28, 28, 31, 38, 14, 34, 41, 30, 17, 14, 29, 21, 38, 0, 18, 17, 7, 47, 14, 15, 41, 9, 4, 28, 5, 40, 45, 29, 40, 31, 28, 51, 25, 42, 40, 12, 41, 23, 30, 40, 15, 20, 12, 45, 24, 23, 35, 42, 26, 19, 32, 37, 29, 29, 22, 1, 38, 10, 26, 44, 44, 38, 24, 36, 35, 15, 42, 37
            |5, 17, 20, 28, 24, 28, 6, 7, 28, 15, 19, 25, 4, 31, 17, 16, 20, 4, 20, 25, 12, 3, 24, 12, 8, 22, 18, 0, 5, 21, 33, 5, 16, 25, 21, 14, 18, 24, 26, 31, 11, 22, 13, 13, 35, 9, 30, 24, 11, 26, 9, 27, 23, 4, 4, 13, 32, 7, 12, 21, 29, 8, 4, 23, 19, 19, 20, 21, 19, 20, 24, 18, 29, 29, 24, 21, 23, 19, 25, 27, 24
            |8, 14, 25, 32, 27, 32, 10, 11, 33, 17, 16, 25, 9, 35, 13, 15, 24, 4, 25, 24, 16, 2, 25, 17, 13, 22, 17, 5, 0, 18, 31, 7, 19, 24, 21, 13, 14, 22, 24, 29, 13, 26, 18, 12, 39, 8, 35, 29, 13, 25, 6, 31, 28, 7, 9, 9, 37, 7, 17, 26, 34, 11, 9, 28, 22, 24, 16, 25, 18, 22, 20, 13, 28, 33, 29, 26, 20, 23, 27, 32, 22
            |25, 28, 34, 40, 30, 48, 21, 21, 49, 19, 3, 41, 22, 35, 26, 31, 41, 17, 39, 40, 33, 19, 20, 33, 25, 38, 7, 21, 18, 0, 45, 18, 22, 40, 16, 10, 26, 8, 38, 43, 31, 43, 34, 28, 55, 26, 48, 45, 18, 40, 23, 37, 44, 18, 23, 10, 51, 25, 29, 40, 48, 29, 23, 38, 40, 35, 26, 29, 7, 40, 3, 24, 43, 49, 43, 31, 34, 39, 22, 47, 36
            |29, 17, 49, 57, 56, 43, 39, 40, 40, 47, 45, 10, 37, 64, 19, 17, 30, 35, 43, 9, 31, 32, 56, 34, 39, 12, 47, 33, 31, 45, 0, 37, 49, 9, 52, 44, 19, 51, 7, 2, 26, 31, 33, 19, 47, 24, 52, 39, 44, 7, 25, 58, 40, 37, 35, 35, 51, 26, 42, 44, 49, 28, 36, 50, 27, 47, 19, 53, 48, 21, 45, 21, 5, 44, 44, 53, 11, 38, 57, 46, 9
            |10, 21, 19, 26, 20, 30, 4, 4, 31, 10, 15, 30, 4, 27, 21, 21, 24, 3, 22, 30, 16, 6, 19, 15, 8, 27, 14, 5, 7, 18, 37, 0, 12, 30, 16, 9, 22, 19, 31, 36, 16, 27, 17, 18, 37, 13, 31, 27, 6, 31, 13, 25, 26, 1, 6, 11, 33, 12, 12, 22, 31, 13, 5, 23, 24, 19, 23, 17, 15, 25, 21, 21, 34, 31, 26, 19, 27, 21, 20, 29, 28
            |21, 33, 14, 18, 9, 32, 10, 9, 34, 3, 18, 41, 13, 16, 33, 32, 31, 15, 22, 41, 23, 18, 9, 21, 12, 39, 15, 16, 19, 22, 49, 12, 0, 41, 9, 12, 34, 18, 43, 48, 26, 33, 23, 30, 39, 25, 28, 30, 6, 42, 25, 15, 29, 13, 14, 21, 32, 24, 12, 22, 29, 23, 13, 18, 31, 16, 35, 7, 15, 34, 25, 32, 45, 33, 26, 9, 39, 25, 10, 30, 40
            |21, 12, 41, 48, 48, 34, 31, 32, 32, 40, 39, 2, 29, 55, 14, 9, 21, 28, 34, 0, 22, 25, 49, 25, 30, 3, 41, 25, 24, 40, 9, 30, 41, 0, 45, 37, 16, 46, 5, 8, 17, 22, 24, 12, 39, 17, 43, 31, 36, 2, 18, 49, 31, 29, 27, 30, 42, 18, 33, 35, 41, 19, 28, 41, 18, 38, 17, 45, 42, 12, 41, 18, 4, 35, 35, 45, 7, 29, 50, 37, 7
            |25, 36, 23, 26, 15, 41, 16, 15, 43, 7, 13, 46, 18, 19, 34, 36, 38, 17, 30, 45, 30, 21, 4, 28, 19, 43, 9, 21, 21, 16, 52, 16, 9, 45, 0, 9, 35, 10, 46, 51, 31, 40, 30, 33, 47, 29, 37, 38, 10, 46, 28, 22, 37, 16, 20, 19, 41, 28, 20, 31, 38, 28, 19, 27, 38, 24, 36, 14, 9, 40, 19, 33, 49, 41, 35, 17, 42, 33, 6, 38, 43
            |19, 27, 25, 30, 21, 39, 12, 11, 40, 9, 7, 38, 13, 27, 26, 28, 34, 10, 30, 37, 26, 13, 14, 25, 16, 35, 4, 14, 13, 10, 44, 9, 12, 37, 9, 0, 26, 9, 37, 42, 25, 36, 26, 25, 46, 21, 38, 36, 8, 38, 20, 27, 35, 10, 15, 10, 41, 20, 19, 30, 38, 22, 14, 29, 33, 25, 27, 19, 5, 34, 13, 24, 41, 40, 34, 21, 33, 30, 15, 37, 34
            |17, 4, 38, 46, 42, 40, 25, 25, 39, 31, 26, 17, 23, 49, 2, 10, 28, 19, 36, 16, 24, 16, 39, 26, 26, 15, 28, 18, 14, 26, 19, 22, 34, 16, 35, 26, 0, 32, 13, 17, 18, 30, 26, 9, 46, 12, 46, 36, 28, 15, 10, 45, 36, 21, 22, 17, 46, 13, 30, 37, 44, 18, 22, 41, 25, 37, 2, 39, 29, 21, 26, 2, 18, 41, 38, 40, 9, 32, 40, 41, 10
            |28, 34, 32, 36, 26, 48, 21, 21, 50, 16, 7, 46, 23, 29, 33, 36, 43, 19, 38, 46, 35, 22, 14, 34, 26, 43, 5, 24, 22, 8, 51, 19, 18, 46, 10, 9, 32, 0, 45, 49, 35, 46, 36, 33, 55, 30, 46, 45, 16, 46, 28, 33, 44, 20, 25, 16, 50, 29, 28, 39, 47, 32, 24, 36, 42, 33, 33, 25, 4, 43, 10, 30, 49, 49, 43, 27, 41, 39, 15, 46, 42
            |23, 10, 44, 51, 50, 39, 33, 33, 37, 41, 38, 8, 30, 57, 12, 11, 26, 28, 38, 5, 26, 25, 49, 29, 33, 7, 40, 26, 24, 38, 7, 31, 43, 5, 46, 37, 13, 45, 0, 5, 20, 27, 28, 13, 44, 18, 48, 35, 37, 4, 18, 52, 35, 30, 29, 29, 47, 19, 36, 39, 45, 22, 30, 45, 23, 41, 13, 47, 41, 17, 39, 15, 5, 40, 39, 47, 4, 33, 51, 42, 3
            |28, 15, 48, 56, 54, 43, 38, 38, 40, 46, 43, 10, 35, 62, 17, 16, 30, 33, 43, 8, 30, 30, 54, 33, 38, 11, 45, 31, 29, 43, 2, 36, 48, 8, 51, 42, 17, 49, 5, 0, 25, 30, 32, 18, 47, 23, 52, 39, 42, 6, 23, 56, 39, 35, 34, 34, 50, 24, 41, 43, 49, 26, 35, 49, 27, 46, 17, 52, 46, 20, 43, 19, 5, 44, 43, 52, 9, 37, 56, 45, 8
            |6, 15, 24, 31, 31, 22, 16, 16, 21, 25, 29, 16, 13, 39, 16, 10, 11, 15, 18, 17, 6, 13, 34, 9, 14, 14, 29, 11, 13, 31, 26, 16, 26, 17, 31, 25, 18, 35, 20, 25, 0, 13, 8, 10, 28, 7, 28, 18, 21, 19, 10, 32, 17, 15, 11, 22, 28, 7, 16, 19, 26, 3, 12, 25, 9, 21, 20, 28, 30, 9, 34, 19, 21, 23, 20, 28, 18, 14, 35, 23, 19
            |18, 26, 25, 31, 35, 12, 25, 25, 10, 33, 41, 20, 23, 42, 28, 20, 2, 27, 16, 22, 10, 25, 42, 12, 21, 20, 40, 22, 26, 43, 31, 27, 33, 22, 40, 36, 30, 46, 27, 30, 13, 0, 10, 21, 17, 20, 22, 9, 30, 24, 23, 34, 9, 26, 21, 34, 20, 20, 21, 16, 19, 15, 22, 24, 4, 22, 32, 33, 41, 10, 46, 31, 25, 13, 14, 31, 26, 10, 43, 16, 27
            |10, 23, 17, 24, 26, 15, 15, 16, 15, 23, 32, 23, 13, 34, 24, 18, 8, 18, 10, 24, 2, 16, 32, 2, 11, 21, 31, 13, 18, 34, 33, 17, 23, 24, 30, 26, 26, 36, 28, 32, 8, 10, 0, 18, 22, 14, 20, 11, 20, 26, 17, 26, 10, 16, 11, 26, 20, 14, 11, 11, 18, 8, 12, 17, 9, 14, 28, 23, 32, 13, 37, 26, 28, 16, 12, 22, 26, 6, 33, 15, 27
            |10, 5, 32, 39, 37, 32, 20, 21, 31, 28, 27, 13, 18, 45, 6, 3, 20, 16, 28, 12, 16, 13, 37, 18, 20, 10, 28, 13, 12, 28, 19, 18, 30, 12, 33, 25, 9, 33, 13, 18, 10, 21, 18, 0, 38, 5, 38, 28, 24, 13, 5, 39, 27, 17, 16, 18, 38, 6, 24, 29, 36, 10, 17, 34, 17, 30, 10, 34, 29, 13, 29, 9, 16, 33, 30, 34, 9, 24, 38, 33, 11
            |32, 43, 26, 28, 37, 7, 34, 35, 7, 40, 52, 37, 33, 42, 44, 37, 18, 39, 17, 39, 23, 38, 48, 23, 30, 37, 51, 35, 39, 55, 47, 37, 39, 39, 47, 46, 46, 55, 44, 47, 28, 17, 22, 38, 0, 35, 14, 11, 39, 41, 38, 32, 11, 37, 32, 48, 9, 35, 27, 17, 11, 30, 33, 22, 21, 23, 48, 35, 51, 27, 58, 47, 42, 6, 13, 33, 43, 16, 48, 9, 44
            |5, 9, 27, 35, 32, 29, 15, 16, 28, 23, 24, 17, 13, 40, 10, 7, 18, 11, 24, 17, 12, 8, 32, 14, 15, 14, 25, 9, 8, 26, 24, 13, 25, 17, 29, 21, 12, 30, 18, 23, 7, 20, 14, 5, 35, 0, 34, 25, 20, 17, 3, 34, 24, 13, 11, 16, 35, 1, 19, 25, 32, 6, 12, 29, 16, 25, 14, 29, 26, 14, 28, 12, 21, 30, 26, 29, 14, 20, 34, 30, 16
            |29, 43, 14, 14, 24, 11, 27, 27, 15, 30, 45, 42, 27, 28, 44, 38, 22, 33, 10, 43, 22, 33, 36, 20, 23, 41, 42, 30, 35, 48, 52, 31, 28, 43, 37, 38, 46, 46, 48, 52, 28, 22, 20, 38, 14, 34, 0, 14, 30, 45, 36, 18, 13, 30, 26, 42, 5, 33, 19, 9, 4, 28, 27, 10, 25, 13, 48, 23, 43, 31, 51, 46, 47, 11, 9, 21, 46, 14, 36, 7, 47
            |21, 33, 19, 24, 30, 4, 24, 25, 4, 31, 42, 29, 23, 36, 34, 27, 9, 28, 9, 31, 13, 27, 39, 12, 20, 28, 40, 24, 29, 45, 39, 27, 30, 31, 38, 36, 36, 45, 35, 39, 18, 9, 11, 28, 11, 25, 14, 0, 29, 33, 27, 27, 1, 26, 21, 37, 11, 24, 18, 9, 10, 19, 22, 17, 12, 16, 38, 28, 41, 18, 47, 37, 34, 5, 6, 26, 34, 6, 40, 7, 35
            |16, 28, 17, 22, 15, 32, 6, 5, 34, 4, 15, 36, 8, 21, 27, 27, 28, 9, 22, 36, 20, 12, 13, 18, 9, 34, 12, 11, 13, 18, 44, 6, 6, 36, 10, 8, 28, 16, 37, 42, 21, 30, 20, 24, 39, 20, 30, 29, 0, 37, 19, 20, 28, 7, 10, 15, 33, 18, 11, 23, 30, 18, 9, 21, 28, 17, 29, 12, 13, 30, 21, 27, 40, 32, 26, 14, 33, 23, 14, 30, 35
            |22, 12, 42, 50, 49, 36, 32, 33, 34, 41, 39, 4, 30, 57, 14, 10, 23, 29, 36, 2, 24, 25, 50, 27, 32, 4, 41, 26, 25, 40, 7, 31, 42, 2, 46, 38, 15, 46, 4, 6, 19, 24, 26, 13, 41, 17, 45, 33, 37, 0, 18, 50, 33, 30, 28, 30, 44, 19, 35, 37, 42, 21, 29, 43, 20, 40, 16, 46, 42, 14, 41, 17, 3, 37, 37, 46, 6, 31, 51, 39, 6
            |7, 9, 28, 36, 32, 31, 15, 16, 31, 23, 22, 18, 13, 40, 9, 8, 21, 10, 26, 18, 15, 7, 31, 16, 16, 15, 23, 9, 6, 23, 25, 13, 25, 18, 28, 20, 10, 28, 18, 23, 10, 23, 17, 5, 38, 3, 36, 27, 19, 18, 0, 35, 27, 12, 12, 13, 37, 3, 20, 27, 35, 9, 13, 30, 18, 26, 12, 29, 24, 17, 25, 10, 22, 32, 29, 30, 14, 23, 33, 32, 16
            |29, 44, 9, 4, 7, 27, 21, 21, 30, 18, 34, 48, 22, 10, 44, 41, 32, 28, 18, 49, 27, 29, 20, 24, 19, 46, 30, 27, 31, 37, 58, 25, 15, 49, 22, 27, 45, 33, 52, 56, 32, 34, 26, 39, 32, 34, 18, 27, 20, 50, 35, 0, 26, 25, 23, 35, 23, 33, 16, 18, 21, 30, 23, 10, 34, 12, 47, 8, 30, 39, 40, 45, 53, 27, 21, 6, 49, 23, 20, 23, 50
            |21, 32, 18, 23, 29, 4, 23, 24, 5, 30, 41, 29, 22, 36, 34, 27, 9, 28, 8, 31, 12, 26, 38, 11, 19, 28, 40, 23, 28, 44, 40, 26, 29, 31, 37, 35, 36, 44, 35, 39, 17, 9, 10, 27, 11, 24, 13, 1, 28, 33, 27, 26, 0, 25, 21, 36, 11, 24, 17, 8, 10, 18, 21, 16, 12, 15, 38, 27, 40, 19, 47, 36, 34, 5, 5, 25, 34, 5, 39, 6, 35
            |9, 21, 19, 26, 21, 30, 4, 4, 31, 11, 16, 29, 4, 28, 20, 20, 23, 3, 21, 29, 15, 5, 20, 14, 8, 26, 15, 4, 7, 18, 37, 1, 13, 29, 16, 10, 21, 20, 30, 35, 15, 26, 16, 17, 37, 13, 30, 26, 7, 30, 12, 25, 25, 0, 5, 12, 33, 11, 11, 22, 30, 12, 4, 22, 23, 18, 23, 18, 16, 24, 21, 20, 33, 30, 25, 19, 26, 21, 21, 29, 28
            |6, 21, 16, 24, 21, 25, 4, 5, 26, 13, 21, 27, 2, 28, 21, 18, 19, 7, 17, 27, 10, 7, 23, 9, 4, 24, 20, 4, 9, 23, 35, 6, 14, 27, 20, 15, 22, 25, 29, 34, 11, 21, 11, 16, 32, 11, 26, 21, 10, 28, 12, 23, 21, 5, 0, 16, 28, 10, 8, 17, 25, 9, 1, 19, 18, 15, 24, 18, 21, 20, 26, 22, 31, 25, 20, 18, 26, 16, 24, 24, 27
            |16, 18, 30, 37, 30, 41, 16, 15, 41, 18, 9, 31, 15, 36, 17, 21, 32, 9, 33, 30, 25, 10, 24, 25, 19, 28, 12, 13, 9, 10, 35, 11, 21, 30, 19, 10, 17, 16, 29, 34, 22, 34, 26, 18, 48, 16, 42, 37, 15, 30, 13, 35, 36, 12, 16, 0, 44, 15, 23, 34, 42, 19, 16, 34, 31, 30, 17, 27, 13, 30, 12, 15, 33, 41, 36, 29, 25, 31, 25, 40, 26
            |30, 43, 18, 19, 29, 8, 29, 30, 11, 34, 48, 40, 29, 33, 44, 38, 21, 35, 12, 42, 22, 35, 40, 21, 25, 40, 45, 32, 37, 51, 51, 33, 32, 42, 41, 41, 46, 50, 47, 50, 28, 20, 20, 38, 9, 35, 5, 11, 33, 44, 37, 23, 11, 33, 28, 44, 0, 34, 22, 11, 3, 28, 29, 14, 24, 16, 48, 28, 46, 30, 54, 47, 46, 7, 8, 25, 45, 14, 41, 5, 46
            |4, 11, 26, 33, 30, 28, 13, 14, 28, 22, 23, 18, 11, 38, 11, 9, 18, 10, 23, 18, 12, 7, 31, 13, 14, 15, 24, 7, 7, 25, 26, 12, 24, 18, 28, 20, 13, 29, 19, 24, 7, 20, 14, 6, 35, 1, 33, 24, 18, 19, 3, 33, 24, 11, 10, 15, 34, 0, 17, 24, 31, 5, 11, 28, 16, 24, 15, 28, 25, 15, 27, 13, 22, 29, 25, 28, 16, 20, 32, 29, 17
            |13, 28, 8, 16, 15, 21, 8, 8, 22, 13, 26, 33, 8, 22, 28, 25, 19, 14, 11, 33, 12, 15, 21, 9, 4, 30, 23, 12, 17, 29, 42, 12, 12, 33, 20, 19, 30, 28, 36, 41, 16, 21, 11, 24, 27, 19, 19, 18, 11, 35, 20, 16, 17, 11, 8, 23, 22, 17, 0, 11, 19, 14, 8, 11, 20, 7, 32, 12, 24, 24, 32, 30, 37, 21, 15, 11, 33, 12, 22, 18, 34
            |20, 34, 10, 15, 21, 10, 19, 19, 13, 24, 37, 34, 18, 27, 35, 30, 16, 25, 1, 35, 13, 24, 31, 11, 14, 33, 35, 21, 26, 40, 44, 22, 22, 35, 31, 30, 37, 39, 39, 43, 19, 16, 11, 29, 17, 25, 9, 9, 23, 37, 27, 18, 8, 22, 17, 34, 11, 24, 11, 0, 8, 19, 18, 8, 18, 7, 39, 19, 35, 24, 43, 37, 39, 10, 4, 17, 37, 6, 32, 7, 38
            |28, 41, 16, 17, 26, 8, 27, 27, 11, 31, 45, 39, 26, 31, 42, 36, 19, 33, 9, 41, 20, 32, 38, 18, 22, 38, 42, 29, 34, 48, 49, 31, 29, 41, 38, 38, 44, 47, 45, 49, 26, 19, 18, 36, 11, 32, 4, 10, 30, 42, 35, 21, 10, 30, 25, 42, 3, 31, 19, 8, 0, 26, 26, 12, 22, 14, 46, 25, 43, 28, 51, 44, 44, 7, 6, 22, 43, 12, 38, 4, 44
            |3, 15, 22, 30, 28, 23, 13, 14, 22, 22, 27, 19, 10, 36, 16, 11, 13, 12, 18, 19, 6, 10, 31, 8, 11, 16, 26, 8, 11, 29, 28, 13, 23, 19, 28, 22, 18, 32, 22, 26, 3, 15, 8, 10, 30, 6, 28, 19, 18, 21, 9, 30, 18, 12, 9, 19, 28, 5, 14, 19, 26, 0, 9, 23, 11, 20, 20, 26, 27, 12, 31, 18, 23, 24, 20, 25, 19, 14, 32, 24, 20
            |7, 21, 16, 24, 20, 25, 3, 4, 26, 12, 20, 28, 1, 28, 21, 19, 20, 7, 17, 28, 11, 7, 22, 10, 4, 25, 19, 4, 9, 23, 36, 5, 13, 28, 19, 14, 22, 24, 30, 35, 12, 22, 12, 17, 33, 12, 27, 22, 9, 29, 13, 23, 21, 4, 1, 16, 29, 11, 8, 18, 26, 9, 0, 19, 19, 15, 24, 17, 20, 21, 25, 22, 32, 26, 21, 17, 26, 16, 23, 24, 28
            |24, 38, 4, 7, 15, 17, 18, 19, 20, 21, 35, 40, 19, 20, 39, 35, 23, 25, 8, 41, 19, 26, 26, 16, 15, 39, 32, 23, 28, 38, 50, 23, 18, 41, 27, 29, 41, 36, 45, 49, 25, 24, 17, 34, 22, 29, 10, 17, 21, 43, 30, 10, 16, 22, 19, 34, 14, 28, 11, 8, 12, 23, 19, 0, 25, 4, 43, 13, 33, 30, 42, 40, 45, 17, 11, 11, 42, 14, 26, 13, 43
            |14, 22, 25, 32, 35, 16, 22, 23, 14, 31, 38, 17, 20, 42, 23, 16, 3, 23, 17, 18, 8, 21, 40, 10, 19, 16, 37, 19, 22, 40, 27, 24, 31, 18, 38, 33, 25, 42, 23, 27, 9, 4, 9, 17, 21, 16, 25, 12, 28, 20, 18, 34, 12, 23, 18, 31, 24, 16, 20, 18, 22, 11, 19, 25, 0, 22, 27, 32, 38, 6, 42, 26, 22, 17, 17, 31, 22, 11, 41, 19, 23
            |20, 34, 3, 10, 14, 17, 15, 15, 20, 18, 32, 37, 15, 21, 35, 31, 21, 21, 7, 38, 16, 22, 24, 13, 11, 35, 29, 19, 24, 35, 47, 19, 16, 38, 24, 25, 37, 33, 41, 46, 21, 22, 14, 30, 23, 25, 13, 16, 17, 40, 26, 12, 15, 18, 15, 30, 16, 24, 7, 7, 14, 20, 15, 4, 22, 0, 39, 12, 30, 28, 38, 36, 42, 17, 11, 10, 38, 12, 25, 14, 40
            |19, 6, 40, 48, 43, 42, 26, 27, 41, 33, 26, 18, 25, 51, 4, 12, 30, 20, 38, 17, 26, 18, 40, 28, 28, 16, 29, 20, 16, 26, 19, 23, 35, 17, 36, 27, 2, 33, 13, 17, 20, 32, 28, 10, 48, 14, 48, 38, 29, 16, 12, 47, 38, 23, 24, 17, 48, 15, 32, 39, 46, 20, 24, 43, 27, 39, 0, 41, 30, 23, 26, 3, 18, 43, 40, 42, 9, 34, 42, 43, 10
            |24, 38, 9, 12, 3, 29, 14, 14, 32, 10, 25, 44, 16, 11, 38, 36, 31, 21, 19, 45, 24, 23, 13, 22, 14, 42, 22, 21, 25, 29, 53, 17, 7, 45, 14, 19, 39, 25, 47, 52, 28, 33, 23, 34, 35, 29, 23, 28, 12, 46, 29, 8, 27, 18, 18, 27, 28, 28, 12, 19, 25, 26, 17, 13, 32, 12, 41, 0, 22, 36, 32, 38, 49, 30, 23, 3, 43, 23, 13, 26, 45
            |24, 31, 29, 34, 24, 44, 17, 17, 46, 13, 4, 42, 19, 28, 29, 32, 39, 15, 35, 42, 31, 18, 13, 30, 22, 39, 1, 19, 18, 7, 48, 15, 15, 42, 9, 5, 29, 4, 41, 46, 30, 41, 32, 29, 51, 26, 43, 41, 13, 42, 24, 30, 40, 16, 21, 13, 46, 25, 24, 35, 43, 27, 20, 33, 38, 30, 30, 22, 0, 39, 10, 27, 45, 45, 39, 25, 37, 36, 15, 43, 38
            |15, 17, 30, 37, 39, 22, 25, 25, 20, 34, 38, 10, 22, 47, 19, 11, 9, 24, 23, 12, 12, 21, 43, 15, 22, 10, 38, 20, 22, 40, 21, 25, 34, 12, 40, 34, 21, 43, 17, 20, 9, 10, 13, 13, 27, 14, 31, 18, 30, 14, 17, 39, 19, 24, 20, 30, 30, 15, 24, 24, 28, 12, 21, 30, 6, 28, 23, 36, 39, 0, 41, 23, 16, 23, 23, 36, 16, 17, 44, 25, 17
            |28, 29, 38, 43, 33, 51, 24, 24, 52, 22, 6, 42, 25, 38, 27, 32, 44, 19, 42, 41, 36, 21, 23, 35, 28, 39, 10, 24, 20, 3, 45, 21, 25, 41, 19, 13, 26, 10, 39, 43, 34, 46, 37, 29, 58, 28, 51, 47, 21, 41, 25, 40, 47, 21, 26, 12, 54, 27, 32, 43, 51, 31, 25, 42, 42, 38, 26, 32, 10, 41, 0, 24, 44, 52, 46, 34, 35, 42, 24, 50, 36
            |17, 6, 38, 45, 41, 41, 24, 24, 40, 30, 24, 19, 22, 48, 4, 11, 29, 17, 36, 18, 25, 15, 37, 26, 26, 17, 26, 18, 13, 24, 21, 21, 32, 18, 33, 24, 2, 30, 15, 19, 19, 31, 26, 9, 47, 12, 46, 37, 27, 17, 10, 45, 36, 20, 22, 15, 47, 13, 30, 37, 44, 18, 22, 40, 26, 36, 3, 38, 27, 23, 24, 0, 20, 42, 38, 39, 11, 33, 39, 42, 12
            |25, 15, 45, 52, 52, 38, 35, 36, 35, 44, 43, 5, 33, 60, 17, 13, 25, 32, 38, 4, 27, 29, 53, 29, 35, 7, 44, 29, 28, 43, 5, 34, 45, 4, 49, 41, 18, 49, 5, 5, 21, 25, 28, 16, 42, 21, 47, 34, 40, 3, 22, 53, 34, 33, 31, 33, 46, 22, 37, 39, 44, 23, 32, 45, 22, 42, 18, 49, 45, 16, 44, 20, 0, 39, 39, 49, 9, 33, 54, 41, 8
            |26, 38, 20, 23, 31, 1, 28, 28, 4, 34, 46, 34, 27, 37, 39, 32, 14, 33, 11, 35, 17, 32, 41, 17, 23, 33, 44, 29, 33, 49, 44, 31, 33, 35, 41, 40, 41, 49, 40, 44, 23, 13, 16, 33, 6, 30, 11, 5, 32, 37, 32, 27, 5, 30, 25, 41, 7, 29, 21, 10, 7, 24, 26, 17, 17, 17, 43, 30, 45, 23, 52, 42, 39, 0, 6, 27, 39, 10, 42, 4, 40
            |22, 35, 14, 18, 25, 6, 22, 23, 9, 28, 40, 33, 21, 31, 36, 30, 14, 27, 4, 35, 14, 27, 35, 12, 18, 32, 38, 24, 29, 43, 44, 26, 26, 35, 35, 34, 38, 43, 39, 43, 20, 14, 12, 30, 13, 26, 9, 6, 26, 37, 29, 21, 5, 25, 20, 36, 8, 25, 15, 4, 6, 20, 21, 11, 17, 11, 40, 23, 39, 23, 46, 38, 39, 6, 0, 21, 37, 6, 36, 4, 38
            |24, 39, 7, 9, 4, 27, 15, 15, 30, 12, 28, 44, 17, 11, 38, 36, 30, 22, 17, 45, 23, 24, 16, 21, 14, 42, 24, 21, 26, 31, 53, 19, 9, 45, 17, 21, 40, 27, 47, 52, 28, 31, 22, 34, 33, 29, 21, 26, 14, 46, 30, 6, 25, 19, 18, 29, 25, 28, 11, 17, 22, 25, 17, 11, 31, 10, 42, 3, 25, 36, 34, 39, 49, 27, 21, 0, 44, 21, 16, 24, 45
            |19, 6, 41, 48, 46, 38, 29, 30, 36, 37, 34, 9, 27, 54, 8, 8, 25, 24, 36, 7, 24, 21, 45, 26, 29, 7, 36, 23, 20, 34, 11, 27, 39, 7, 42, 33, 9, 41, 4, 9, 18, 26, 26, 9, 43, 14, 46, 34, 33, 6, 14, 49, 34, 26, 26, 25, 45, 16, 33, 37, 43, 19, 26, 42, 22, 38, 9, 43, 37, 16, 35, 11, 9, 39, 37, 44, 0, 31, 47, 40, 1
            |16, 29, 15, 21, 25, 9, 18, 19, 10, 25, 36, 28, 17, 32, 30, 24, 9, 23, 6, 29, 8, 22, 34, 7, 14, 27, 35, 19, 23, 39, 38, 21, 25, 29, 33, 30, 32, 39, 33, 37, 14, 10, 6, 24, 16, 20, 14, 6, 23, 31, 23, 23, 5, 21, 16, 31, 14, 20, 12, 6, 12, 14, 16, 14, 11, 12, 34, 23, 36, 17, 42, 33, 33, 10, 6, 21, 31, 0, 34, 9, 33
            |30, 41, 22, 24, 13, 42, 20, 19, 44, 10, 19, 50, 22, 14, 40, 41, 41, 22, 31, 50, 33, 26, 1, 31, 22, 47, 15, 25, 27, 22, 57, 20, 10, 50, 6, 15, 40, 15, 51, 56, 35, 43, 33, 38, 48, 34, 36, 40, 14, 51, 33, 20, 39, 21, 24, 25, 41, 32, 22, 32, 38, 32, 23, 26, 41, 25, 42, 13, 15, 44, 24, 39, 54, 42, 36, 16, 47, 34, 0, 39, 48
            |25, 38, 16, 19, 27, 4, 25, 26, 8, 31, 44, 35, 25, 33, 39, 33, 16, 31, 8, 37, 17, 30, 38, 16, 21, 35, 42, 27, 32, 47, 46, 29, 30, 37, 38, 37, 41, 46, 42, 45, 23, 16, 15, 33, 9, 30, 7, 7, 30, 39, 32, 23, 6, 29, 24, 40, 5, 29, 18, 7, 4, 24, 24, 13, 19, 14, 43, 26, 43, 25, 50, 42, 41, 4, 4, 24, 40, 9, 39, 0, 41
            |21, 8, 42, 50, 48, 39, 30, 31, 37, 38, 35, 9, 28, 55, 9, 9, 26, 26, 37, 7, 25, 23, 47, 28, 31, 8, 37, 24, 22, 36, 9, 28, 40, 7, 43, 34, 10, 42, 3, 8, 19, 27, 27, 11, 44, 16, 47, 35, 35, 6, 16, 50, 35, 28, 27, 26, 46, 17, 34, 38, 44, 20, 28, 43, 23, 40, 10, 45, 38, 17, 36, 12, 8, 40, 38, 45, 1, 33, 48, 41, 0|];