% n80w120.003	   18.60 737
n = 81;
duration = [|0, 49, 26, 28, 16, 16, 23, 32, 10, 26, 18, 6, 30, 17, 29, 34, 34, 29, 50, 37, 30, 36, 38, 32, 19, 26, 44, 37, 12, 41, 27, 17, 22, 40, 8, 34, 23, 36, 20, 27, 35, 15, 31, 34, 9, 25, 4, 27, 15, 19, 7, 16, 22, 6, 4, 34, 14, 7, 30, 28, 37, 29, 44, 34, 13, 33, 7, 48, 34, 19, 37, 41, 10, 26, 2, 31, 4, 28, 18, 40, 28
            |49, 0, 22, 37, 63, 64, 36, 30, 57, 23, 41, 51, 20, 33, 23, 15, 14, 20, 4, 25, 19, 31, 16, 38, 29, 28, 5, 16, 40, 10, 25, 34, 41, 26, 55, 25, 32, 13, 32, 40, 14, 40, 44, 45, 51, 45, 52, 27, 43, 42, 54, 39, 44, 54, 51, 39, 39, 42, 47, 38, 11, 20, 5, 29, 48, 26, 56, 3, 28, 34, 12, 8, 43, 34, 46, 19, 44, 38, 51, 22, 25
            |26, 22, 0, 22, 41, 42, 18, 19, 35, 6, 21, 29, 7, 11, 9, 9, 8, 4, 23, 20, 6, 23, 14, 26, 7, 13, 18, 13, 18, 15, 9, 13, 23, 23, 33, 17, 15, 9, 13, 25, 9, 19, 31, 32, 30, 28, 30, 13, 23, 23, 32, 20, 26, 32, 29, 29, 18, 19, 32, 24, 11, 3, 17, 21, 27, 17, 33, 22, 19, 14, 11, 14, 22, 19, 24, 8, 22, 24, 32, 20, 11
            |28, 37, 22, 0, 44, 42, 5, 41, 38, 28, 10, 34, 19, 16, 16, 30, 26, 26, 35, 42, 29, 45, 36, 46, 21, 34, 35, 35, 16, 27, 31, 14, 7, 45, 30, 12, 34, 28, 31, 44, 25, 13, 49, 51, 24, 9, 32, 34, 14, 38, 35, 34, 8, 34, 27, 49, 31, 23, 50, 43, 30, 25, 34, 43, 38, 39, 34, 35, 10, 11, 26, 31, 32, 38, 27, 30, 26, 43, 43, 43, 13
            |16, 63, 41, 44, 0, 4, 39, 41, 6, 40, 34, 12, 46, 33, 45, 48, 49, 43, 64, 47, 44, 44, 50, 38, 34, 37, 58, 49, 28, 56, 39, 33, 37, 49, 15, 50, 33, 50, 32, 32, 50, 31, 34, 36, 21, 39, 12, 39, 30, 25, 9, 25, 37, 10, 17, 39, 24, 23, 31, 34, 52, 43, 58, 43, 17, 43, 10, 63, 50, 35, 52, 55, 20, 35, 18, 44, 20, 34, 17, 50, 44
            |16, 64, 42, 42, 4, 0, 38, 43, 7, 41, 32, 13, 46, 33, 45, 49, 50, 44, 65, 49, 45, 46, 52, 40, 35, 39, 59, 51, 28, 57, 41, 33, 36, 52, 13, 50, 35, 51, 33, 34, 50, 30, 37, 39, 19, 37, 12, 40, 29, 28, 10, 27, 35, 10, 16, 42, 26, 23, 34, 36, 52, 44, 59, 45, 19, 45, 9, 64, 49, 35, 52, 56, 21, 37, 18, 45, 20, 36, 20, 52, 44
            |23, 36, 18, 5, 39, 38, 0, 36, 34, 23, 6, 29, 16, 11, 13, 27, 23, 22, 34, 38, 25, 41, 32, 41, 16, 29, 33, 31, 11, 26, 27, 9, 5, 41, 26, 13, 29, 25, 26, 38, 22, 8, 44, 46, 20, 10, 27, 29, 10, 33, 30, 29, 8, 30, 22, 44, 26, 18, 44, 38, 27, 21, 32, 38, 33, 35, 29, 34, 11, 6, 24, 29, 27, 33, 22, 26, 21, 38, 38, 38, 10
            |32, 30, 19, 41, 41, 43, 36, 0, 36, 14, 37, 31, 26, 26, 28, 17, 22, 17, 33, 6, 15, 4, 14, 8, 21, 7, 25, 14, 31, 29, 10, 28, 40, 9, 40, 36, 9, 21, 12, 11, 24, 34, 15, 15, 39, 45, 33, 7, 37, 16, 34, 16, 42, 35, 36, 10, 18, 27, 17, 9, 21, 18, 25, 2, 24, 4, 37, 31, 38, 31, 24, 24, 22, 6, 30, 14, 28, 9, 25, 10, 30
            |10, 57, 35, 38, 6, 7, 34, 36, 0, 34, 28, 6, 40, 27, 39, 43, 43, 38, 59, 42, 38, 40, 45, 34, 28, 32, 52, 44, 23, 50, 34, 27, 32, 45, 11, 44, 28, 45, 26, 28, 44, 25, 31, 33, 16, 34, 6, 34, 25, 21, 4, 20, 32, 4, 12, 36, 19, 17, 29, 30, 46, 37, 52, 38, 13, 39, 5, 57, 44, 30, 46, 50, 15, 30, 12, 39, 14, 30, 15, 45, 38
            |26, 23, 6, 28, 40, 41, 23, 14, 34, 0, 25, 28, 13, 14, 15, 8, 10, 4, 26, 15, 4, 18, 11, 20, 9, 7, 18, 10, 21, 19, 4, 16, 27, 18, 34, 22, 10, 11, 9, 20, 12, 22, 25, 27, 31, 33, 29, 7, 26, 19, 31, 16, 30, 31, 29, 23, 16, 20, 27, 18, 12, 5, 18, 15, 24, 11, 33, 24, 25, 18, 14, 16, 20, 13, 24, 4, 22, 18, 28, 16, 16
            |18, 41, 21, 10, 34, 32, 6, 37, 28, 25, 0, 24, 21, 11, 18, 30, 27, 25, 40, 40, 27, 41, 35, 40, 16, 30, 37, 34, 7, 31, 28, 9, 4, 43, 20, 19, 29, 29, 25, 37, 26, 4, 43, 45, 14, 8, 22, 30, 4, 31, 25, 26, 6, 24, 16, 43, 24, 14, 42, 37, 31, 24, 37, 38, 29, 36, 24, 39, 18, 7, 29, 34, 23, 33, 17, 28, 16, 37, 34, 41, 15
            |6, 51, 29, 34, 12, 13, 29, 31, 6, 28, 24, 0, 34, 22, 34, 36, 37, 31, 52, 36, 32, 34, 39, 29, 22, 26, 46, 38, 18, 44, 28, 22, 28, 39, 12, 39, 22, 38, 20, 23, 38, 21, 27, 29, 15, 31, 4, 27, 21, 16, 3, 14, 29, 4, 10, 31, 13, 11, 25, 25, 40, 31, 46, 33, 9, 33, 7, 51, 39, 25, 40, 43, 9, 24, 7, 32, 8, 25, 12, 39, 32
            |30, 20, 7, 19, 46, 46, 16, 26, 40, 13, 21, 34, 0, 13, 3, 12, 7, 9, 20, 25, 11, 30, 17, 33, 12, 20, 17, 17, 20, 11, 16, 14, 21, 28, 36, 10, 22, 9, 20, 32, 6, 20, 38, 39, 32, 26, 34, 19, 23, 30, 37, 26, 24, 36, 32, 35, 25, 23, 39, 31, 11, 8, 16, 27, 34, 23, 38, 19, 13, 14, 8, 13, 28, 26, 28, 13, 26, 31, 38, 25, 6
            |17, 33, 11, 16, 33, 33, 11, 26, 27, 14, 11, 22, 13, 0, 12, 20, 18, 15, 33, 29, 17, 31, 25, 30, 5, 19, 29, 24, 7, 24, 17, 2, 14, 32, 23, 17, 18, 20, 15, 27, 18, 8, 33, 35, 19, 19, 21, 19, 12, 22, 24, 18, 16, 23, 18, 33, 16, 10, 34, 27, 22, 14, 28, 28, 23, 25, 24, 32, 18, 5, 21, 25, 17, 23, 15, 18, 13, 27, 28, 30, 11
            |29, 23, 9, 16, 45, 45, 13, 28, 39, 15, 18, 34, 3, 12, 0, 15, 10, 12, 22, 28, 14, 32, 21, 35, 12, 22, 20, 20, 18, 13, 18, 13, 18, 31, 35, 8, 24, 12, 21, 34, 9, 17, 40, 41, 30, 23, 33, 21, 21, 31, 36, 27, 21, 36, 30, 38, 25, 22, 41, 33, 14, 11, 19, 29, 34, 26, 36, 21, 10, 12, 11, 16, 28, 28, 27, 16, 26, 33, 38, 28, 3
            |34, 15, 9, 30, 48, 49, 27, 17, 43, 8, 30, 36, 12, 20, 15, 0, 5, 5, 17, 15, 4, 20, 6, 25, 16, 14, 10, 5, 27, 12, 10, 22, 31, 17, 42, 21, 17, 4, 17, 26, 7, 28, 31, 32, 39, 37, 37, 12, 32, 27, 39, 24, 34, 39, 37, 27, 24, 28, 33, 24, 4, 6, 10, 17, 33, 13, 41, 16, 24, 23, 7, 8, 28, 19, 32, 4, 30, 24, 36, 13, 17
            |34, 14, 8, 26, 49, 50, 23, 22, 43, 10, 27, 37, 7, 18, 10, 5, 0, 6, 16, 20, 7, 25, 11, 29, 15, 17, 10, 10, 26, 8, 13, 20, 28, 22, 41, 16, 20, 2, 19, 30, 2, 26, 35, 36, 37, 33, 38, 16, 30, 29, 40, 26, 31, 40, 36, 32, 26, 27, 37, 28, 4, 6, 10, 22, 34, 18, 41, 14, 19, 20, 3, 7, 29, 23, 32, 8, 30, 28, 38, 18, 13
            |29, 20, 4, 26, 43, 44, 22, 17, 38, 4, 25, 31, 9, 15, 12, 5, 6, 0, 22, 16, 2, 20, 10, 24, 10, 11, 15, 9, 22, 15, 7, 17, 27, 19, 36, 19, 14, 7, 13, 24, 8, 23, 29, 30, 33, 32, 32, 10, 27, 23, 34, 20, 30, 34, 32, 26, 19, 22, 31, 22, 8, 1, 15, 17, 28, 14, 36, 20, 22, 18, 9, 12, 23, 17, 27, 4, 25, 22, 32, 16, 14
            |50, 4, 23, 35, 64, 65, 34, 33, 59, 26, 40, 52, 20, 33, 22, 17, 16, 22, 0, 29, 21, 35, 19, 41, 30, 31, 9, 19, 40, 9, 27, 34, 40, 30, 56, 23, 35, 14, 34, 44, 15, 39, 48, 49, 52, 44, 53, 30, 43, 44, 55, 42, 42, 55, 51, 43, 41, 43, 50, 41, 13, 21, 8, 33, 50, 29, 57, 2, 26, 34, 13, 10, 45, 37, 47, 22, 45, 41, 54, 26, 25
            |37, 25, 20, 42, 47, 49, 38, 6, 42, 15, 40, 36, 25, 29, 28, 15, 20, 16, 29, 0, 14, 6, 10, 13, 23, 11, 20, 10, 35, 26, 12, 31, 42, 3, 45, 35, 14, 19, 17, 18, 22, 37, 20, 20, 44, 47, 39, 10, 41, 22, 40, 22, 45, 40, 41, 15, 24, 32, 23, 15, 18, 18, 21, 5, 30, 4, 43, 27, 38, 33, 22, 20, 28, 13, 35, 13, 33, 15, 32, 4, 30
            |30, 19, 6, 29, 44, 45, 25, 15, 38, 4, 27, 32, 11, 17, 14, 4, 7, 2, 21, 14, 0, 18, 8, 22, 12, 10, 14, 7, 24, 15, 6, 19, 29, 17, 38, 21, 14, 7, 13, 23, 9, 25, 28, 29, 35, 34, 33, 9, 29, 23, 35, 20, 32, 35, 33, 25, 20, 24, 30, 21, 8, 4, 14, 16, 29, 12, 37, 20, 24, 20, 10, 12, 24, 16, 28, 1, 26, 21, 32, 14, 16
            |36, 31, 23, 45, 44, 46, 41, 4, 40, 18, 41, 34, 30, 31, 32, 20, 25, 20, 35, 6, 18, 0, 16, 8, 25, 12, 26, 16, 36, 32, 14, 33, 44, 6, 44, 40, 13, 24, 17, 13, 27, 38, 14, 14, 44, 49, 37, 11, 42, 19, 37, 20, 47, 38, 40, 9, 22, 32, 18, 10, 24, 22, 27, 3, 27, 7, 41, 33, 42, 35, 27, 26, 26, 10, 34, 17, 32, 10, 28, 9, 34
            |38, 16, 14, 36, 50, 52, 32, 14, 45, 11, 35, 39, 17, 25, 21, 6, 11, 10, 19, 10, 8, 16, 0, 22, 20, 13, 10, 1, 32, 16, 11, 27, 37, 12, 45, 27, 18, 9, 19, 25, 13, 33, 29, 29, 43, 42, 40, 12, 37, 27, 42, 25, 40, 42, 41, 24, 26, 31, 32, 22, 8, 11, 11, 14, 34, 10, 44, 17, 30, 28, 12, 10, 30, 18, 35, 7, 33, 22, 37, 8, 23
            |32, 38, 26, 46, 38, 40, 41, 8, 34, 20, 40, 29, 33, 30, 35, 25, 29, 24, 41, 13, 22, 8, 22, 0, 26, 13, 33, 22, 34, 37, 17, 33, 44, 14, 40, 43, 12, 29, 16, 6, 31, 37, 7, 7, 40, 49, 32, 14, 40, 13, 32, 16, 46, 33, 36, 3, 18, 29, 10, 4, 29, 25, 33, 9, 21, 12, 36, 39, 45, 35, 32, 32, 22, 8, 30, 21, 29, 4, 21, 17, 36
            |19, 29, 7, 21, 34, 35, 16, 21, 28, 9, 16, 22, 12, 5, 12, 16, 15, 10, 30, 23, 12, 25, 20, 26, 0, 14, 25, 19, 12, 22, 12, 8, 19, 27, 26, 19, 14, 17, 10, 23, 16, 13, 29, 31, 23, 24, 23, 14, 17, 19, 25, 15, 21, 25, 21, 28, 13, 12, 30, 22, 18, 10, 25, 22, 22, 20, 26, 29, 20, 10, 18, 22, 16, 18, 17, 13, 15, 22, 26, 25, 12
            |26, 28, 13, 34, 37, 39, 29, 7, 32, 7, 30, 26, 20, 19, 22, 14, 17, 11, 31, 11, 10, 12, 13, 13, 14, 0, 23, 13, 24, 25, 4, 21, 32, 14, 34, 30, 4, 17, 6, 13, 19, 26, 18, 19, 33, 38, 28, 1, 30, 14, 29, 12, 35, 30, 30, 16, 13, 21, 20, 11, 18, 12, 23, 9, 21, 7, 32, 29, 32, 24, 20, 21, 17, 6, 24, 9, 22, 11, 23, 13, 23
            |44, 5, 18, 35, 58, 59, 33, 25, 52, 18, 37, 46, 17, 29, 20, 10, 10, 15, 9, 20, 14, 26, 10, 33, 25, 23, 0, 10, 36, 9, 19, 30, 38, 21, 51, 24, 27, 9, 27, 35, 11, 36, 39, 40, 48, 43, 47, 21, 40, 36, 49, 34, 41, 49, 47, 34, 34, 37, 42, 33, 7, 15, 1, 24, 43, 20, 51, 7, 27, 31, 9, 4, 38, 28, 42, 14, 40, 33, 46, 17, 23
            |37, 16, 13, 35, 49, 51, 31, 14, 44, 10, 34, 38, 17, 24, 20, 5, 10, 9, 19, 10, 7, 16, 1, 22, 19, 13, 10, 0, 31, 16, 10, 26, 36, 13, 44, 26, 17, 9, 18, 25, 12, 32, 29, 29, 42, 41, 39, 11, 36, 26, 41, 25, 39, 41, 40, 24, 25, 30, 31, 22, 8, 10, 11, 14, 33, 10, 43, 17, 29, 27, 12, 10, 29, 18, 35, 6, 32, 22, 36, 9, 22
            |12, 40, 18, 16, 28, 28, 11, 31, 23, 21, 7, 18, 20, 7, 18, 27, 26, 22, 40, 35, 24, 36, 32, 34, 12, 24, 36, 31, 0, 31, 23, 6, 11, 38, 16, 22, 23, 28, 19, 30, 25, 3, 36, 38, 12, 15, 16, 25, 6, 24, 19, 20, 12, 19, 12, 37, 17, 7, 36, 31, 29, 21, 35, 33, 22, 31, 19, 39, 22, 7, 28, 32, 17, 27, 11, 25, 10, 31, 27, 36, 16
            |41, 10, 15, 27, 56, 57, 26, 29, 50, 19, 31, 44, 11, 24, 13, 12, 8, 15, 9, 26, 15, 32, 16, 37, 22, 25, 9, 16, 31, 0, 21, 25, 31, 28, 47, 15, 29, 8, 28, 38, 7, 30, 43, 44, 43, 35, 45, 24, 34, 38, 47, 35, 34, 47, 43, 39, 34, 34, 45, 36, 8, 14, 8, 29, 42, 25, 48, 8, 18, 25, 5, 6, 37, 31, 39, 16, 37, 36, 47, 24, 16
            |27, 25, 9, 31, 39, 41, 27, 10, 34, 4, 28, 28, 16, 17, 18, 10, 13, 7, 27, 12, 6, 14, 11, 17, 12, 4, 19, 10, 23, 21, 0, 19, 30, 15, 35, 26, 8, 13, 8, 17, 15, 25, 22, 23, 33, 36, 30, 3, 29, 17, 31, 15, 33, 31, 31, 19, 15, 21, 24, 15, 14, 8, 20, 11, 23, 8, 34, 25, 28, 21, 16, 17, 19, 10, 25, 5, 23, 15, 27, 13, 20
            |17, 34, 13, 14, 33, 33, 9, 28, 27, 16, 9, 22, 14, 2, 13, 22, 20, 17, 34, 31, 19, 33, 27, 33, 8, 21, 30, 26, 6, 25, 19, 0, 11, 34, 22, 17, 21, 22, 17, 29, 20, 6, 35, 37, 17, 17, 21, 21, 10, 24, 24, 20, 14, 23, 18, 35, 17, 10, 35, 29, 24, 16, 30, 30, 24, 27, 24, 33, 17, 3, 22, 27, 18, 25, 15, 20, 14, 29, 29, 32, 11
            |22, 41, 23, 7, 37, 36, 5, 40, 32, 27, 4, 28, 21, 14, 18, 31, 28, 27, 40, 42, 29, 44, 37, 44, 19, 32, 38, 36, 11, 31, 30, 11, 0, 45, 23, 17, 32, 30, 28, 40, 27, 8, 46, 48, 17, 5, 26, 33, 7, 35, 29, 30, 3, 28, 20, 47, 27, 18, 46, 40, 32, 26, 37, 41, 33, 38, 27, 39, 16, 9, 29, 34, 27, 36, 21, 30, 21, 40, 38, 43, 15
            |40, 26, 23, 45, 49, 52, 41, 9, 45, 18, 43, 39, 28, 32, 31, 17, 22, 19, 30, 3, 17, 6, 12, 14, 27, 14, 21, 13, 38, 28, 15, 34, 45, 0, 48, 38, 17, 21, 20, 19, 24, 40, 21, 21, 47, 51, 42, 13, 44, 24, 42, 25, 48, 43, 44, 15, 26, 35, 24, 16, 20, 21, 22, 7, 32, 7, 46, 28, 41, 36, 24, 22, 31, 15, 38, 16, 36, 16, 34, 4, 33
            |8, 55, 33, 30, 15, 13, 26, 40, 11, 34, 20, 12, 36, 23, 35, 42, 41, 36, 56, 45, 38, 44, 45, 40, 26, 34, 51, 44, 16, 47, 35, 22, 23, 48, 0, 38, 31, 43, 28, 34, 41, 18, 39, 41, 6, 24, 8, 35, 16, 27, 10, 24, 22, 8, 4, 42, 22, 14, 37, 36, 44, 36, 51, 42, 20, 41, 6, 55, 37, 23, 43, 48, 18, 34, 10, 38, 12, 36, 24, 48, 33
            |34, 25, 17, 12, 50, 50, 13, 36, 44, 22, 19, 39, 10, 17, 8, 21, 16, 19, 23, 35, 21, 40, 27, 43, 19, 30, 24, 26, 22, 15, 26, 17, 17, 38, 38, 0, 31, 18, 29, 41, 14, 20, 47, 49, 33, 21, 38, 29, 23, 38, 41, 34, 20, 40, 34, 45, 32, 28, 48, 40, 20, 18, 23, 37, 40, 33, 41, 23, 3, 15, 16, 20, 34, 35, 32, 23, 31, 40, 45, 35, 7
            |23, 32, 15, 34, 33, 35, 29, 9, 28, 10, 29, 22, 22, 18, 24, 17, 20, 14, 35, 14, 14, 13, 18, 12, 14, 4, 27, 17, 23, 29, 8, 21, 32, 17, 31, 31, 0, 21, 4, 10, 22, 25, 16, 17, 30, 37, 25, 6, 29, 9, 25, 8, 34, 26, 27, 15, 9, 18, 17, 9, 22, 15, 27, 11, 16, 10, 29, 33, 33, 23, 24, 25, 14, 4, 21, 13, 19, 9, 19, 17, 25
            |36, 13, 9, 28, 50, 51, 25, 21, 45, 11, 29, 38, 9, 20, 12, 4, 2, 7, 14, 19, 7, 24, 9, 29, 17, 17, 9, 9, 28, 8, 13, 22, 30, 21, 43, 18, 21, 0, 20, 30, 4, 28, 35, 36, 39, 35, 39, 16, 32, 30, 41, 27, 33, 41, 38, 31, 27, 29, 37, 28, 2, 7, 8, 22, 36, 17, 43, 13, 21, 22, 3, 5, 31, 23, 34, 8, 31, 28, 39, 17, 15
            |20, 32, 13, 31, 32, 33, 26, 12, 26, 9, 25, 20, 20, 15, 21, 17, 19, 13, 34, 17, 13, 17, 19, 16, 10, 6, 27, 18, 19, 28, 8, 17, 28, 20, 28, 29, 4, 20, 0, 13, 21, 22, 19, 21, 27, 33, 22, 7, 25, 10, 23, 7, 31, 24, 24, 18, 7, 15, 20, 12, 21, 14, 27, 14, 16, 13, 26, 33, 30, 20, 22, 25, 12, 8, 18, 13, 16, 12, 19, 19, 22
            |27, 40, 25, 44, 32, 34, 38, 11, 28, 20, 37, 23, 32, 27, 34, 26, 30, 24, 44, 18, 23, 13, 25, 6, 23, 13, 35, 25, 30, 38, 17, 29, 40, 19, 34, 41, 10, 30, 13, 0, 32, 33, 6, 8, 35, 45, 26, 14, 36, 7, 26, 11, 42, 27, 31, 8, 14, 24, 7, 3, 31, 25, 36, 13, 15, 15, 30, 42, 43, 32, 33, 34, 16, 7, 25, 22, 24, 3, 15, 21, 35
            |35, 14, 9, 25, 50, 50, 22, 24, 44, 12, 26, 38, 6, 18, 9, 7, 2, 8, 15, 22, 9, 27, 13, 31, 16, 19, 11, 12, 25, 7, 15, 20, 27, 24, 41, 14, 22, 4, 21, 32, 0, 25, 37, 38, 37, 32, 38, 18, 29, 31, 40, 28, 30, 40, 37, 34, 27, 28, 39, 30, 5, 7, 10, 24, 36, 20, 42, 14, 17, 20, 2, 7, 31, 25, 33, 10, 30, 30, 40, 21, 12
            |15, 40, 19, 13, 31, 30, 8, 34, 25, 22, 4, 21, 20, 8, 17, 28, 26, 23, 39, 37, 25, 38, 33, 37, 13, 26, 36, 32, 3, 30, 25, 6, 8, 40, 18, 20, 25, 28, 22, 33, 25, 0, 39, 41, 13, 12, 19, 27, 4, 27, 22, 23, 9, 21, 14, 40, 20, 10, 39, 33, 30, 22, 35, 35, 25, 33, 21, 38, 19, 6, 28, 32, 20, 29, 14, 26, 13, 33, 30, 38, 15
            |31, 44, 31, 49, 34, 37, 44, 15, 31, 25, 43, 27, 38, 33, 40, 31, 35, 29, 48, 20, 28, 14, 29, 7, 29, 18, 39, 29, 36, 43, 22, 35, 46, 21, 39, 47, 16, 35, 19, 6, 37, 39, 0, 2, 40, 51, 31, 19, 42, 12, 30, 16, 48, 31, 36, 6, 19, 30, 4, 7, 35, 30, 40, 15, 19, 19, 34, 46, 49, 38, 38, 38, 21, 12, 30, 27, 29, 7, 17, 24, 40
            |34, 45, 32, 51, 36, 39, 46, 15, 33, 27, 45, 29, 39, 35, 41, 32, 36, 30, 49, 20, 29, 14, 29, 7, 31, 19, 40, 29, 38, 44, 23, 37, 48, 21, 41, 49, 17, 36, 21, 8, 38, 41, 2, 0, 43, 53, 33, 20, 44, 14, 32, 18, 50, 33, 38, 6, 21, 32, 5, 9, 36, 32, 40, 16, 21, 19, 36, 47, 51, 40, 39, 39, 23, 14, 32, 28, 31, 9, 19, 24, 42
            |9, 51, 30, 24, 21, 19, 20, 39, 16, 31, 14, 15, 32, 19, 30, 39, 37, 33, 52, 44, 35, 44, 43, 40, 23, 33, 48, 42, 12, 43, 33, 17, 17, 47, 6, 33, 30, 39, 27, 35, 37, 13, 40, 43, 0, 18, 12, 34, 10, 28, 14, 25, 16, 13, 5, 43, 22, 12, 39, 36, 41, 33, 47, 41, 23, 40, 11, 51, 32, 18, 39, 44, 19, 34, 10, 36, 12, 36, 27, 46, 28
            |25, 45, 28, 9, 39, 37, 10, 45, 34, 33, 8, 31, 26, 19, 23, 37, 33, 32, 44, 47, 34, 49, 42, 49, 24, 38, 43, 41, 15, 35, 36, 17, 5, 51, 24, 21, 37, 35, 33, 45, 32, 12, 51, 53, 18, 0, 28, 38, 10, 39, 31, 35, 3, 30, 22, 52, 32, 22, 51, 45, 37, 31, 42, 47, 37, 44, 29, 44, 19, 14, 34, 39, 31, 41, 24, 36, 24, 45, 42, 48, 20
            |4, 52, 30, 32, 12, 12, 27, 33, 6, 29, 22, 4, 34, 21, 33, 37, 38, 32, 53, 39, 33, 37, 40, 32, 23, 28, 47, 39, 16, 45, 30, 21, 26, 42, 8, 38, 25, 39, 22, 26, 38, 19, 31, 33, 12, 28, 0, 29, 19, 19, 3, 17, 26, 2, 7, 35, 15, 11, 29, 28, 41, 32, 47, 35, 12, 35, 4, 52, 38, 23, 40, 44, 11, 27, 6, 34, 8, 28, 16, 41, 32
            |27, 27, 13, 34, 39, 40, 29, 7, 34, 7, 30, 27, 19, 19, 21, 12, 16, 10, 30, 10, 9, 11, 12, 14, 14, 1, 21, 11, 25, 24, 3, 21, 33, 13, 35, 29, 6, 16, 7, 14, 18, 27, 19, 20, 34, 38, 29, 0, 31, 15, 30, 14, 35, 31, 31, 16, 14, 22, 21, 12, 16, 11, 22, 9, 22, 6, 34, 28, 31, 24, 19, 20, 19, 7, 25, 8, 23, 12, 25, 12, 23
            |15, 43, 23, 14, 30, 29, 10, 37, 25, 26, 4, 21, 23, 12, 21, 32, 30, 27, 43, 41, 29, 42, 37, 40, 17, 30, 40, 36, 6, 34, 29, 10, 7, 44, 16, 23, 29, 32, 25, 36, 29, 4, 42, 44, 10, 10, 19, 31, 0, 30, 22, 25, 7, 21, 13, 43, 23, 12, 41, 36, 34, 26, 39, 39, 27, 37, 20, 42, 21, 9, 31, 36, 22, 33, 15, 30, 14, 36, 32, 42, 18
            |19, 42, 23, 38, 25, 28, 33, 16, 21, 19, 31, 16, 30, 22, 31, 27, 29, 23, 44, 22, 23, 19, 27, 13, 19, 14, 36, 26, 24, 38, 17, 24, 35, 24, 27, 38, 9, 30, 10, 7, 31, 27, 12, 14, 28, 39, 19, 15, 30, 0, 19, 4, 36, 20, 24, 15, 7, 18, 11, 9, 31, 24, 37, 17, 8, 19, 23, 42, 40, 27, 33, 34, 9, 9, 18, 22, 17, 9, 10, 25, 31
            |7, 54, 32, 35, 9, 10, 30, 34, 4, 31, 25, 3, 37, 24, 36, 39, 40, 34, 55, 40, 35, 37, 42, 32, 25, 29, 49, 41, 19, 47, 31, 24, 29, 42, 10, 41, 25, 41, 23, 26, 40, 22, 30, 32, 14, 31, 3, 30, 22, 19, 0, 17, 29, 1, 9, 34, 16, 13, 28, 28, 43, 34, 49, 36, 11, 36, 4, 54, 41, 26, 42, 46, 12, 27, 9, 35, 10, 28, 14, 42, 34
            |16, 39, 20, 34, 25, 27, 29, 16, 20, 16, 26, 14, 26, 18, 27, 24, 26, 20, 42, 22, 20, 20, 25, 16, 15, 12, 34, 25, 20, 35, 15, 20, 30, 25, 24, 34, 8, 27, 7, 11, 28, 23, 16, 18, 25, 35, 17, 14, 25, 4, 17, 0, 32, 18, 21, 18, 3, 14, 16, 12, 28, 21, 34, 18, 8, 18, 21, 40, 35, 23, 30, 32, 6, 10, 15, 20, 13, 12, 12, 25, 27
            |22, 44, 26, 8, 37, 35, 8, 42, 32, 30, 6, 29, 24, 16, 21, 34, 31, 30, 42, 45, 32, 47, 40, 46, 21, 35, 41, 39, 12, 34, 33, 14, 3, 48, 22, 20, 34, 33, 31, 42, 30, 9, 48, 50, 16, 3, 26, 35, 7, 36, 29, 32, 0, 28, 20, 49, 29, 19, 48, 42, 35, 29, 40, 44, 34, 41, 27, 42, 18, 12, 32, 37, 29, 38, 22, 33, 22, 42, 39, 46, 18
            |6, 54, 32, 34, 10, 10, 30, 35, 4, 31, 24, 4, 36, 23, 36, 39, 40, 34, 55, 40, 35, 38, 42, 33, 25, 30, 49, 41, 19, 47, 31, 23, 28, 43, 8, 40, 26, 41, 24, 27, 40, 21, 31, 33, 13, 30, 2, 31, 21, 20, 1, 18, 28, 0, 8, 35, 17, 13, 29, 29, 43, 34, 49, 36, 12, 36, 3, 54, 40, 26, 42, 46, 12, 28, 8, 36, 10, 29, 15, 43, 34
            |4, 51, 29, 27, 17, 16, 22, 36, 12, 29, 16, 10, 32, 18, 30, 37, 36, 32, 51, 41, 33, 40, 41, 36, 21, 30, 47, 40, 12, 43, 31, 18, 20, 44, 4, 34, 27, 38, 24, 31, 37, 14, 36, 38, 5, 22, 7, 31, 13, 24, 9, 21, 20, 8, 0, 39, 18, 9, 34, 32, 40, 31, 46, 38, 18, 37, 7, 50, 34, 19, 39, 43, 15, 30, 6, 34, 8, 32, 22, 43, 28
            |34, 39, 29, 49, 39, 42, 44, 10, 36, 23, 43, 31, 35, 33, 38, 27, 32, 26, 43, 15, 25, 9, 24, 3, 28, 16, 34, 24, 37, 39, 19, 35, 47, 15, 42, 45, 15, 31, 18, 8, 34, 40, 6, 6, 43, 52, 35, 16, 43, 15, 34, 18, 49, 35, 39, 0, 21, 32, 10, 7, 31, 28, 35, 10, 23, 14, 38, 41, 47, 38, 34, 34, 24, 11, 33, 24, 31, 7, 22, 18, 39
            |14, 39, 18, 31, 24, 26, 26, 18, 19, 16, 24, 13, 25, 16, 25, 24, 26, 19, 41, 24, 20, 22, 26, 18, 13, 13, 34, 25, 17, 34, 15, 17, 27, 26, 22, 32, 9, 27, 7, 14, 27, 20, 19, 21, 22, 32, 15, 14, 23, 7, 16, 3, 29, 17, 18, 21, 0, 11, 19, 14, 28, 20, 34, 20, 9, 20, 19, 39, 33, 20, 29, 31, 4, 12, 12, 20, 10, 14, 13, 26, 25
            |7, 42, 19, 23, 23, 23, 18, 27, 17, 20, 14, 11, 23, 10, 22, 28, 27, 22, 43, 32, 24, 32, 31, 29, 12, 21, 37, 30, 7, 34, 21, 10, 18, 35, 14, 28, 18, 29, 15, 24, 28, 10, 30, 32, 12, 22, 11, 22, 12, 18, 13, 14, 19, 13, 9, 32, 11, 0, 29, 25, 31, 22, 37, 29, 15, 28, 14, 41, 28, 13, 30, 34, 9, 22, 5, 24, 3, 25, 20, 34, 21
            |30, 47, 32, 50, 31, 34, 44, 17, 29, 27, 42, 25, 39, 34, 41, 33, 37, 31, 50, 23, 30, 18, 32, 10, 30, 20, 42, 31, 36, 45, 24, 35, 46, 24, 37, 48, 17, 37, 20, 7, 39, 39, 4, 5, 39, 51, 29, 21, 41, 11, 28, 16, 48, 29, 34, 10, 19, 29, 0, 9, 37, 32, 42, 18, 17, 22, 32, 49, 50, 38, 40, 41, 20, 14, 29, 29, 28, 9, 14, 27, 41
            |28, 38, 24, 43, 34, 36, 38, 9, 30, 18, 37, 25, 31, 27, 33, 24, 28, 22, 41, 15, 21, 10, 22, 4, 22, 11, 33, 22, 31, 36, 15, 29, 40, 16, 36, 40, 9, 28, 12, 3, 30, 33, 7, 9, 36, 45, 28, 12, 36, 9, 28, 12, 42, 29, 32, 7, 14, 25, 9, 0, 28, 23, 33, 10, 17, 13, 32, 39, 42, 32, 31, 32, 17, 5, 26, 20, 25, 0, 17, 18, 34
            |37, 11, 11, 30, 52, 52, 27, 21, 46, 12, 31, 40, 11, 22, 14, 4, 4, 8, 13, 18, 8, 24, 8, 29, 18, 18, 7, 8, 29, 8, 14, 24, 32, 20, 44, 20, 22, 2, 21, 31, 5, 30, 35, 36, 41, 37, 41, 16, 34, 31, 43, 28, 35, 43, 40, 31, 28, 31, 37, 28, 0, 9, 6, 21, 37, 17, 44, 12, 23, 24, 4, 4, 32, 24, 35, 9, 33, 28, 40, 16, 17
            |29, 20, 3, 25, 43, 44, 21, 18, 37, 5, 24, 31, 8, 14, 11, 6, 6, 1, 21, 18, 4, 22, 11, 25, 10, 12, 15, 10, 21, 14, 8, 16, 26, 21, 36, 18, 15, 7, 14, 25, 7, 22, 30, 32, 33, 31, 32, 11, 26, 24, 34, 21, 29, 34, 31, 28, 20, 22, 32, 23, 9, 0, 15, 19, 29, 15, 36, 20, 21, 17, 9, 12, 24, 18, 27, 5, 24, 23, 33, 17, 13
            |44, 5, 17, 34, 58, 59, 32, 25, 52, 18, 37, 46, 16, 28, 19, 10, 10, 15, 8, 21, 14, 27, 11, 33, 25, 23, 1, 11, 35, 8, 20, 30, 37, 22, 51, 23, 27, 8, 27, 36, 10, 35, 40, 40, 47, 42, 47, 22, 39, 37, 49, 34, 40, 49, 46, 35, 34, 37, 42, 33, 6, 15, 0, 25, 43, 21, 51, 6, 26, 30, 8, 3, 38, 29, 42, 14, 39, 33, 46, 18, 22
            |34, 29, 21, 43, 43, 45, 38, 2, 38, 15, 38, 33, 27, 28, 29, 17, 22, 17, 33, 5, 16, 3, 14, 9, 22, 9, 24, 14, 33, 29, 11, 30, 41, 7, 42, 37, 11, 22, 14, 13, 24, 35, 15, 16, 41, 47, 35, 9, 39, 17, 36, 18, 44, 36, 38, 10, 20, 29, 18, 10, 21, 19, 25, 0, 26, 4, 39, 31, 39, 32, 25, 24, 24, 8, 32, 14, 30, 10, 27, 9, 31
            |13, 48, 27, 38, 17, 19, 33, 24, 13, 24, 29, 9, 34, 23, 34, 33, 34, 28, 50, 30, 29, 27, 34, 21, 22, 21, 43, 33, 22, 42, 23, 24, 33, 32, 20, 40, 16, 36, 16, 15, 36, 25, 19, 21, 23, 37, 12, 22, 27, 8, 11, 8, 34, 12, 18, 23, 9, 15, 17, 17, 37, 29, 43, 26, 0, 26, 16, 48, 41, 27, 38, 40, 6, 17, 13, 28, 13, 17, 5, 33, 33
            |33, 26, 17, 39, 43, 45, 35, 4, 39, 11, 36, 33, 23, 25, 26, 13, 18, 14, 29, 4, 12, 7, 10, 12, 20, 7, 20, 10, 31, 25, 8, 27, 38, 7, 41, 33, 10, 17, 13, 15, 20, 33, 19, 19, 40, 44, 35, 6, 37, 19, 36, 18, 41, 36, 37, 14, 20, 28, 22, 13, 17, 15, 21, 4, 26, 0, 39, 27, 36, 30, 21, 20, 24, 9, 31, 10, 29, 13, 28, 7, 28
            |7, 56, 33, 34, 10, 9, 29, 37, 5, 33, 24, 7, 38, 24, 36, 41, 41, 36, 57, 43, 37, 41, 44, 36, 26, 32, 51, 43, 19, 48, 34, 24, 27, 46, 6, 41, 29, 43, 26, 30, 42, 21, 34, 36, 11, 29, 4, 34, 20, 23, 4, 21, 27, 3, 7, 38, 19, 14, 32, 32, 44, 36, 51, 39, 16, 39, 0, 55, 40, 26, 44, 48, 15, 31, 9, 38, 11, 32, 18, 46, 35
            |48, 3, 22, 35, 63, 64, 34, 31, 57, 24, 39, 51, 19, 32, 21, 16, 14, 20, 2, 27, 20, 33, 17, 39, 29, 29, 7, 17, 39, 8, 25, 33, 39, 28, 55, 23, 33, 13, 33, 42, 14, 38, 46, 47, 51, 44, 52, 28, 42, 42, 54, 40, 42, 54, 50, 41, 39, 41, 49, 39, 12, 20, 6, 31, 48, 27, 55, 0, 26, 33, 11, 8, 43, 35, 46, 20, 44, 39, 52, 24, 24
            |34, 28, 19, 10, 50, 49, 11, 38, 44, 25, 18, 39, 13, 18, 10, 24, 19, 22, 26, 38, 24, 42, 30, 45, 20, 32, 27, 29, 22, 18, 28, 17, 16, 41, 37, 3, 33, 21, 30, 43, 17, 19, 49, 51, 32, 19, 38, 31, 21, 40, 41, 35, 18, 40, 34, 47, 33, 28, 50, 42, 23, 21, 26, 39, 41, 36, 40, 26, 0, 15, 19, 23, 35, 37, 32, 25, 31, 42, 46, 38, 9
            |19, 34, 14, 11, 35, 35, 6, 31, 30, 18, 7, 25, 14, 5, 12, 23, 20, 18, 34, 33, 20, 35, 28, 35, 10, 24, 31, 27, 7, 25, 21, 3, 9, 36, 23, 15, 23, 22, 20, 32, 20, 6, 38, 40, 18, 14, 23, 24, 9, 27, 26, 23, 12, 26, 19, 38, 20, 13, 38, 32, 24, 17, 30, 32, 27, 30, 26, 33, 15, 0, 22, 27, 21, 28, 18, 22, 16, 32, 32, 34, 9
            |37, 12, 11, 26, 52, 52, 24, 24, 46, 14, 29, 40, 8, 21, 11, 7, 3, 9, 13, 22, 10, 27, 12, 32, 18, 20, 9, 12, 28, 5, 16, 22, 29, 24, 43, 16, 24, 3, 22, 33, 2, 28, 38, 39, 39, 34, 40, 19, 31, 33, 42, 30, 32, 42, 39, 34, 29, 30, 40, 31, 4, 9, 8, 25, 38, 21, 44, 11, 19, 22, 0, 5, 32, 26, 35, 11, 33, 31, 42, 20, 14
            |41, 8, 14, 31, 55, 56, 29, 24, 50, 16, 34, 43, 13, 25, 16, 8, 7, 12, 10, 20, 12, 26, 10, 32, 22, 21, 4, 10, 32, 6, 17, 27, 34, 22, 48, 20, 25, 5, 25, 34, 7, 32, 38, 39, 44, 39, 44, 20, 36, 34, 46, 32, 37, 46, 43, 34, 31, 34, 41, 32, 4, 12, 3, 24, 40, 20, 48, 8, 23, 27, 5, 0, 35, 27, 39, 12, 36, 32, 44, 18, 19
            |10, 43, 22, 32, 20, 21, 27, 22, 15, 20, 23, 9, 28, 17, 28, 28, 29, 23, 45, 28, 24, 26, 30, 22, 16, 17, 38, 29, 17, 37, 19, 18, 27, 31, 18, 34, 14, 31, 12, 16, 31, 20, 21, 23, 19, 31, 11, 19, 22, 9, 12, 6, 29, 12, 15, 24, 4, 9, 20, 17, 32, 24, 38, 24, 6, 24, 15, 43, 35, 21, 32, 35, 0, 16, 9, 24, 8, 17, 11, 31, 27
            |26, 34, 19, 38, 35, 37, 33, 6, 30, 13, 33, 24, 26, 23, 28, 19, 23, 17, 37, 13, 16, 10, 18, 8, 18, 6, 28, 18, 27, 31, 10, 25, 36, 15, 34, 35, 4, 23, 8, 7, 25, 29, 12, 14, 34, 41, 27, 7, 33, 9, 27, 10, 38, 28, 30, 11, 12, 22, 14, 5, 24, 18, 29, 8, 17, 9, 31, 35, 37, 28, 26, 27, 16, 0, 24, 15, 22, 5, 19, 16, 29
            |2, 46, 24, 27, 18, 18, 22, 30, 12, 24, 17, 7, 28, 15, 27, 32, 32, 27, 47, 35, 28, 34, 35, 30, 17, 24, 42, 35, 11, 39, 25, 15, 21, 38, 10, 32, 21, 34, 18, 25, 33, 14, 30, 32, 10, 24, 6, 25, 15, 18, 9, 15, 22, 8, 6, 33, 12, 5, 29, 26, 35, 27, 42, 32, 13, 31, 9, 46, 32, 18, 35, 39, 9, 24, 0, 29, 2, 26, 17, 37, 26
            |31, 19, 8, 30, 44, 45, 26, 14, 39, 4, 28, 32, 13, 18, 16, 4, 8, 4, 22, 13, 1, 17, 7, 21, 13, 9, 14, 6, 25, 16, 5, 20, 30, 16, 38, 23, 13, 8, 13, 22, 10, 26, 27, 28, 36, 36, 34, 8, 30, 22, 35, 20, 33, 36, 34, 24, 20, 24, 29, 20, 9, 5, 14, 14, 28, 10, 38, 20, 25, 22, 11, 12, 24, 15, 29, 0, 26, 20, 32, 13, 18
            |4, 44, 22, 26, 20, 20, 21, 28, 14, 22, 16, 8, 26, 13, 26, 30, 30, 25, 45, 33, 26, 32, 33, 29, 15, 22, 40, 32, 10, 37, 23, 14, 21, 36, 12, 31, 19, 31, 16, 24, 30, 13, 29, 31, 12, 24, 8, 23, 14, 17, 10, 13, 22, 10, 8, 31, 10, 3, 28, 25, 33, 24, 39, 30, 13, 29, 11, 44, 31, 16, 33, 36, 8, 22, 2, 26, 0, 25, 17, 35, 24
            |28, 38, 24, 43, 34, 36, 38, 9, 30, 18, 37, 25, 31, 27, 33, 24, 28, 22, 41, 15, 21, 10, 22, 4, 22, 11, 33, 22, 31, 36, 15, 29, 40, 16, 36, 40, 9, 28, 12, 3, 30, 33, 7, 9, 36, 45, 28, 12, 36, 9, 28, 12, 42, 29, 32, 7, 14, 25, 9, 0, 28, 23, 33, 10, 17, 13, 32, 39, 42, 32, 31, 32, 17, 5, 26, 20, 25, 0, 17, 18, 34
            |18, 51, 32, 43, 17, 20, 38, 25, 15, 28, 34, 12, 38, 28, 38, 36, 38, 32, 54, 32, 32, 28, 37, 21, 26, 23, 46, 36, 27, 47, 27, 29, 38, 34, 24, 45, 19, 39, 19, 15, 40, 30, 17, 19, 27, 42, 16, 25, 32, 10, 14, 12, 39, 15, 22, 22, 13, 20, 14, 17, 40, 33, 46, 27, 5, 28, 18, 52, 46, 32, 42, 44, 11, 19, 17, 32, 17, 17, 0, 35, 38
            |40, 22, 20, 43, 50, 52, 38, 10, 45, 16, 41, 39, 25, 30, 28, 13, 18, 16, 26, 4, 14, 9, 8, 17, 25, 13, 17, 9, 36, 24, 13, 32, 43, 4, 48, 35, 17, 17, 19, 21, 21, 38, 24, 24, 46, 48, 41, 12, 42, 25, 42, 25, 46, 43, 43, 18, 26, 34, 27, 18, 16, 17, 18, 9, 33, 7, 46, 24, 38, 34, 20, 18, 31, 16, 37, 13, 35, 18, 35, 0, 30
            |28, 25, 11, 13, 44, 44, 10, 30, 38, 16, 15, 32, 6, 11, 3, 17, 13, 14, 25, 30, 16, 34, 23, 36, 12, 23, 23, 22, 16, 16, 20, 11, 15, 33, 33, 7, 25, 15, 22, 35, 12, 15, 40, 42, 28, 20, 32, 23, 18, 31, 34, 27, 18, 34, 28, 39, 25, 21, 41, 34, 17, 13, 22, 31, 33, 28, 35, 24, 9, 9, 14, 19, 27, 29, 26, 18, 24, 34, 38, 30, 0|];
early = [0, 309, 53, 0, 181, 594, 4, 406, 0, 67, 0, 0, 278, 41, 251, 345, 287, 55, 301, 376, 51, 406, 391, 425, 43, 70, 299, 348, 223, 522, 59, 232, 484, 413, 0, 254, 74, 294, 362, 78, 287, 0, 98, 121, 0, 12, 0, 362, 0, 124, 0, 164, 14, 200, 470, 115, 138, 206, 100, 116, 336, 44, 306, 549, 143, 385, 0, 315, 638, 25, 290, 284, 135, 80, 205, 52, 226, 90, 168, 380, 633];
late = [798, 424, 157, 121, 311, 712, 109, 530, 74, 169, 118, 72, 397, 151, 379, 470, 400, 159, 431, 491, 164, 533, 516, 544, 148, 200, 415, 457, 331, 645, 181, 352, 599, 544, 78, 390, 194, 414, 476, 207, 393, 107, 223, 231, 87, 128, 59, 486, 107, 262, 77, 268, 137, 327, 579, 237, 254, 333, 219, 228, 444, 176, 427, 656, 261, 491, 84, 432, 764, 146, 407, 416, 259, 200, 324, 184, 354, 204, 287, 503, 756];