% n80w140.004	   39.02 668
n = 81;
duration = [|0, 30, 38, 28, 17, 7, 42, 8, 4, 20, 26, 28, 17, 26, 23, 10, 19, 23, 37, 19, 9, 33, 38, 18, 13, 24, 45, 30, 21, 29, 9, 23, 21, 25, 28, 32, 16, 15, 42, 31, 18, 33, 28, 19, 18, 23, 32, 16, 20, 29, 18, 27, 21, 29, 17, 11, 22, 32, 15, 37, 19, 20, 22, 12, 30, 30, 11, 25, 6, 24, 8, 19, 25, 17, 38, 18, 33, 39, 3, 28, 32
            |30, 0, 62, 15, 21, 24, 43, 28, 26, 48, 34, 27, 14, 4, 8, 20, 43, 8, 61, 12, 24, 29, 55, 15, 23, 46, 47, 11, 10, 25, 32, 52, 41, 47, 56, 22, 44, 45, 42, 54, 21, 35, 3, 37, 28, 37, 48, 16, 28, 13, 48, 45, 13, 33, 23, 24, 50, 3, 42, 47, 42, 22, 50, 40, 35, 14, 19, 6, 31, 9, 35, 37, 26, 14, 36, 12, 35, 44, 28, 50, 2
            |38, 62, 0, 51, 41, 44, 39, 35, 42, 18, 31, 40, 47, 58, 57, 46, 19, 57, 1, 49, 38, 43, 16, 47, 38, 16, 39, 55, 55, 43, 44, 21, 21, 15, 12, 49, 22, 28, 40, 7, 41, 37, 59, 25, 34, 27, 19, 52, 35, 54, 24, 17, 49, 36, 38, 49, 17, 62, 42, 27, 20, 41, 17, 38, 34, 53, 47, 55, 33, 53, 40, 24, 39, 48, 41, 51, 37, 34, 40, 13, 64
            |28, 15, 51, 0, 12, 25, 28, 22, 26, 40, 21, 13, 12, 14, 18, 22, 34, 17, 50, 11, 19, 14, 42, 10, 16, 36, 32, 5, 18, 10, 34, 46, 30, 36, 47, 7, 37, 41, 27, 44, 11, 20, 13, 26, 17, 24, 35, 21, 16, 3, 42, 34, 8, 18, 13, 28, 42, 14, 43, 32, 32, 10, 42, 40, 21, 2, 21, 10, 26, 9, 35, 27, 12, 13, 21, 14, 20, 29, 27, 38, 16
            |17, 21, 41, 12, 0, 16, 29, 10, 16, 28, 15, 13, 7, 17, 18, 13, 23, 17, 40, 9, 8, 17, 35, 6, 4, 26, 33, 16, 16, 13, 23, 35, 21, 26, 36, 16, 26, 29, 28, 34, 1, 20, 18, 16, 8, 17, 28, 16, 8, 14, 30, 25, 8, 16, 3, 20, 31, 21, 32, 28, 22, 4, 31, 28, 18, 14, 13, 14, 14, 12, 24, 17, 10, 8, 23, 11, 20, 28, 16, 29, 23
            |7, 24, 44, 25, 16, 0, 44, 11, 3, 27, 28, 28, 13, 20, 17, 4, 25, 16, 43, 15, 9, 33, 43, 15, 13, 30, 48, 26, 15, 29, 9, 30, 26, 31, 35, 31, 23, 22, 43, 38, 17, 34, 22, 24, 20, 27, 37, 9, 22, 26, 25, 32, 17, 31, 17, 5, 29, 26, 18, 40, 25, 19, 29, 16, 32, 26, 5, 20, 12, 19, 11, 24, 25, 13, 39, 13, 34, 42, 4, 34, 26
            |42, 43, 39, 28, 29, 44, 0, 34, 43, 40, 16, 17, 36, 42, 45, 42, 33, 44, 39, 36, 34, 14, 24, 33, 30, 30, 4, 33, 44, 18, 50, 47, 27, 30, 43, 22, 40, 47, 1, 35, 28, 9, 41, 25, 24, 20, 20, 45, 22, 31, 45, 24, 33, 13, 27, 48, 41, 42, 56, 12, 31, 26, 41, 52, 12, 30, 42, 38, 36, 36, 49, 26, 19, 36, 7, 39, 9, 5, 43, 29, 45
            |8, 28, 35, 22, 10, 11, 34, 0, 9, 20, 18, 20, 13, 24, 23, 12, 16, 22, 34, 16, 4, 25, 33, 14, 6, 20, 38, 25, 21, 22, 16, 25, 16, 21, 28, 25, 17, 19, 34, 28, 11, 25, 25, 13, 10, 16, 26, 17, 12, 24, 20, 22, 16, 21, 10, 16, 22, 29, 23, 30, 15, 13, 22, 19, 22, 24, 12, 22, 4, 20, 16, 13, 17, 14, 30, 16, 25, 32, 9, 24, 30
            |4, 26, 42, 26, 16, 3, 43, 9, 0, 24, 27, 28, 14, 22, 19, 6, 22, 19, 41, 16, 9, 33, 41, 16, 13, 27, 47, 28, 17, 29, 8, 27, 24, 28, 33, 31, 21, 19, 43, 35, 17, 34, 24, 22, 19, 25, 35, 12, 21, 27, 22, 30, 19, 30, 17, 7, 26, 28, 17, 39, 23, 19, 26, 14, 31, 28, 7, 22, 9, 21, 9, 22, 25, 14, 38, 15, 34, 41, 1, 32, 29
            |20, 48, 18, 40, 28, 27, 40, 20, 24, 0, 26, 33, 33, 44, 42, 30, 7, 41, 17, 35, 23, 37, 25, 33, 25, 10, 42, 44, 40, 36, 26, 8, 13, 11, 8, 41, 4, 10, 40, 13, 29, 34, 45, 16, 23, 21, 22, 35, 25, 42, 7, 16, 36, 31, 27, 31, 2, 48, 24, 30, 9, 30, 2, 20, 30, 42, 30, 42, 16, 40, 22, 15, 31, 34, 39, 36, 34, 36, 23, 14, 50
            |26, 34, 31, 21, 15, 28, 16, 18, 27, 26, 0, 9, 22, 31, 33, 27, 18, 32, 31, 24, 19, 12, 21, 21, 15, 18, 20, 25, 32, 12, 34, 33, 13, 18, 31, 18, 25, 31, 16, 25, 14, 8, 31, 9, 8, 5, 14, 31, 7, 23, 30, 14, 22, 5, 12, 33, 27, 33, 40, 13, 16, 13, 27, 35, 5, 23, 27, 28, 20, 25, 33, 10, 8, 23, 13, 26, 8, 14, 26, 19, 36
            |28, 27, 40, 13, 13, 28, 17, 20, 28, 33, 9, 0, 18, 25, 28, 26, 26, 27, 40, 19, 19, 5, 30, 16, 15, 26, 21, 17, 27, 3, 35, 40, 21, 27, 39, 9, 31, 37, 16, 34, 11, 8, 25, 17, 11, 14, 23, 28, 9, 15, 37, 23, 16, 6, 11, 32, 35, 26, 43, 20, 24, 9, 35, 39, 8, 14, 25, 21, 23, 19, 35, 18, 3, 19, 11, 22, 8, 17, 28, 28, 29
            |17, 14, 47, 12, 7, 13, 36, 13, 14, 33, 22, 18, 0, 11, 11, 9, 28, 10, 47, 2, 10, 22, 42, 2, 9, 32, 39, 13, 9, 18, 22, 38, 27, 33, 41, 18, 30, 32, 35, 40, 8, 26, 12, 23, 15, 24, 35, 10, 16, 13, 34, 32, 4, 23, 10, 16, 35, 15, 31, 36, 28, 10, 35, 28, 25, 13, 9, 9, 17, 7, 24, 24, 16, 1, 29, 4, 26, 35, 15, 36, 17
            |26, 4, 58, 14, 17, 20, 42, 24, 22, 44, 31, 25, 11, 0, 5, 16, 39, 4, 57, 8, 20, 28, 52, 11, 20, 42, 46, 11, 6, 24, 28, 48, 38, 43, 52, 21, 40, 41, 41, 51, 17, 33, 2, 33, 25, 34, 45, 12, 25, 13, 43, 42, 10, 31, 20, 20, 46, 6, 38, 44, 38, 19, 46, 36, 33, 14, 15, 4, 27, 6, 31, 34, 24, 10, 35, 8, 33, 43, 24, 46, 6
            |23, 8, 57, 18, 18, 17, 45, 23, 19, 42, 33, 28, 11, 5, 0, 13, 38, 1, 57, 9, 19, 31, 53, 12, 20, 42, 49, 16, 2, 27, 24, 46, 37, 43, 50, 25, 39, 38, 44, 50, 19, 36, 7, 34, 26, 35, 46, 8, 26, 17, 41, 43, 12, 33, 21, 16, 44, 11, 34, 46, 38, 20, 44, 33, 35, 18, 12, 8, 26, 9, 27, 34, 26, 10, 38, 7, 36, 45, 21, 46, 10
            |10, 20, 46, 22, 13, 4, 42, 12, 6, 30, 27, 26, 9, 16, 13, 0, 27, 13, 45, 11, 9, 31, 44, 11, 12, 31, 46, 22, 11, 27, 12, 33, 28, 32, 38, 28, 26, 25, 42, 39, 15, 33, 18, 25, 19, 27, 37, 6, 20, 22, 28, 33, 14, 29, 16, 6, 32, 22, 22, 40, 27, 17, 32, 20, 31, 23, 1, 16, 14, 16, 15, 25, 23, 9, 37, 9, 33, 41, 8, 36, 22
            |19, 43, 19, 34, 23, 25, 33, 16, 22, 7, 18, 26, 28, 39, 38, 27, 0, 37, 19, 31, 19, 30, 20, 28, 19, 5, 35, 38, 36, 29, 26, 15, 6, 6, 14, 34, 7, 15, 33, 13, 23, 26, 40, 9, 16, 14, 16, 32, 18, 36, 13, 10, 31, 24, 21, 30, 9, 43, 27, 23, 2, 23, 9, 23, 23, 36, 27, 37, 13, 35, 23, 8, 24, 29, 32, 32, 26, 29, 21, 10, 45
            |23, 8, 57, 17, 17, 16, 44, 22, 19, 41, 32, 27, 10, 4, 1, 13, 37, 0, 56, 8, 18, 30, 52, 11, 19, 41, 48, 15, 2, 26, 24, 46, 37, 42, 50, 24, 38, 38, 43, 50, 18, 35, 7, 33, 25, 34, 45, 8, 25, 16, 41, 42, 11, 32, 20, 16, 44, 10, 34, 45, 37, 19, 44, 32, 34, 17, 12, 7, 25, 9, 27, 33, 25, 9, 37, 6, 35, 44, 20, 45, 10
            |37, 61, 1, 50, 40, 43, 39, 34, 41, 17, 31, 40, 47, 57, 57, 45, 19, 56, 0, 49, 38, 43, 16, 46, 37, 15, 39, 55, 55, 43, 43, 20, 20, 14, 11, 49, 21, 27, 40, 6, 41, 37, 58, 24, 33, 26, 19, 51, 34, 53, 23, 17, 48, 35, 38, 48, 16, 61, 41, 27, 19, 40, 16, 37, 34, 52, 46, 55, 32, 52, 39, 24, 39, 47, 41, 50, 37, 34, 39, 12, 63
            |19, 12, 49, 11, 9, 15, 36, 16, 16, 35, 24, 19, 2, 8, 9, 11, 31, 8, 49, 0, 12, 23, 44, 3, 11, 34, 40, 12, 8, 19, 23, 40, 29, 35, 44, 18, 32, 34, 35, 42, 9, 27, 9, 25, 17, 25, 37, 10, 17, 12, 36, 34, 4, 24, 12, 17, 38, 13, 33, 37, 30, 11, 38, 30, 26, 12, 10, 6, 19, 5, 25, 26, 17, 2, 30, 3, 27, 36, 17, 38, 14
            |9, 24, 38, 19, 8, 9, 34, 4, 9, 23, 19, 19, 10, 20, 19, 9, 19, 18, 38, 12, 0, 24, 35, 10, 4, 23, 38, 22, 17, 21, 16, 28, 19, 24, 32, 23, 20, 22, 34, 31, 9, 25, 21, 16, 10, 18, 28, 14, 12, 21, 24, 24, 13, 21, 8, 14, 26, 25, 24, 31, 19, 11, 26, 21, 23, 21, 9, 18, 7, 17, 17, 16, 16, 10, 29, 13, 25, 33, 8, 27, 26
            |33, 29, 43, 14, 17, 33, 14, 25, 33, 37, 12, 5, 22, 28, 31, 31, 30, 30, 43, 23, 24, 0, 31, 20, 20, 30, 18, 19, 31, 4, 40, 45, 25, 30, 43, 8, 36, 42, 13, 37, 16, 7, 27, 21, 16, 17, 25, 32, 13, 16, 41, 26, 19, 7, 16, 37, 39, 28, 48, 20, 28, 14, 39, 44, 9, 16, 30, 24, 28, 22, 40, 22, 8, 23, 7, 26, 7, 16, 33, 31, 31
            |38, 55, 16, 42, 35, 43, 24, 33, 41, 25, 21, 30, 42, 52, 53, 44, 20, 52, 16, 44, 35, 31, 0, 41, 33, 16, 24, 47, 51, 33, 46, 31, 17, 15, 23, 38, 27, 35, 25, 13, 34, 24, 52, 20, 27, 18, 7, 49, 27, 45, 31, 11, 42, 24, 32, 48, 25, 54, 48, 12, 19, 33, 25, 43, 22, 44, 44, 49, 32, 46, 43, 19, 30, 43, 28, 46, 24, 19, 40, 11, 57
            |18, 15, 47, 10, 6, 15, 33, 14, 16, 33, 21, 16, 2, 11, 12, 11, 28, 11, 46, 3, 10, 20, 41, 0, 9, 31, 37, 12, 11, 16, 23, 39, 26, 32, 41, 16, 30, 32, 33, 40, 6, 24, 12, 22, 14, 22, 34, 12, 14, 11, 34, 31, 3, 21, 9, 18, 35, 15, 33, 34, 27, 8, 35, 30, 23, 12, 11, 9, 17, 7, 25, 23, 14, 3, 27, 6, 24, 33, 16, 35, 17
            |13, 23, 38, 16, 4, 13, 30, 6, 13, 25, 15, 15, 9, 20, 20, 12, 19, 19, 37, 11, 4, 20, 33, 9, 0, 23, 34, 19, 18, 16, 21, 31, 18, 23, 33, 19, 22, 25, 30, 31, 5, 21, 21, 14, 7, 15, 26, 16, 8, 18, 26, 23, 11, 17, 4, 18, 27, 24, 28, 28, 18, 7, 27, 25, 19, 18, 12, 17, 10, 15, 21, 14, 12, 10, 25, 13, 21, 29, 13, 26, 26
            |24, 46, 16, 36, 26, 30, 30, 20, 27, 10, 18, 26, 32, 42, 42, 31, 5, 41, 15, 34, 23, 30, 16, 31, 23, 0, 32, 40, 40, 30, 31, 17, 5, 1, 13, 35, 11, 19, 31, 8, 26, 25, 43, 10, 18, 13, 12, 37, 20, 38, 16, 6, 33, 23, 23, 34, 11, 46, 32, 20, 4, 26, 11, 28, 22, 38, 32, 40, 18, 38, 28, 9, 25, 33, 30, 35, 25, 26, 26, 5, 48
            |45, 47, 39, 32, 33, 48, 4, 38, 47, 42, 20, 21, 39, 46, 49, 46, 35, 48, 39, 40, 38, 18, 24, 37, 34, 32, 0, 37, 48, 22, 54, 49, 29, 32, 44, 26, 42, 50, 5, 35, 32, 13, 45, 28, 28, 23, 21, 49, 26, 35, 48, 26, 37, 17, 30, 52, 43, 46, 59, 13, 33, 30, 43, 55, 15, 34, 46, 42, 40, 40, 53, 28, 23, 40, 11, 43, 13, 6, 46, 30, 49
            |30, 11, 55, 5, 16, 26, 33, 25, 28, 44, 25, 17, 13, 11, 16, 22, 38, 15, 55, 12, 22, 19, 47, 12, 19, 40, 37, 0, 16, 15, 35, 50, 35, 41, 52, 11, 41, 44, 32, 49, 15, 25, 9, 31, 22, 29, 40, 21, 21, 2, 46, 38, 9, 23, 17, 28, 46, 9, 44, 37, 37, 15, 46, 42, 26, 3, 22, 8, 29, 7, 37, 31, 17, 14, 25, 14, 25, 34, 28, 43, 12
            |21, 10, 55, 18, 16, 15, 44, 21, 17, 40, 32, 27, 9, 6, 2, 11, 36, 2, 55, 8, 17, 31, 51, 11, 18, 40, 48, 16, 0, 26, 22, 44, 36, 41, 48, 25, 36, 36, 43, 48, 17, 35, 9, 32, 24, 33, 44, 6, 25, 17, 39, 41, 11, 32, 20, 14, 42, 12, 32, 45, 36, 19, 42, 30, 34, 18, 10, 8, 23, 9, 25, 32, 25, 8, 37, 5, 35, 44, 18, 44, 12
            |29, 25, 43, 10, 13, 29, 18, 22, 29, 36, 12, 3, 18, 24, 27, 27, 29, 26, 43, 19, 21, 4, 33, 16, 16, 30, 22, 15, 26, 0, 37, 43, 24, 30, 42, 6, 34, 40, 17, 37, 12, 10, 23, 20, 13, 17, 26, 28, 11, 13, 40, 26, 15, 8, 12, 33, 38, 24, 45, 22, 27, 10, 38, 41, 11, 12, 26, 20, 25, 18, 37, 21, 5, 19, 11, 22, 10, 19, 29, 31, 27
            |9, 32, 44, 34, 23, 9, 50, 16, 8, 26, 34, 35, 22, 28, 24, 12, 26, 24, 43, 23, 16, 40, 46, 23, 21, 31, 54, 35, 22, 37, 0, 26, 29, 32, 34, 39, 22, 18, 50, 38, 25, 41, 30, 28, 26, 32, 40, 16, 28, 35, 22, 35, 26, 37, 25, 8, 27, 34, 10, 45, 27, 27, 27, 9, 39, 35, 13, 28, 15, 28, 4, 28, 33, 21, 46, 21, 41, 48, 8, 36, 34
            |23, 52, 21, 46, 35, 30, 47, 25, 27, 8, 33, 40, 38, 48, 46, 33, 15, 46, 20, 40, 28, 45, 31, 39, 31, 17, 49, 50, 44, 43, 26, 0, 21, 18, 9, 48, 9, 9, 48, 18, 35, 41, 50, 24, 30, 28, 29, 39, 32, 49, 5, 24, 41, 38, 33, 33, 6, 53, 22, 37, 17, 36, 6, 19, 38, 49, 34, 47, 21, 45, 22, 23, 38, 39, 46, 41, 41, 43, 26, 21, 55
            |21, 41, 21, 30, 21, 26, 27, 16, 24, 13, 13, 21, 27, 38, 37, 28, 6, 37, 20, 29, 19, 25, 17, 26, 18, 5, 29, 35, 36, 24, 29, 21, 0, 6, 18, 30, 13, 21, 27, 14, 21, 21, 38, 4, 13, 8, 11, 33, 14, 33, 19, 6, 28, 18, 18, 31, 15, 41, 32, 18, 4, 20, 15, 27, 17, 33, 28, 35, 15, 33, 27, 4, 20, 28, 26, 31, 21, 23, 23, 9, 43
            |25, 47, 15, 36, 26, 31, 30, 21, 28, 11, 18, 27, 33, 43, 43, 32, 6, 42, 14, 35, 24, 30, 15, 32, 23, 1, 32, 41, 41, 30, 32, 18, 6, 0, 13, 35, 12, 20, 31, 8, 26, 25, 44, 10, 19, 13, 11, 38, 20, 39, 17, 6, 34, 23, 24, 35, 11, 47, 33, 19, 5, 26, 11, 29, 22, 38, 33, 40, 19, 38, 29, 9, 25, 33, 30, 36, 25, 25, 27, 4, 49
            |28, 56, 12, 47, 36, 35, 43, 28, 33, 8, 31, 39, 41, 52, 50, 38, 14, 50, 11, 44, 32, 43, 23, 41, 33, 13, 44, 52, 48, 42, 34, 9, 18, 13, 0, 48, 12, 16, 44, 10, 37, 38, 53, 22, 30, 26, 23, 44, 32, 50, 12, 19, 44, 36, 34, 39, 6, 56, 30, 32, 15, 37, 6, 27, 35, 50, 39, 50, 25, 48, 30, 21, 37, 42, 43, 44, 38, 38, 31, 14, 58
            |32, 22, 49, 7, 16, 31, 22, 25, 31, 41, 18, 9, 18, 21, 25, 28, 34, 24, 49, 18, 23, 8, 38, 16, 19, 35, 26, 11, 25, 6, 39, 48, 30, 35, 48, 0, 39, 44, 21, 43, 14, 15, 20, 25, 18, 22, 32, 28, 16, 9, 44, 32, 14, 14, 16, 34, 43, 20, 47, 28, 32, 13, 43, 44, 16, 8, 27, 17, 29, 16, 40, 26, 10, 19, 15, 21, 15, 24, 31, 37, 23
            |16, 44, 22, 37, 26, 23, 40, 17, 21, 4, 25, 31, 30, 40, 39, 26, 7, 38, 21, 32, 20, 36, 27, 30, 22, 11, 42, 41, 36, 34, 22, 9, 13, 12, 12, 39, 0, 8, 40, 16, 26, 33, 42, 15, 21, 20, 23, 32, 23, 40, 6, 17, 33, 30, 24, 27, 6, 45, 21, 30, 9, 27, 6, 17, 30, 40, 27, 38, 13, 37, 18, 14, 29, 30, 38, 33, 33, 36, 19, 16, 47
            |15, 45, 28, 41, 29, 22, 47, 19, 19, 10, 31, 37, 32, 41, 38, 25, 15, 38, 27, 34, 22, 42, 35, 32, 25, 19, 50, 44, 36, 40, 18, 9, 21, 20, 16, 44, 8, 0, 47, 23, 30, 39, 43, 22, 26, 27, 31, 31, 28, 43, 4, 25, 35, 36, 28, 25, 11, 47, 14, 38, 17, 31, 11, 10, 36, 43, 26, 40, 15, 39, 14, 21, 34, 32, 45, 34, 39, 43, 18, 24, 47
            |42, 42, 40, 27, 28, 43, 1, 34, 43, 40, 16, 16, 35, 41, 44, 42, 33, 43, 40, 35, 34, 13, 25, 33, 30, 31, 5, 32, 43, 17, 50, 48, 27, 31, 44, 21, 40, 47, 0, 35, 27, 9, 40, 25, 24, 20, 21, 44, 22, 29, 46, 25, 32, 13, 26, 48, 42, 41, 56, 13, 31, 25, 42, 52, 11, 28, 41, 37, 36, 35, 49, 26, 19, 36, 6, 38, 9, 6, 42, 30, 44
            |31, 54, 7, 44, 34, 38, 35, 28, 35, 13, 25, 34, 40, 51, 50, 39, 13, 50, 6, 42, 31, 37, 13, 40, 31, 8, 35, 49, 48, 37, 38, 18, 14, 8, 10, 43, 16, 23, 35, 0, 34, 31, 52, 18, 27, 20, 14, 45, 28, 47, 19, 11, 42, 30, 31, 42, 12, 55, 37, 23, 13, 34, 12, 33, 28, 46, 40, 48, 26, 46, 34, 17, 33, 41, 36, 44, 31, 30, 34, 6, 57
            |18, 21, 41, 11, 1, 17, 28, 11, 17, 29, 14, 11, 8, 17, 19, 15, 23, 18, 41, 9, 9, 16, 34, 6, 5, 26, 32, 15, 17, 12, 25, 35, 21, 26, 37, 14, 26, 30, 27, 34, 0, 18, 18, 16, 8, 16, 27, 17, 8, 13, 31, 25, 8, 15, 3, 21, 31, 21, 33, 27, 22, 2, 31, 30, 17, 13, 14, 14, 15, 12, 26, 17, 9, 9, 22, 12, 18, 27, 17, 29, 23
            |33, 35, 37, 20, 20, 34, 9, 25, 34, 34, 8, 8, 26, 33, 36, 33, 26, 35, 37, 27, 25, 7, 24, 24, 21, 25, 13, 25, 35, 10, 41, 41, 21, 25, 38, 15, 33, 39, 9, 31, 18, 0, 33, 17, 15, 13, 18, 36, 13, 23, 38, 20, 24, 4, 17, 39, 35, 34, 47, 13, 24, 16, 35, 43, 3, 22, 33, 29, 28, 27, 40, 18, 10, 27, 5, 30, 0, 9, 33, 25, 37
            |28, 3, 59, 13, 18, 22, 41, 25, 24, 45, 31, 25, 12, 2, 7, 18, 40, 7, 58, 9, 21, 27, 52, 12, 21, 43, 45, 9, 9, 23, 30, 50, 38, 44, 53, 20, 42, 43, 40, 52, 18, 33, 0, 34, 26, 34, 45, 14, 25, 11, 45, 43, 10, 30, 21, 22, 47, 4, 40, 44, 39, 19, 47, 38, 33, 12, 17, 4, 29, 6, 33, 35, 23, 11, 34, 9, 33, 42, 25, 47, 5
            |19, 37, 25, 26, 16, 24, 25, 13, 22, 16, 9, 17, 23, 33, 34, 25, 9, 33, 24, 25, 16, 21, 20, 22, 14, 10, 28, 31, 32, 20, 28, 24, 4, 10, 22, 25, 15, 22, 25, 18, 16, 17, 34, 0, 9, 5, 13, 29, 10, 29, 21, 9, 24, 15, 13, 29, 18, 37, 32, 17, 7, 16, 18, 27, 14, 28, 25, 30, 13, 28, 26, 1, 15, 24, 23, 27, 17, 21, 21, 13, 39
            |18, 28, 34, 17, 8, 20, 24, 10, 19, 23, 8, 11, 15, 25, 26, 19, 16, 25, 33, 17, 10, 16, 27, 14, 7, 18, 28, 22, 24, 13, 26, 30, 13, 19, 30, 18, 21, 26, 24, 27, 8, 15, 26, 9, 0, 9, 20, 23, 2, 20, 26, 17, 16, 11, 5, 25, 25, 28, 33, 21, 15, 7, 25, 28, 13, 20, 19, 22, 13, 20, 25, 9, 8, 16, 20, 19, 15, 22, 18, 21, 30
            |23, 37, 27, 24, 17, 27, 20, 16, 25, 21, 5, 14, 24, 34, 35, 27, 14, 34, 26, 25, 18, 17, 18, 22, 15, 13, 23, 29, 33, 17, 32, 28, 8, 13, 26, 22, 20, 27, 20, 20, 16, 13, 34, 5, 9, 0, 11, 31, 9, 27, 26, 9, 24, 10, 13, 32, 23, 36, 37, 13, 11, 15, 23, 32, 9, 26, 27, 30, 17, 28, 30, 6, 13, 25, 18, 28, 13, 16, 25, 14, 39
            |32, 48, 19, 35, 28, 37, 20, 26, 35, 22, 14, 23, 35, 45, 46, 37, 16, 45, 19, 37, 28, 25, 7, 34, 26, 12, 21, 40, 44, 26, 40, 29, 11, 11, 23, 32, 23, 31, 21, 14, 27, 18, 45, 13, 20, 11, 0, 42, 20, 37, 28, 6, 35, 17, 25, 42, 23, 47, 43, 9, 14, 26, 23, 39, 16, 37, 38, 41, 26, 39, 38, 13, 23, 36, 22, 39, 18, 15, 34, 9, 50
            |16, 16, 52, 21, 16, 9, 45, 17, 12, 35, 31, 28, 10, 12, 8, 6, 32, 8, 51, 10, 14, 32, 49, 12, 16, 37, 49, 21, 6, 28, 16, 39, 33, 38, 44, 28, 32, 31, 44, 45, 17, 36, 14, 29, 23, 31, 42, 0, 24, 21, 34, 38, 14, 32, 19, 8, 37, 18, 26, 44, 32, 19, 37, 25, 34, 22, 5, 13, 19, 14, 19, 30, 26, 9, 39, 7, 36, 44, 13, 41, 18
            |20, 28, 35, 16, 8, 22, 22, 12, 21, 25, 7, 9, 16, 25, 26, 20, 18, 25, 34, 17, 12, 13, 27, 14, 8, 20, 26, 21, 25, 11, 28, 32, 14, 20, 32, 16, 23, 28, 22, 28, 8, 13, 25, 10, 2, 9, 20, 24, 0, 19, 28, 18, 15, 9, 5, 26, 27, 28, 35, 20, 16, 6, 27, 31, 11, 18, 20, 22, 15, 19, 28, 11, 6, 16, 18, 20, 13, 21, 20, 22, 30
            |29, 13, 54, 3, 14, 26, 31, 24, 27, 42, 23, 15, 13, 13, 17, 22, 36, 16, 53, 12, 21, 16, 45, 11, 18, 38, 35, 2, 17, 13, 35, 49, 33, 39, 50, 9, 40, 43, 29, 47, 13, 23, 11, 29, 20, 27, 37, 21, 19, 0, 44, 36, 9, 21, 16, 28, 45, 11, 44, 35, 35, 13, 45, 41, 23, 1, 21, 9, 28, 8, 36, 30, 15, 13, 23, 14, 23, 32, 28, 41, 14
            |18, 48, 24, 42, 30, 25, 45, 20, 22, 7, 30, 37, 34, 43, 41, 28, 13, 41, 23, 36, 24, 41, 31, 34, 26, 16, 48, 46, 39, 40, 22, 5, 19, 17, 12, 44, 6, 4, 46, 19, 31, 38, 45, 21, 26, 26, 28, 34, 28, 44, 0, 23, 37, 35, 29, 28, 7, 49, 18, 36, 15, 32, 7, 15, 35, 44, 29, 42, 16, 41, 17, 20, 35, 34, 44, 36, 38, 41, 21, 21, 50
            |27, 45, 17, 34, 25, 32, 24, 22, 30, 16, 14, 23, 32, 42, 43, 33, 10, 42, 17, 34, 24, 26, 11, 31, 23, 6, 26, 38, 41, 26, 35, 24, 6, 6, 19, 32, 17, 25, 25, 11, 25, 20, 43, 9, 17, 9, 6, 38, 18, 36, 23, 0, 33, 18, 22, 37, 17, 45, 37, 14, 9, 24, 17, 33, 17, 36, 34, 39, 21, 37, 33, 9, 22, 33, 25, 36, 20, 20, 29, 5, 48
            |21, 13, 49, 8, 8, 17, 33, 16, 19, 36, 22, 16, 4, 10, 12, 14, 31, 11, 48, 4, 13, 19, 42, 3, 11, 33, 37, 9, 11, 15, 26, 41, 28, 34, 44, 14, 33, 35, 32, 42, 8, 24, 10, 24, 16, 24, 35, 14, 15, 9, 37, 33, 0, 21, 11, 20, 38, 13, 35, 34, 29, 9, 38, 33, 23, 9, 13, 6, 20, 4, 28, 25, 14, 5, 26, 7, 24, 33, 19, 37, 15
            |29, 33, 36, 18, 16, 31, 13, 21, 30, 31, 5, 6, 23, 31, 33, 29, 24, 32, 35, 24, 21, 7, 24, 21, 17, 23, 17, 23, 32, 8, 37, 38, 18, 23, 36, 14, 30, 36, 13, 30, 15, 4, 30, 15, 11, 10, 17, 32, 9, 21, 35, 18, 21, 0, 14, 35, 33, 32, 44, 14, 21, 13, 33, 40, 2, 20, 29, 27, 24, 25, 37, 16, 7, 24, 9, 27, 4, 12, 30, 24, 35
            |17, 23, 38, 13, 3, 17, 27, 10, 17, 27, 12, 11, 10, 20, 21, 16, 21, 20, 38, 12, 8, 16, 32, 9, 4, 23, 30, 17, 20, 12, 25, 33, 18, 24, 34, 16, 24, 28, 26, 31, 3, 17, 21, 13, 5, 13, 25, 19, 5, 16, 29, 22, 11, 14, 0, 22, 29, 23, 32, 25, 19, 3, 29, 29, 15, 16, 16, 17, 14, 15, 25, 14, 8, 11, 21, 15, 17, 25, 17, 26, 25
            |11, 24, 49, 28, 20, 5, 48, 16, 7, 31, 33, 32, 16, 20, 16, 6, 30, 16, 48, 17, 14, 37, 48, 18, 18, 34, 52, 28, 14, 33, 8, 33, 31, 35, 39, 34, 27, 25, 48, 42, 21, 39, 22, 29, 25, 32, 42, 8, 26, 28, 28, 37, 20, 35, 22, 0, 33, 26, 18, 45, 30, 23, 33, 17, 37, 29, 7, 21, 16, 21, 12, 29, 30, 15, 43, 14, 39, 47, 9, 39, 26
            |22, 50, 17, 42, 31, 29, 41, 22, 26, 2, 27, 35, 35, 46, 44, 32, 9, 44, 16, 38, 26, 39, 25, 35, 27, 11, 43, 46, 42, 38, 27, 6, 15, 11, 6, 43, 6, 11, 42, 12, 31, 35, 47, 18, 25, 23, 23, 37, 27, 45, 7, 17, 38, 33, 29, 33, 0, 51, 25, 31, 11, 32, 0, 21, 32, 44, 33, 44, 19, 42, 23, 17, 33, 36, 41, 38, 35, 37, 25, 14, 52
            |32, 3, 62, 14, 21, 26, 42, 29, 28, 48, 33, 26, 15, 6, 11, 22, 43, 10, 61, 13, 25, 28, 54, 15, 24, 46, 46, 9, 12, 24, 34, 53, 41, 47, 56, 20, 45, 47, 41, 55, 21, 34, 4, 37, 28, 36, 47, 18, 28, 11, 49, 45, 13, 32, 23, 26, 51, 0, 44, 46, 42, 21, 51, 42, 34, 12, 21, 7, 32, 9, 37, 38, 25, 15, 35, 13, 34, 43, 29, 50, 3
            |15, 42, 42, 43, 32, 18, 56, 23, 17, 24, 40, 43, 31, 38, 34, 22, 27, 34, 41, 33, 24, 48, 48, 33, 28, 32, 59, 44, 32, 45, 10, 22, 32, 33, 30, 47, 21, 14, 56, 37, 33, 47, 40, 32, 33, 37, 43, 26, 35, 44, 18, 37, 35, 44, 32, 18, 25, 44, 0, 49, 29, 35, 25, 4, 45, 44, 23, 38, 20, 38, 8, 31, 40, 31, 52, 31, 47, 53, 16, 37, 44
            |37, 47, 27, 32, 28, 40, 12, 30, 39, 30, 13, 20, 36, 44, 46, 40, 23, 45, 27, 37, 31, 20, 12, 34, 28, 20, 13, 37, 45, 22, 45, 37, 18, 19, 32, 28, 30, 38, 13, 23, 27, 13, 44, 17, 21, 13, 9, 44, 20, 35, 36, 14, 34, 14, 25, 45, 31, 46, 49, 0, 21, 26, 31, 45, 12, 34, 40, 40, 31, 38, 43, 18, 21, 36, 16, 40, 13, 7, 38, 17, 48
            |19, 42, 20, 32, 22, 25, 31, 15, 23, 9, 16, 24, 28, 38, 38, 27, 2, 37, 19, 30, 19, 28, 19, 27, 18, 4, 33, 37, 36, 27, 27, 17, 4, 5, 15, 32, 9, 17, 31, 13, 22, 24, 39, 7, 15, 11, 14, 32, 16, 35, 15, 9, 29, 21, 19, 30, 11, 42, 29, 21, 0, 22, 11, 24, 21, 35, 27, 36, 14, 34, 24, 6, 22, 28, 29, 31, 24, 26, 22, 9, 44
            |20, 22, 41, 10, 4, 19, 26, 13, 19, 30, 13, 9, 10, 19, 20, 17, 23, 19, 40, 11, 11, 14, 33, 8, 7, 26, 30, 15, 19, 10, 27, 36, 20, 26, 37, 13, 27, 31, 25, 34, 2, 16, 19, 16, 7, 15, 26, 19, 6, 13, 32, 24, 9, 13, 3, 23, 32, 21, 35, 26, 22, 0, 32, 31, 15, 13, 17, 15, 16, 13, 27, 17, 6, 11, 20, 14, 16, 25, 19, 28, 24
            |22, 50, 17, 42, 31, 29, 41, 22, 26, 2, 27, 35, 35, 46, 44, 32, 9, 44, 16, 38, 26, 39, 25, 35, 27, 11, 43, 46, 42, 38, 27, 6, 15, 11, 6, 43, 6, 11, 42, 12, 31, 35, 47, 18, 25, 23, 23, 37, 27, 45, 7, 17, 38, 33, 29, 33, 0, 51, 25, 31, 11, 32, 0, 21, 32, 44, 33, 44, 19, 42, 23, 17, 33, 36, 41, 38, 35, 37, 25, 14, 52
            |12, 40, 38, 40, 28, 16, 52, 19, 14, 20, 35, 39, 28, 36, 33, 20, 23, 32, 37, 30, 21, 44, 43, 30, 25, 28, 55, 42, 30, 41, 9, 19, 27, 29, 27, 44, 17, 10, 52, 33, 30, 43, 38, 27, 28, 32, 39, 25, 31, 41, 15, 33, 33, 40, 29, 17, 21, 42, 4, 45, 24, 31, 21, 0, 40, 41, 21, 36, 16, 35, 5, 27, 36, 28, 48, 29, 43, 49, 13, 33, 42
            |30, 35, 34, 21, 18, 32, 12, 22, 31, 30, 5, 8, 25, 33, 35, 31, 23, 34, 34, 26, 23, 9, 22, 23, 19, 22, 15, 26, 34, 11, 39, 38, 17, 22, 35, 16, 30, 36, 11, 28, 17, 3, 33, 14, 13, 9, 16, 34, 11, 23, 35, 17, 23, 2, 15, 37, 32, 34, 45, 12, 21, 15, 32, 40, 0, 22, 31, 29, 25, 27, 38, 15, 9, 26, 9, 29, 3, 10, 31, 22, 37
            |30, 14, 53, 2, 14, 26, 30, 24, 28, 42, 23, 14, 13, 14, 18, 23, 36, 17, 52, 12, 21, 16, 44, 12, 18, 38, 34, 3, 18, 12, 35, 49, 33, 38, 50, 8, 40, 43, 28, 46, 13, 22, 12, 28, 20, 26, 37, 22, 18, 1, 44, 36, 9, 20, 16, 29, 44, 12, 44, 34, 35, 13, 44, 41, 22, 0, 22, 10, 28, 9, 37, 29, 14, 14, 22, 15, 22, 31, 28, 40, 15
            |11, 19, 47, 21, 13, 5, 42, 12, 7, 30, 27, 25, 9, 15, 12, 1, 27, 12, 46, 10, 9, 30, 44, 11, 12, 32, 46, 22, 10, 26, 13, 34, 28, 33, 39, 27, 27, 26, 41, 40, 14, 33, 17, 25, 19, 27, 38, 5, 20, 21, 29, 34, 13, 29, 16, 7, 33, 21, 23, 40, 27, 17, 33, 21, 31, 22, 0, 15, 14, 15, 16, 25, 23, 8, 36, 8, 33, 41, 9, 36, 21
            |25, 6, 55, 10, 14, 20, 38, 22, 22, 42, 28, 21, 9, 4, 8, 16, 37, 7, 55, 6, 18, 24, 49, 9, 17, 40, 42, 8, 8, 20, 28, 47, 35, 40, 50, 17, 38, 40, 37, 48, 14, 29, 4, 30, 22, 30, 41, 13, 22, 9, 42, 39, 6, 27, 17, 21, 44, 7, 38, 40, 36, 15, 44, 36, 29, 10, 15, 0, 26, 2, 31, 31, 20, 8, 31, 7, 29, 39, 23, 43, 8
            |6, 31, 33, 26, 14, 12, 36, 4, 9, 16, 20, 23, 17, 27, 26, 14, 13, 25, 32, 19, 7, 28, 32, 17, 10, 18, 40, 29, 23, 25, 15, 21, 15, 19, 25, 29, 13, 15, 36, 26, 15, 28, 29, 13, 13, 17, 26, 19, 15, 28, 16, 21, 20, 24, 14, 16, 19, 32, 20, 31, 14, 16, 19, 16, 25, 28, 14, 26, 0, 24, 13, 13, 21, 17, 33, 20, 28, 34, 8, 23, 34
            |24, 9, 53, 9, 12, 19, 36, 20, 21, 40, 25, 19, 7, 6, 9, 16, 35, 9, 52, 5, 17, 22, 46, 7, 15, 38, 40, 7, 9, 18, 28, 45, 33, 38, 48, 16, 37, 39, 35, 46, 12, 27, 6, 28, 20, 28, 39, 14, 19, 8, 41, 37, 4, 25, 15, 21, 42, 9, 38, 38, 34, 13, 42, 35, 27, 9, 15, 2, 24, 0, 30, 29, 18, 7, 29, 7, 27, 36, 22, 41, 11
            |8, 35, 40, 35, 24, 11, 49, 16, 9, 22, 33, 35, 24, 31, 27, 15, 23, 27, 39, 25, 17, 40, 43, 25, 21, 28, 53, 37, 25, 37, 4, 22, 27, 29, 30, 40, 18, 14, 49, 34, 26, 40, 33, 26, 25, 30, 38, 19, 28, 36, 17, 33, 28, 37, 25, 12, 23, 37, 8, 43, 24, 27, 23, 5, 38, 37, 16, 31, 13, 30, 0, 26, 33, 23, 45, 24, 40, 47, 9, 33, 37
            |19, 37, 24, 27, 17, 24, 26, 13, 22, 15, 10, 18, 24, 34, 34, 25, 8, 33, 24, 26, 16, 22, 19, 23, 14, 9, 28, 31, 32, 21, 28, 23, 4, 9, 21, 26, 14, 21, 26, 17, 17, 18, 35, 1, 9, 6, 13, 30, 11, 30, 20, 9, 25, 16, 14, 29, 17, 38, 31, 18, 6, 17, 17, 27, 15, 29, 25, 31, 13, 29, 26, 0, 16, 24, 24, 27, 18, 22, 21, 12, 40
            |25, 26, 39, 12, 10, 25, 19, 17, 25, 31, 8, 3, 16, 24, 26, 23, 24, 25, 39, 17, 16, 8, 30, 14, 12, 25, 23, 17, 25, 5, 33, 38, 20, 25, 37, 10, 29, 34, 19, 33, 9, 10, 23, 15, 8, 13, 23, 26, 6, 15, 35, 22, 14, 7, 8, 30, 33, 25, 40, 21, 22, 6, 33, 36, 9, 14, 23, 20, 21, 18, 33, 16, 0, 17, 13, 20, 10, 19, 25, 27, 28
            |17, 14, 48, 13, 8, 13, 36, 14, 14, 34, 23, 19, 1, 10, 10, 9, 29, 9, 47, 2, 10, 23, 43, 3, 10, 33, 40, 14, 8, 19, 21, 39, 28, 33, 42, 19, 30, 32, 36, 41, 9, 27, 11, 24, 16, 25, 36, 9, 16, 13, 34, 33, 5, 24, 11, 15, 36, 15, 31, 36, 28, 11, 36, 28, 26, 14, 8, 8, 17, 7, 23, 24, 17, 0, 30, 3, 27, 36, 15, 36, 16
            |38, 36, 41, 21, 23, 39, 7, 30, 38, 39, 13, 11, 29, 35, 38, 37, 32, 37, 41, 30, 29, 7, 28, 27, 25, 30, 11, 25, 37, 11, 46, 46, 26, 30, 43, 15, 38, 45, 6, 36, 22, 5, 34, 23, 20, 18, 22, 39, 18, 23, 44, 25, 26, 9, 21, 43, 41, 35, 52, 16, 29, 20, 41, 48, 9, 22, 36, 31, 33, 29, 45, 24, 13, 30, 0, 33, 5, 10, 38, 30, 37
            |18, 12, 51, 14, 11, 13, 39, 16, 15, 36, 26, 22, 4, 8, 7, 9, 32, 6, 50, 3, 13, 26, 46, 6, 13, 35, 43, 14, 5, 22, 21, 41, 31, 36, 44, 21, 33, 34, 38, 44, 12, 30, 9, 27, 19, 28, 39, 7, 20, 14, 36, 36, 7, 27, 15, 14, 38, 13, 31, 40, 31, 14, 38, 29, 29, 15, 8, 7, 20, 7, 24, 27, 20, 3, 33, 0, 30, 39, 16, 39, 14
            |33, 35, 37, 20, 20, 34, 9, 25, 34, 34, 8, 8, 26, 33, 36, 33, 26, 35, 37, 27, 25, 7, 24, 24, 21, 25, 13, 25, 35, 10, 41, 41, 21, 25, 38, 15, 33, 39, 9, 31, 18, 0, 33, 17, 15, 13, 18, 36, 13, 23, 38, 20, 24, 4, 17, 39, 35, 34, 47, 13, 24, 16, 35, 43, 3, 22, 33, 29, 28, 27, 40, 18, 10, 27, 5, 30, 0, 9, 33, 25, 37
            |39, 44, 34, 29, 28, 42, 5, 32, 41, 36, 14, 17, 35, 43, 45, 41, 29, 44, 34, 36, 33, 16, 19, 33, 29, 26, 6, 34, 44, 19, 48, 43, 23, 25, 38, 24, 36, 43, 6, 30, 27, 9, 42, 21, 22, 16, 15, 44, 21, 32, 41, 20, 33, 12, 25, 47, 37, 43, 53, 7, 26, 25, 37, 49, 10, 31, 41, 39, 34, 36, 47, 22, 19, 36, 10, 39, 9, 0, 40, 24, 46
            |3, 28, 40, 27, 16, 4, 43, 9, 1, 23, 26, 28, 15, 24, 21, 8, 21, 20, 39, 17, 8, 33, 40, 16, 13, 26, 46, 28, 18, 29, 8, 26, 23, 27, 31, 31, 19, 18, 42, 34, 17, 33, 25, 21, 18, 25, 34, 13, 20, 28, 21, 29, 19, 30, 17, 9, 25, 29, 16, 38, 22, 19, 25, 13, 31, 28, 9, 23, 8, 22, 9, 21, 25, 15, 38, 16, 33, 40, 0, 31, 30
            |28, 50, 13, 38, 29, 34, 29, 24, 32, 14, 19, 28, 36, 46, 46, 36, 10, 45, 12, 38, 27, 31, 11, 35, 26, 5, 30, 43, 44, 31, 36, 21, 9, 4, 14, 37, 16, 24, 30, 6, 29, 25, 47, 13, 21, 14, 9, 41, 22, 41, 21, 5, 37, 24, 26, 39, 14, 50, 37, 17, 9, 28, 14, 33, 22, 40, 36, 43, 23, 41, 33, 12, 27, 36, 30, 39, 25, 24, 31, 0, 52
            |32, 2, 64, 16, 23, 26, 45, 30, 29, 50, 36, 29, 17, 6, 10, 22, 45, 10, 63, 14, 26, 31, 57, 17, 26, 48, 49, 12, 12, 27, 34, 55, 43, 49, 58, 23, 47, 47, 44, 57, 23, 37, 5, 39, 30, 39, 50, 18, 30, 14, 50, 48, 15, 35, 25, 26, 52, 3, 44, 48, 44, 24, 52, 42, 37, 15, 21, 8, 34, 11, 37, 40, 28, 16, 37, 14, 37, 46, 30, 52, 0|];
early = [0, 327, 219, 376, 435, 0, 10, 493, 0, 128, 60, 466, 419, 341, 320, 300, 107, 409, 168, 404, 0, 0, 51, 375, 0, 62, 28, 375, 318, 0, 289, 250, 71, 103, 135, 357, 126, 262, 467, 132, 0, 5, 341, 112, 84, 61, 165, 306, 0, 369, 219, 40, 372, 542, 0, 296, 150, 565, 262, 8, 57, 0, 111, 235, 0, 349, 436, 353, 606, 375, 262, 54, 0, 408, 0, 423, 9, 16, 0, 151, 574];
late = [738, 468, 348, 504, 592, 78, 145, 652, 66, 260, 198, 604, 563, 469, 471, 447, 257, 551, 308, 552, 105, 120, 180, 528, 82, 209, 148, 522, 457, 139, 430, 366, 187, 226, 278, 506, 263, 427, 618, 298, 119, 142, 476, 231, 207, 201, 308, 449, 98, 522, 381, 181, 493, 656, 108, 438, 274, 689, 390, 162, 209, 103, 248, 381, 122, 512, 578, 469, 732, 487, 399, 224, 110, 518, 159, 559, 136, 156, 98, 293, 703];