% n80w200.004    97.61 799
n = 81;
duration = [|0, 15, 12, 13, 17, 39, 13, 37, 7, 31, 8, 17, 25, 17, 22, 16, 21, 30, 24, 31, 23, 30, 7, 43, 14, 24, 19, 14, 18, 8, 38, 8, 41, 34, 14, 19, 35, 38, 34, 13, 16, 18, 37, 42, 21, 15, 33, 11, 17, 17, 23, 18, 20, 9, 14, 28, 35, 39, 36, 21, 6, 5, 10, 21, 23, 16, 15, 13, 9, 36, 28, 16, 35, 30, 18, 10, 9, 13, 17, 19, 21
            |15, 0, 27, 10, 21, 51, 14, 51, 15, 46, 20, 15, 40, 32, 21, 16, 32, 30, 38, 42, 38, 33, 13, 56, 15, 39, 28, 23, 21, 22, 52, 22, 54, 47, 12, 34, 50, 52, 49, 22, 21, 30, 52, 56, 32, 28, 36, 4, 33, 26, 31, 30, 29, 17, 29, 34, 49, 51, 49, 35, 14, 19, 10, 29, 38, 28, 23, 9, 18, 50, 42, 9, 47, 44, 33, 21, 7, 26, 26, 21, 36
            |12, 27, 0, 24, 22, 30, 22, 26, 14, 19, 10, 27, 16, 8, 27, 24, 19, 33, 17, 24, 14, 31, 16, 32, 23, 13, 21, 15, 25, 5, 26, 9, 31, 28, 22, 10, 23, 26, 23, 14, 19, 16, 25, 30, 18, 11, 34, 23, 6, 16, 21, 15, 18, 16, 5, 26, 25, 30, 27, 10, 14, 10, 20, 20, 12, 12, 19, 23, 14, 26, 20, 27, 26, 21, 10, 14, 21, 10, 16, 23, 11
            |13, 10, 24, 0, 26, 51, 4, 50, 17, 42, 21, 6, 34, 27, 28, 6, 24, 37, 31, 43, 32, 39, 15, 55, 5, 35, 18, 25, 11, 21, 50, 16, 54, 38, 18, 28, 47, 50, 45, 24, 25, 22, 48, 54, 23, 21, 42, 8, 29, 29, 34, 22, 32, 9, 27, 39, 42, 52, 49, 33, 16, 14, 15, 32, 33, 29, 14, 16, 20, 49, 35, 3, 47, 37, 27, 13, 5, 19, 29, 27, 30
            |17, 21, 22, 26, 0, 34, 28, 37, 11, 38, 12, 32, 38, 29, 5, 31, 38, 12, 38, 23, 36, 13, 11, 41, 29, 34, 37, 7, 35, 17, 40, 24, 38, 49, 9, 32, 38, 39, 41, 8, 3, 35, 42, 42, 37, 30, 16, 19, 25, 9, 11, 34, 10, 26, 19, 14, 47, 33, 32, 24, 12, 22, 11, 9, 33, 13, 32, 11, 9, 34, 42, 27, 29, 42, 31, 28, 21, 28, 9, 1, 33
            |39, 51, 30, 51, 34, 0, 51, 10, 36, 24, 31, 56, 35, 33, 37, 53, 47, 35, 39, 10, 34, 30, 38, 9, 52, 28, 50, 29, 55, 31, 16, 38, 6, 48, 41, 33, 17, 14, 24, 29, 31, 44, 22, 13, 46, 39, 31, 48, 25, 25, 22, 43, 24, 46, 25, 23, 40, 1, 3, 20, 37, 39, 41, 24, 29, 23, 48, 43, 33, 7, 39, 54, 4, 37, 34, 44, 48, 39, 25, 34, 32
            |13, 14, 22, 4, 28, 51, 0, 48, 18, 39, 21, 5, 30, 24, 31, 3, 19, 40, 27, 43, 28, 41, 17, 54, 1, 32, 14, 26, 7, 20, 48, 14, 53, 34, 21, 25, 45, 48, 43, 25, 27, 18, 46, 52, 19, 18, 44, 11, 28, 30, 36, 18, 33, 6, 26, 40, 38, 51, 48, 32, 17, 12, 18, 33, 30, 29, 9, 20, 21, 48, 31, 7, 47, 34, 24, 9, 8, 16, 30, 29, 27
            |37, 51, 26, 50, 37, 10, 48, 0, 36, 15, 31, 53, 27, 27, 41, 50, 40, 41, 32, 17, 27, 36, 38, 6, 49, 21, 45, 30, 51, 29, 6, 35, 6, 39, 43, 27, 7, 4, 15, 31, 34, 38, 13, 5, 40, 34, 38, 48, 21, 28, 27, 37, 27, 43, 23, 29, 30, 11, 8, 16, 37, 36, 42, 28, 22, 24, 44, 44, 34, 4, 31, 52, 12, 29, 28, 40, 46, 34, 28, 37, 25
            |7, 15, 14, 17, 11, 36, 18, 36, 0, 33, 5, 22, 30, 21, 15, 21, 28, 23, 30, 27, 28, 23, 2, 41, 19, 27, 26, 9, 24, 9, 38, 14, 39, 40, 8, 23, 35, 38, 36, 8, 9, 25, 38, 41, 27, 21, 26, 12, 19, 12, 18, 24, 15, 16, 14, 22, 39, 36, 34, 21, 1, 11, 6, 16, 26, 13, 22, 9, 3, 35, 33, 19, 32, 34, 23, 17, 12, 18, 12, 12, 25
            |31, 46, 19, 42, 38, 24, 39, 15, 33, 0, 28, 44, 13, 16, 43, 41, 27, 46, 17, 26, 13, 43, 35, 20, 40, 8, 33, 31, 40, 24, 10, 26, 21, 24, 41, 15, 8, 12, 3, 30, 35, 26, 6, 16, 27, 23, 45, 42, 14, 29, 32, 25, 30, 34, 19, 36, 16, 25, 21, 14, 33, 28, 39, 32, 9, 25, 33, 42, 32, 17, 16, 45, 24, 14, 16, 30, 40, 24, 29, 39, 13
            |8, 20, 10, 21, 12, 31, 21, 31, 5, 28, 0, 26, 26, 17, 17, 24, 26, 24, 26, 23, 24, 23, 8, 36, 22, 23, 26, 6, 26, 5, 33, 13, 34, 37, 13, 20, 30, 32, 31, 5, 9, 23, 33, 36, 26, 19, 26, 17, 14, 9, 15, 22, 12, 17, 9, 20, 35, 31, 29, 16, 6, 11, 11, 13, 22, 8, 22, 14, 4, 29, 30, 23, 27, 30, 19, 17, 16, 17, 9, 13, 21
            |17, 15, 27, 6, 32, 56, 5, 53, 22, 44, 26, 0, 34, 28, 34, 3, 22, 43, 31, 48, 33, 45, 21, 59, 4, 36, 16, 31, 6, 25, 52, 18, 58, 37, 24, 30, 50, 53, 47, 30, 31, 21, 50, 57, 22, 22, 48, 14, 33, 34, 40, 22, 37, 11, 31, 45, 42, 56, 53, 37, 21, 17, 21, 38, 35, 34, 12, 23, 25, 53, 35, 6, 52, 37, 28, 14, 11, 21, 34, 33, 32
            |25, 40, 16, 34, 38, 35, 30, 27, 30, 13, 26, 34, 0, 9, 43, 31, 15, 48, 4, 34, 2, 46, 31, 33, 30, 7, 21, 31, 30, 21, 23, 18, 33, 13, 38, 6, 21, 25, 15, 30, 35, 14, 19, 29, 14, 12, 49, 36, 14, 31, 35, 13, 33, 25, 19, 41, 9, 36, 32, 18, 29, 21, 35, 35, 6, 27, 22, 38, 30, 29, 4, 37, 34, 4, 7, 21, 33, 14, 31, 39, 5
            |17, 32, 8, 27, 29, 33, 24, 27, 21, 16, 17, 28, 9, 0, 35, 25, 14, 40, 9, 29, 6, 38, 23, 33, 24, 8, 18, 23, 25, 13, 25, 10, 32, 20, 29, 2, 22, 26, 19, 22, 26, 11, 22, 30, 13, 7, 41, 28, 8, 23, 28, 10, 26, 18, 12, 34, 18, 33, 30, 13, 21, 13, 27, 27, 7, 19, 18, 30, 21, 28, 12, 30, 30, 13, 2, 14, 25, 8, 23, 31, 4
            |22, 21, 27, 28, 5, 37, 31, 41, 15, 43, 17, 34, 43, 35, 0, 34, 43, 9, 44, 27, 41, 12, 15, 45, 32, 39, 41, 13, 38, 22, 45, 29, 42, 54, 10, 37, 43, 44, 46, 13, 9, 40, 47, 46, 42, 35, 15, 21, 30, 14, 15, 39, 14, 30, 25, 16, 52, 37, 36, 30, 16, 26, 13, 13, 38, 18, 36, 12, 13, 39, 47, 29, 33, 48, 37, 32, 23, 33, 14, 4, 38
            |16, 16, 24, 6, 31, 53, 3, 50, 21, 41, 24, 3, 31, 25, 34, 0, 19, 43, 28, 46, 30, 44, 20, 56, 2, 33, 13, 29, 4, 22, 50, 16, 55, 34, 24, 26, 47, 50, 44, 28, 30, 18, 47, 54, 19, 19, 47, 14, 30, 33, 38, 18, 36, 8, 28, 43, 39, 54, 51, 34, 20, 14, 21, 36, 32, 32, 9, 22, 24, 50, 32, 8, 50, 34, 25, 11, 11, 17, 33, 32, 29
            |21, 32, 19, 24, 38, 47, 19, 40, 28, 27, 26, 22, 15, 14, 43, 19, 0, 50, 11, 43, 14, 49, 28, 46, 19, 20, 6, 33, 16, 22, 38, 14, 46, 15, 35, 14, 35, 39, 30, 32, 36, 3, 34, 43, 1, 8, 52, 29, 22, 35, 40, 4, 37, 15, 24, 46, 21, 48, 44, 27, 27, 16, 31, 39, 19, 31, 10, 34, 29, 41, 14, 26, 44, 17, 12, 12, 25, 10, 35, 39, 15
            |30, 30, 33, 37, 12, 35, 40, 41, 23, 46, 24, 43, 48, 40, 9, 43, 50, 0, 49, 25, 46, 5, 23, 44, 41, 43, 49, 18, 46, 28, 46, 36, 41, 60, 19, 42, 44, 45, 48, 18, 14, 47, 49, 46, 49, 42, 6, 30, 34, 17, 15, 46, 16, 38, 29, 12, 57, 34, 35, 33, 24, 34, 22, 14, 43, 22, 44, 21, 21, 38, 52, 38, 31, 53, 42, 40, 32, 40, 17, 11, 43
            |24, 38, 17, 31, 38, 39, 27, 32, 30, 17, 26, 31, 4, 9, 44, 28, 11, 49, 0, 37, 5, 48, 31, 37, 27, 11, 17, 32, 26, 21, 28, 16, 37, 11, 38, 7, 25, 29, 20, 31, 35, 10, 23, 34, 10, 10, 51, 34, 17, 33, 37, 9, 35, 22, 21, 43, 11, 40, 36, 21, 29, 20, 35, 36, 10, 29, 19, 38, 30, 33, 4, 34, 37, 6, 7, 18, 31, 12, 33, 40, 7
            |31, 42, 24, 43, 23, 10, 43, 17, 27, 26, 23, 48, 34, 29, 27, 46, 43, 25, 37, 0, 33, 20, 29, 19, 44, 27, 45, 19, 48, 24, 22, 33, 16, 47, 31, 31, 22, 21, 28, 20, 21, 40, 27, 21, 42, 35, 21, 39, 21, 16, 12, 39, 14, 39, 19, 13, 41, 10, 10, 16, 28, 32, 32, 14, 28, 15, 43, 33, 24, 13, 39, 46, 6, 38, 31, 38, 39, 34, 16, 24, 30
            |23, 38, 14, 32, 36, 34, 28, 27, 28, 13, 24, 33, 2, 6, 41, 30, 14, 46, 5, 33, 0, 44, 29, 32, 29, 6, 20, 29, 28, 19, 23, 16, 33, 15, 36, 4, 21, 25, 16, 28, 32, 13, 19, 29, 14, 11, 47, 34, 12, 29, 33, 12, 31, 23, 17, 39, 12, 35, 31, 16, 27, 19, 33, 33, 5, 25, 21, 36, 28, 28, 6, 35, 32, 7, 5, 19, 31, 12, 29, 37, 3
            |30, 33, 31, 39, 13, 30, 41, 36, 23, 43, 23, 45, 46, 38, 12, 44, 49, 5, 48, 20, 44, 0, 24, 39, 42, 40, 49, 17, 47, 27, 41, 36, 36, 58, 21, 40, 40, 40, 45, 17, 14, 46, 45, 41, 48, 41, 3, 32, 32, 15, 11, 45, 13, 39, 27, 7, 55, 29, 30, 29, 24, 34, 24, 11, 40, 19, 45, 24, 21, 33, 50, 40, 26, 50, 41, 40, 34, 39, 15, 12, 41
            |7, 13, 16, 15, 11, 38, 17, 38, 2, 35, 8, 21, 31, 23, 15, 20, 28, 23, 31, 29, 29, 24, 0, 44, 18, 29, 26, 10, 23, 11, 40, 15, 42, 41, 7, 25, 38, 40, 38, 9, 10, 25, 41, 43, 28, 22, 27, 10, 21, 14, 19, 25, 17, 15, 16, 24, 41, 38, 36, 23, 2, 12, 4, 17, 28, 15, 21, 7, 5, 37, 35, 17, 34, 36, 24, 17, 10, 19, 14, 12, 27
            |43, 56, 32, 55, 41, 9, 54, 6, 41, 20, 36, 59, 33, 33, 45, 56, 46, 44, 37, 19, 32, 39, 44, 0, 55, 26, 51, 35, 57, 35, 10, 41, 3, 44, 47, 33, 12, 8, 19, 35, 38, 44, 16, 4, 45, 40, 40, 53, 26, 32, 30, 43, 31, 48, 28, 32, 35, 11, 9, 22, 42, 42, 47, 32, 28, 29, 50, 49, 39, 7, 36, 58, 13, 34, 34, 46, 52, 40, 32, 41, 31
            |14, 15, 23, 5, 29, 52, 1, 49, 19, 40, 22, 4, 30, 24, 32, 2, 19, 41, 27, 44, 29, 42, 18, 55, 0, 32, 14, 27, 6, 21, 48, 14, 53, 34, 22, 25, 45, 49, 43, 26, 28, 18, 46, 53, 19, 18, 45, 12, 28, 31, 36, 18, 34, 6, 27, 41, 38, 52, 49, 33, 18, 13, 19, 34, 31, 30, 9, 21, 22, 48, 31, 7, 48, 34, 24, 10, 9, 17, 31, 30, 28
            |24, 39, 13, 35, 34, 28, 32, 21, 27, 8, 23, 36, 7, 8, 39, 33, 20, 43, 11, 27, 6, 40, 29, 26, 32, 0, 25, 26, 33, 18, 17, 18, 26, 20, 35, 7, 15, 19, 11, 26, 30, 18, 14, 23, 19, 15, 43, 36, 9, 26, 30, 17, 28, 26, 14, 35, 14, 29, 25, 11, 27, 21, 33, 29, 1, 22, 25, 36, 27, 22, 11, 38, 26, 10, 8, 22, 33, 16, 26, 35, 5
            |19, 28, 21, 18, 37, 50, 14, 45, 26, 33, 26, 16, 21, 18, 41, 13, 6, 49, 17, 45, 20, 49, 26, 51, 14, 25, 0, 32, 10, 22, 42, 13, 50, 21, 32, 18, 40, 44, 35, 31, 35, 7, 39, 48, 7, 11, 52, 24, 25, 35, 41, 8, 38, 11, 26, 46, 27, 51, 47, 30, 25, 15, 28, 39, 24, 32, 5, 31, 28, 45, 20, 21, 47, 23, 17, 9, 21, 11, 35, 38, 20
            |14, 23, 15, 25, 7, 29, 26, 30, 9, 31, 6, 31, 31, 23, 13, 29, 33, 18, 32, 19, 29, 17, 10, 35, 27, 26, 32, 0, 32, 11, 33, 19, 33, 42, 13, 25, 31, 33, 33, 1, 4, 30, 35, 35, 32, 25, 20, 20, 17, 4, 9, 29, 6, 23, 12, 14, 40, 28, 27, 17, 9, 17, 13, 7, 26, 6, 28, 14, 5, 28, 35, 27, 24, 35, 25, 24, 21, 23, 4, 9, 26
            |18, 21, 25, 11, 35, 55, 7, 51, 24, 40, 26, 6, 30, 25, 38, 4, 16, 46, 26, 48, 28, 47, 23, 57, 6, 33, 10, 32, 0, 24, 50, 16, 56, 31, 28, 26, 47, 50, 43, 31, 33, 16, 47, 55, 16, 18, 50, 18, 30, 35, 41, 17, 38, 9, 30, 46, 37, 55, 52, 35, 23, 16, 24, 39, 31, 34, 7, 26, 27, 51, 30, 12, 51, 32, 24, 11, 15, 17, 35, 36, 28
            |8, 22, 5, 21, 17, 31, 20, 29, 9, 24, 5, 25, 21, 13, 22, 22, 22, 28, 21, 24, 19, 27, 11, 35, 21, 18, 22, 11, 24, 0, 30, 9, 33, 32, 17, 15, 27, 30, 27, 10, 14, 19, 30, 34, 21, 14, 30, 19, 10, 13, 18, 18, 16, 15, 6, 24, 30, 31, 29, 13, 9, 8, 15, 17, 17, 10, 19, 18, 9, 28, 25, 23, 27, 25, 14, 14, 17, 12, 13, 18, 16
            |38, 52, 26, 50, 40, 16, 48, 6, 38, 10, 33, 52, 23, 25, 45, 50, 38, 46, 28, 22, 23, 41, 40, 10, 48, 17, 42, 33, 50, 30, 0, 34, 12, 34, 45, 24, 3, 2, 9, 33, 37, 36, 6, 6, 37, 32, 43, 49, 20, 31, 31, 35, 31, 42, 24, 34, 25, 18, 14, 17, 38, 36, 44, 32, 19, 27, 43, 47, 36, 10, 27, 53, 18, 24, 26, 39, 47, 33, 31, 41, 22
            |8, 22, 9, 16, 24, 38, 14, 35, 14, 26, 13, 18, 18, 10, 29, 16, 14, 36, 16, 33, 16, 36, 15, 41, 14, 18, 13, 19, 16, 9, 34, 0, 40, 26, 22, 12, 31, 35, 29, 18, 22, 11, 32, 39, 13, 7, 39, 18, 14, 22, 27, 10, 25, 8, 14, 33, 27, 39, 36, 19, 13, 3, 18, 26, 17, 19, 10, 21, 16, 35, 20, 19, 35, 22, 11, 5, 15, 4, 22, 26, 14
            |41, 54, 31, 54, 38, 6, 53, 6, 39, 21, 34, 58, 33, 32, 42, 55, 46, 41, 37, 16, 33, 36, 42, 3, 53, 26, 50, 33, 56, 33, 12, 40, 0, 45, 45, 33, 13, 9, 20, 33, 36, 44, 18, 7, 45, 39, 37, 51, 26, 30, 28, 43, 28, 47, 27, 29, 36, 8, 6, 21, 40, 41, 45, 29, 28, 27, 49, 47, 37, 5, 37, 57, 10, 35, 34, 45, 50, 39, 30, 39, 31
            |34, 47, 28, 38, 49, 48, 34, 39, 40, 24, 37, 37, 13, 20, 54, 34, 15, 60, 11, 47, 15, 58, 41, 44, 34, 20, 21, 42, 31, 32, 34, 26, 45, 0, 48, 18, 32, 36, 25, 42, 46, 16, 28, 40, 15, 19, 61, 43, 27, 43, 48, 17, 46, 30, 31, 53, 10, 49, 45, 31, 39, 29, 44, 47, 19, 39, 25, 47, 41, 41, 9, 41, 46, 10, 18, 26, 40, 21, 43, 50, 17
            |14, 12, 22, 18, 9, 41, 21, 43, 8, 41, 13, 24, 38, 29, 10, 24, 35, 19, 38, 31, 36, 21, 7, 47, 22, 35, 32, 13, 28, 17, 45, 22, 45, 48, 0, 32, 43, 45, 44, 12, 10, 32, 46, 48, 34, 28, 24, 11, 27, 16, 20, 31, 18, 21, 22, 23, 47, 41, 39, 28, 9, 19, 4, 18, 35, 18, 27, 2, 9, 41, 41, 19, 37, 42, 31, 23, 13, 26, 16, 9, 33
            |19, 34, 10, 28, 32, 33, 25, 27, 23, 15, 20, 30, 6, 2, 37, 26, 14, 42, 7, 31, 4, 40, 25, 33, 25, 7, 18, 25, 26, 15, 24, 12, 33, 18, 32, 0, 22, 26, 18, 24, 29, 11, 21, 30, 13, 8, 43, 30, 9, 25, 30, 10, 28, 19, 14, 36, 16, 34, 30, 14, 23, 15, 29, 29, 6, 21, 18, 32, 24, 28, 10, 31, 31, 11, 1, 16, 27, 9, 25, 33, 2
            |35, 50, 23, 47, 38, 17, 45, 7, 35, 8, 30, 50, 21, 22, 43, 47, 35, 44, 25, 22, 21, 40, 38, 12, 45, 15, 40, 31, 47, 27, 3, 31, 13, 32, 43, 22, 0, 4, 7, 31, 35, 33, 6, 9, 34, 29, 42, 46, 17, 29, 30, 32, 29, 39, 21, 33, 23, 18, 14, 15, 36, 33, 41, 30, 16, 25, 40, 44, 34, 10, 24, 50, 18, 22, 23, 36, 44, 30, 29, 39, 20
            |38, 52, 26, 50, 39, 14, 48, 4, 38, 12, 32, 53, 25, 26, 44, 50, 39, 45, 29, 21, 25, 40, 40, 8, 49, 19, 44, 33, 50, 30, 2, 35, 9, 36, 45, 26, 4, 0, 11, 33, 36, 37, 9, 4, 38, 33, 42, 49, 21, 30, 30, 36, 30, 42, 24, 33, 27, 16, 12, 17, 38, 36, 44, 31, 20, 26, 43, 46, 36, 8, 28, 53, 16, 26, 27, 40, 47, 33, 30, 40, 24
            |34, 49, 23, 45, 41, 24, 43, 15, 36, 3, 31, 47, 15, 19, 46, 44, 30, 48, 20, 28, 16, 45, 38, 19, 43, 11, 35, 33, 43, 27, 9, 29, 20, 25, 44, 18, 7, 11, 0, 33, 37, 28, 4, 15, 29, 26, 47, 46, 17, 32, 34, 28, 33, 37, 22, 38, 16, 25, 21, 16, 36, 31, 42, 34, 12, 28, 36, 45, 35, 17, 18, 48, 24, 16, 19, 33, 43, 27, 32, 42, 16
            |13, 22, 14, 24, 8, 29, 25, 31, 8, 30, 5, 30, 30, 22, 13, 28, 32, 18, 31, 20, 28, 17, 9, 35, 26, 26, 31, 1, 31, 10, 33, 18, 33, 42, 12, 24, 31, 33, 33, 0, 4, 29, 35, 36, 31, 24, 21, 19, 17, 4, 10, 28, 7, 22, 12, 15, 39, 29, 27, 17, 9, 16, 12, 8, 25, 6, 27, 14, 4, 29, 34, 26, 25, 35, 24, 23, 20, 22, 4, 9, 25
            |16, 21, 19, 25, 3, 31, 27, 34, 9, 35, 9, 31, 35, 26, 9, 30, 36, 14, 35, 21, 32, 14, 10, 38, 28, 30, 35, 4, 33, 14, 37, 22, 36, 46, 10, 29, 35, 36, 37, 4, 0, 32, 39, 39, 35, 28, 17, 19, 22, 6, 10, 32, 8, 25, 16, 14, 44, 31, 30, 21, 10, 20, 11, 8, 30, 10, 30, 12, 6, 32, 39, 27, 27, 39, 28, 26, 20, 26, 6, 4, 30
            |18, 30, 16, 22, 35, 44, 18, 38, 25, 26, 23, 21, 14, 11, 40, 18, 3, 47, 10, 40, 13, 46, 25, 44, 18, 18, 7, 30, 16, 19, 36, 11, 44, 16, 32, 11, 33, 37, 28, 29, 32, 0, 32, 41, 2, 5, 49, 27, 19, 31, 37, 1, 34, 13, 21, 42, 21, 45, 41, 24, 24, 13, 29, 35, 17, 28, 9, 32, 26, 39, 14, 25, 41, 16, 10, 9, 23, 7, 31, 36, 13
            |37, 52, 25, 48, 42, 22, 46, 13, 38, 6, 33, 50, 19, 22, 47, 47, 34, 49, 23, 27, 19, 45, 41, 16, 46, 14, 39, 35, 47, 30, 6, 32, 18, 28, 46, 21, 6, 9, 4, 35, 39, 32, 0, 12, 33, 29, 47, 48, 20, 33, 35, 31, 34, 40, 24, 38, 19, 24, 20, 18, 39, 34, 45, 35, 16, 29, 40, 47, 37, 16, 22, 51, 23, 19, 23, 37, 46, 30, 33, 43, 19
            |42, 56, 30, 54, 42, 13, 52, 5, 41, 16, 36, 57, 29, 30, 46, 54, 43, 46, 34, 21, 29, 41, 43, 4, 53, 23, 48, 35, 55, 34, 6, 39, 7, 40, 48, 30, 9, 4, 15, 36, 39, 41, 12, 0, 42, 37, 43, 52, 25, 33, 32, 40, 32, 47, 27, 34, 31, 14, 12, 21, 42, 40, 47, 33, 25, 29, 48, 49, 39, 8, 33, 57, 16, 30, 31, 44, 51, 38, 33, 43, 28
            |21, 32, 18, 23, 37, 46, 19, 40, 27, 27, 26, 22, 14, 13, 42, 19, 1, 49, 10, 42, 14, 48, 28, 45, 19, 19, 7, 32, 16, 21, 37, 13, 45, 15, 34, 13, 34, 38, 29, 31, 35, 2, 33, 42, 0, 7, 51, 28, 21, 34, 39, 3, 36, 15, 23, 45, 20, 47, 43, 26, 26, 16, 31, 38, 18, 30, 10, 34, 29, 41, 13, 26, 43, 16, 11, 11, 25, 9, 34, 39, 14
            |15, 28, 11, 21, 30, 39, 18, 34, 21, 23, 19, 22, 12, 7, 35, 19, 8, 42, 10, 35, 11, 41, 22, 40, 18, 15, 11, 25, 18, 14, 32, 7, 39, 19, 28, 8, 29, 33, 26, 24, 28, 5, 29, 37, 7, 0, 44, 24, 14, 26, 32, 4, 29, 12, 16, 37, 21, 40, 36, 19, 20, 10, 25, 30, 13, 23, 11, 28, 22, 35, 14, 24, 36, 16, 6, 8, 21, 2, 26, 32, 10
            |33, 36, 34, 42, 16, 31, 44, 38, 26, 45, 26, 48, 49, 41, 15, 47, 52, 6, 51, 21, 47, 3, 27, 40, 45, 43, 52, 20, 50, 30, 43, 39, 37, 61, 24, 43, 42, 42, 47, 21, 17, 49, 47, 43, 51, 44, 0, 35, 35, 18, 13, 48, 16, 42, 30, 9, 57, 30, 31, 32, 27, 37, 27, 14, 43, 22, 48, 26, 24, 35, 53, 43, 27, 53, 44, 43, 37, 42, 18, 15, 44
            |11, 4, 23, 8, 19, 48, 11, 48, 12, 42, 17, 14, 36, 28, 21, 14, 29, 30, 34, 39, 34, 32, 10, 53, 12, 36, 24, 20, 18, 19, 49, 18, 51, 43, 11, 30, 46, 49, 46, 19, 19, 27, 48, 52, 28, 24, 35, 0, 29, 24, 29, 26, 26, 13, 25, 33, 45, 48, 46, 32, 11, 15, 8, 27, 34, 25, 19, 9, 15, 46, 38, 8, 44, 40, 29, 17, 4, 22, 24, 20, 32
            |17, 33, 6, 29, 25, 25, 28, 21, 19, 14, 14, 33, 14, 8, 30, 30, 22, 34, 17, 21, 12, 32, 21, 26, 28, 9, 25, 17, 30, 10, 20, 14, 26, 27, 27, 9, 17, 21, 17, 17, 22, 19, 20, 25, 21, 14, 35, 29, 0, 17, 21, 18, 19, 22, 5, 26, 23, 26, 22, 5, 19, 16, 25, 21, 9, 13, 24, 28, 18, 21, 19, 32, 22, 18, 10, 19, 27, 14, 17, 26, 9
            |17, 26, 16, 29, 9, 25, 30, 28, 12, 29, 9, 34, 31, 23, 14, 33, 35, 17, 33, 16, 29, 15, 14, 32, 31, 26, 35, 4, 35, 13, 31, 22, 30, 43, 16, 25, 29, 30, 32, 4, 6, 31, 33, 33, 34, 26, 18, 24, 17, 0, 6, 30, 3, 26, 12, 11, 40, 25, 24, 16, 13, 20, 16, 4, 26, 4, 31, 18, 9, 25, 35, 31, 21, 35, 26, 26, 24, 25, 0, 10, 26
            |23, 31, 21, 34, 11, 22, 36, 27, 18, 32, 15, 40, 35, 28, 15, 38, 40, 15, 37, 12, 33, 11, 19, 30, 36, 30, 41, 9, 41, 18, 31, 27, 28, 48, 20, 30, 30, 30, 34, 10, 10, 37, 35, 32, 39, 32, 13, 29, 21, 6, 0, 36, 3, 32, 17, 5, 44, 22, 22, 19, 19, 26, 21, 2, 30, 9, 37, 22, 15, 24, 40, 36, 18, 40, 31, 32, 30, 30, 6, 12, 31
            |18, 30, 15, 22, 34, 43, 18, 37, 24, 25, 22, 22, 13, 10, 39, 18, 4, 46, 9, 39, 12, 45, 25, 43, 18, 17, 8, 29, 17, 18, 35, 10, 43, 17, 31, 10, 32, 36, 28, 28, 32, 1, 31, 40, 3, 4, 48, 26, 18, 30, 36, 0, 33, 13, 20, 41, 20, 44, 40, 23, 23, 13, 28, 35, 16, 27, 9, 31, 26, 38, 13, 25, 40, 16, 9, 9, 23, 6, 30, 36, 12
            |20, 29, 18, 32, 10, 24, 33, 27, 15, 30, 12, 37, 33, 26, 14, 36, 37, 16, 35, 14, 31, 13, 17, 31, 34, 28, 38, 6, 38, 16, 31, 25, 28, 46, 18, 28, 29, 30, 33, 7, 8, 34, 34, 32, 36, 29, 16, 26, 19, 3, 3, 33, 0, 29, 14, 8, 42, 23, 22, 17, 16, 23, 19, 1, 28, 6, 34, 20, 12, 25, 38, 34, 19, 37, 28, 29, 27, 28, 3, 10, 28
            |9, 17, 16, 9, 26, 46, 6, 43, 16, 34, 17, 11, 25, 18, 30, 8, 15, 38, 22, 39, 23, 39, 15, 48, 6, 26, 11, 23, 9, 15, 42, 8, 47, 30, 21, 19, 39, 42, 37, 22, 25, 13, 40, 47, 15, 12, 42, 13, 22, 26, 32, 13, 29, 0, 21, 37, 33, 46, 43, 26, 15, 7, 17, 30, 25, 25, 6, 20, 18, 42, 26, 12, 42, 28, 18, 4, 10, 10, 26, 28, 22
            |14, 29, 5, 27, 19, 25, 26, 23, 14, 19, 9, 31, 19, 12, 25, 28, 24, 29, 21, 19, 17, 27, 16, 28, 27, 14, 26, 12, 30, 6, 24, 14, 27, 31, 22, 14, 21, 24, 22, 12, 16, 21, 24, 27, 23, 16, 30, 25, 5, 12, 17, 20, 14, 21, 0, 22, 28, 25, 22, 7, 15, 14, 20, 16, 14, 8, 24, 23, 13, 22, 23, 30, 22, 23, 14, 19, 24, 15, 12, 21, 14
            |28, 34, 26, 39, 14, 23, 40, 29, 22, 36, 20, 45, 41, 34, 16, 43, 46, 12, 43, 13, 39, 7, 24, 32, 41, 35, 46, 14, 46, 24, 34, 33, 29, 53, 23, 36, 33, 33, 38, 15, 14, 42, 38, 34, 45, 37, 9, 33, 26, 11, 5, 41, 8, 37, 22, 0, 49, 22, 23, 23, 23, 31, 25, 7, 35, 14, 42, 25, 19, 26, 45, 41, 19, 45, 36, 37, 34, 36, 11, 14, 36
            |35, 49, 25, 42, 47, 40, 38, 30, 39, 16, 35, 42, 9, 18, 52, 39, 21, 57, 11, 41, 12, 55, 41, 35, 38, 14, 27, 40, 37, 30, 25, 27, 36, 10, 47, 16, 23, 27, 16, 39, 44, 21, 19, 31, 20, 21, 57, 45, 23, 40, 44, 20, 42, 33, 28, 49, 0, 41, 37, 25, 39, 30, 45, 43, 14, 36, 30, 48, 39, 33, 7, 45, 39, 5, 16, 29, 42, 23, 40, 48, 14
            |39, 51, 30, 52, 33, 1, 51, 11, 36, 25, 31, 56, 36, 33, 37, 54, 48, 34, 40, 10, 35, 29, 38, 11, 52, 29, 51, 28, 55, 31, 18, 39, 8, 49, 41, 34, 18, 16, 25, 29, 31, 45, 24, 14, 47, 40, 30, 48, 26, 25, 22, 44, 23, 46, 25, 22, 41, 0, 4, 21, 37, 39, 41, 24, 30, 23, 49, 43, 33, 8, 40, 54, 4, 39, 35, 44, 48, 40, 25, 34, 33
            |36, 49, 27, 49, 32, 3, 48, 8, 34, 21, 29, 53, 32, 30, 36, 51, 44, 35, 36, 10, 31, 30, 36, 9, 49, 25, 47, 27, 52, 29, 14, 36, 6, 45, 39, 30, 14, 12, 21, 27, 30, 41, 20, 12, 43, 36, 31, 46, 22, 24, 22, 40, 22, 43, 22, 23, 37, 4, 0, 17, 35, 36, 39, 23, 26, 21, 46, 41, 31, 4, 36, 52, 4, 35, 31, 41, 45, 36, 24, 33, 29
            |21, 35, 10, 33, 24, 20, 32, 16, 21, 14, 16, 37, 18, 13, 30, 34, 27, 33, 21, 16, 16, 29, 23, 22, 33, 11, 30, 17, 35, 13, 17, 19, 21, 31, 28, 14, 15, 17, 16, 17, 21, 24, 18, 21, 26, 19, 32, 32, 5, 16, 19, 23, 17, 26, 7, 23, 25, 21, 17, 0, 21, 20, 27, 18, 12, 11, 29, 30, 19, 16, 22, 36, 17, 22, 15, 24, 30, 19, 16, 25, 14
            |6, 14, 14, 16, 12, 37, 17, 37, 1, 33, 6, 21, 29, 21, 16, 20, 27, 24, 29, 28, 27, 24, 2, 42, 18, 27, 25, 9, 23, 9, 38, 13, 40, 39, 9, 23, 36, 38, 36, 9, 10, 24, 39, 42, 26, 20, 27, 11, 19, 13, 19, 23, 16, 15, 15, 23, 39, 37, 35, 21, 0, 11, 6, 16, 26, 13, 21, 9, 4, 35, 33, 18, 33, 34, 22, 16, 11, 18, 13, 13, 25
            |5, 19, 10, 14, 22, 39, 12, 36, 11, 28, 11, 17, 21, 13, 26, 14, 16, 34, 20, 32, 19, 34, 12, 42, 13, 21, 15, 17, 16, 8, 36, 3, 41, 29, 19, 15, 33, 36, 31, 16, 20, 13, 34, 40, 16, 10, 37, 15, 16, 20, 26, 13, 23, 7, 14, 31, 30, 39, 36, 20, 11, 0, 15, 24, 20, 18, 11, 18, 13, 36, 24, 17, 35, 25, 14, 6, 12, 8, 20, 23, 17
            |10, 10, 20, 15, 11, 41, 18, 42, 6, 39, 11, 21, 35, 27, 13, 21, 31, 22, 35, 32, 33, 24, 4, 47, 19, 33, 28, 13, 24, 15, 44, 18, 45, 44, 4, 29, 41, 44, 42, 12, 11, 29, 45, 47, 31, 25, 27, 8, 25, 16, 21, 28, 19, 17, 20, 25, 45, 41, 39, 27, 6, 15, 0, 19, 32, 18, 24, 3, 8, 40, 38, 16, 37, 40, 28, 20, 10, 23, 16, 12, 31
            |21, 29, 20, 32, 9, 24, 33, 28, 16, 32, 13, 38, 35, 27, 13, 36, 39, 14, 36, 14, 33, 11, 17, 32, 34, 29, 39, 7, 39, 17, 32, 26, 29, 47, 18, 29, 30, 31, 34, 8, 8, 35, 35, 33, 38, 30, 14, 27, 21, 4, 2, 35, 1, 30, 16, 7, 43, 24, 23, 18, 16, 24, 19, 0, 29, 8, 35, 20, 12, 25, 39, 34, 20, 39, 29, 30, 28, 29, 4, 10, 30
            |23, 38, 12, 33, 33, 29, 30, 22, 26, 9, 22, 35, 6, 7, 38, 32, 19, 43, 10, 28, 5, 40, 28, 28, 31, 1, 24, 26, 31, 17, 19, 17, 28, 19, 35, 6, 16, 20, 12, 25, 30, 17, 16, 25, 18, 13, 43, 34, 9, 26, 30, 16, 28, 25, 14, 35, 14, 30, 26, 12, 26, 20, 32, 29, 0, 21, 24, 35, 26, 23, 11, 36, 27, 10, 7, 21, 32, 14, 26, 34, 4
            |16, 28, 12, 29, 13, 23, 29, 24, 13, 25, 8, 34, 27, 19, 18, 32, 31, 22, 29, 15, 25, 19, 15, 29, 30, 22, 32, 6, 34, 10, 27, 19, 27, 39, 18, 21, 25, 26, 28, 6, 10, 28, 29, 29, 30, 23, 22, 25, 13, 4, 9, 27, 6, 25, 8, 14, 36, 23, 21, 11, 13, 18, 18, 8, 21, 0, 29, 20, 10, 22, 31, 31, 19, 31, 22, 24, 24, 22, 4, 14, 22
            |15, 23, 19, 14, 32, 48, 9, 44, 22, 33, 22, 12, 22, 18, 36, 9, 10, 44, 19, 43, 21, 45, 21, 50, 9, 25, 5, 28, 7, 19, 43, 10, 49, 25, 27, 18, 40, 43, 36, 27, 30, 9, 40, 48, 10, 11, 48, 19, 24, 31, 37, 9, 34, 6, 24, 42, 30, 49, 46, 29, 21, 11, 24, 35, 24, 29, 0, 26, 24, 44, 23, 16, 45, 25, 17, 5, 16, 10, 31, 34, 21
            |13, 9, 23, 16, 11, 43, 20, 44, 9, 42, 14, 23, 38, 30, 12, 22, 34, 21, 38, 33, 36, 24, 7, 49, 21, 36, 31, 14, 26, 18, 47, 21, 47, 47, 2, 32, 44, 46, 45, 14, 12, 32, 47, 49, 34, 28, 26, 9, 28, 18, 22, 31, 20, 20, 23, 25, 48, 43, 41, 30, 9, 18, 3, 20, 35, 20, 26, 0, 10, 42, 41, 17, 39, 43, 31, 23, 12, 26, 18, 12, 34
            |9, 18, 14, 20, 9, 33, 21, 34, 3, 32, 4, 25, 30, 21, 13, 24, 29, 21, 30, 24, 28, 21, 5, 39, 22, 27, 28, 5, 27, 9, 36, 16, 37, 41, 9, 24, 34, 36, 35, 4, 6, 26, 37, 39, 29, 22, 24, 15, 18, 9, 15, 26, 12, 18, 13, 19, 39, 33, 31, 19, 4, 13, 8, 12, 26, 10, 24, 10, 0, 32, 34, 22, 29, 34, 23, 19, 15, 20, 9, 10, 25
            |36, 50, 26, 49, 34, 7, 48, 4, 35, 17, 29, 53, 29, 28, 39, 50, 41, 38, 33, 13, 28, 33, 37, 7, 48, 22, 45, 28, 51, 28, 10, 35, 5, 41, 41, 28, 10, 8, 17, 29, 32, 39, 16, 8, 41, 35, 35, 46, 21, 25, 24, 38, 25, 42, 22, 26, 33, 8, 4, 16, 35, 36, 40, 25, 23, 22, 44, 42, 32, 0, 33, 52, 8, 31, 29, 40, 45, 34, 25, 35, 26
            |28, 42, 20, 35, 42, 39, 31, 31, 33, 16, 30, 35, 4, 12, 47, 32, 14, 52, 4, 39, 6, 50, 35, 36, 31, 11, 20, 35, 30, 25, 27, 20, 37, 9, 41, 10, 24, 28, 18, 34, 39, 14, 22, 33, 13, 14, 53, 38, 19, 35, 40, 13, 38, 26, 23, 45, 7, 40, 36, 22, 33, 24, 38, 39, 11, 31, 23, 41, 34, 33, 0, 38, 38, 3, 10, 22, 35, 16, 35, 43, 9
            |16, 9, 27, 3, 27, 54, 7, 52, 19, 45, 23, 6, 37, 30, 29, 8, 26, 38, 34, 46, 35, 40, 17, 58, 7, 38, 21, 27, 12, 23, 53, 19, 57, 41, 19, 31, 50, 53, 48, 26, 27, 25, 51, 57, 26, 24, 43, 8, 32, 31, 36, 25, 34, 12, 30, 41, 45, 54, 52, 36, 18, 17, 16, 34, 36, 31, 16, 17, 22, 52, 38, 0, 50, 40, 30, 16, 7, 23, 31, 28, 34
            |35, 47, 26, 47, 29, 4, 47, 12, 32, 24, 27, 52, 34, 30, 33, 50, 44, 31, 37, 6, 32, 26, 34, 13, 48, 26, 47, 24, 51, 27, 18, 35, 10, 46, 37, 31, 18, 16, 24, 25, 27, 41, 23, 16, 43, 36, 27, 44, 22, 21, 18, 40, 19, 42, 22, 19, 39, 4, 4, 17, 33, 35, 37, 20, 27, 19, 45, 39, 29, 8, 38, 50, 0, 36, 32, 40, 43, 36, 21, 30, 30
            |30, 44, 21, 37, 42, 37, 34, 29, 34, 14, 30, 37, 4, 13, 48, 34, 17, 53, 6, 38, 7, 50, 36, 34, 34, 10, 23, 35, 32, 25, 24, 22, 35, 10, 42, 11, 22, 26, 16, 35, 39, 16, 19, 30, 16, 16, 53, 40, 18, 35, 40, 16, 37, 28, 23, 45, 5, 39, 35, 22, 34, 25, 40, 39, 10, 31, 25, 43, 34, 31, 3, 40, 36, 0, 11, 24, 37, 18, 35, 44, 9
            |18, 33, 10, 27, 31, 34, 24, 28, 23, 16, 19, 28, 7, 2, 37, 25, 12, 42, 7, 31, 5, 41, 24, 34, 24, 8, 17, 25, 24, 14, 26, 11, 34, 18, 31, 1, 23, 27, 19, 24, 28, 10, 23, 31, 11, 6, 44, 29, 10, 26, 31, 9, 28, 18, 14, 36, 16, 35, 31, 15, 22, 14, 28, 29, 7, 22, 17, 31, 23, 29, 10, 30, 32, 11, 0, 14, 26, 8, 26, 33, 4
            |10, 21, 14, 13, 28, 44, 9, 40, 17, 30, 17, 14, 21, 14, 32, 11, 12, 40, 18, 38, 19, 40, 17, 46, 10, 22, 9, 24, 11, 14, 39, 5, 45, 26, 23, 16, 36, 40, 33, 23, 26, 9, 37, 44, 11, 8, 43, 17, 19, 26, 32, 9, 29, 4, 19, 37, 29, 44, 41, 24, 16, 6, 20, 30, 21, 24, 5, 23, 19, 40, 22, 16, 40, 24, 14, 0, 14, 7, 26, 29, 18
            |9, 7, 21, 5, 21, 48, 8, 46, 12, 40, 16, 11, 33, 25, 23, 11, 25, 32, 31, 39, 31, 34, 10, 52, 9, 33, 21, 21, 15, 17, 47, 15, 50, 40, 13, 27, 44, 47, 43, 20, 20, 23, 46, 51, 25, 21, 37, 4, 27, 24, 30, 23, 27, 10, 24, 34, 42, 48, 45, 30, 11, 12, 10, 28, 32, 24, 16, 12, 15, 45, 35, 7, 43, 37, 26, 14, 0, 19, 24, 22, 29
            |13, 26, 10, 19, 28, 39, 16, 34, 18, 24, 17, 21, 14, 8, 33, 17, 10, 40, 12, 34, 12, 39, 19, 40, 17, 16, 11, 23, 17, 12, 33, 4, 39, 21, 26, 9, 30, 33, 27, 22, 26, 7, 30, 38, 9, 2, 42, 22, 14, 25, 30, 6, 28, 10, 15, 36, 23, 40, 36, 19, 18, 8, 23, 29, 14, 22, 10, 26, 20, 34, 16, 23, 36, 18, 8, 7, 19, 0, 25, 30, 11
            |17, 26, 16, 29, 9, 25, 30, 28, 12, 29, 9, 34, 31, 23, 14, 33, 35, 17, 33, 16, 29, 15, 14, 32, 31, 26, 35, 4, 35, 13, 31, 22, 30, 43, 16, 25, 29, 30, 32, 4, 6, 31, 33, 33, 34, 26, 18, 24, 17, 0, 6, 30, 3, 26, 12, 11, 40, 25, 24, 16, 13, 20, 16, 4, 26, 4, 31, 18, 9, 25, 35, 31, 21, 35, 26, 26, 24, 25, 0, 10, 26
            |19, 21, 23, 27, 1, 34, 29, 37, 12, 39, 13, 33, 39, 31, 4, 32, 39, 11, 40, 24, 37, 12, 12, 41, 30, 35, 38, 9, 36, 18, 41, 26, 39, 50, 9, 33, 39, 40, 42, 9, 4, 36, 43, 43, 39, 32, 15, 20, 26, 10, 12, 36, 10, 28, 21, 14, 48, 34, 33, 25, 13, 23, 12, 10, 34, 14, 34, 12, 10, 35, 43, 28, 30, 44, 33, 29, 22, 30, 10, 0, 34
            |21, 36, 11, 30, 33, 32, 27, 25, 25, 13, 21, 32, 5, 4, 38, 29, 15, 43, 7, 30, 3, 41, 27, 31, 28, 5, 20, 26, 28, 16, 22, 14, 31, 17, 33, 2, 20, 24, 16, 25, 30, 13, 19, 28, 14, 10, 44, 32, 9, 26, 31, 12, 28, 22, 14, 36, 14, 33, 29, 14, 25, 17, 31, 30, 4, 22, 21, 34, 25, 26, 9, 34, 30, 9, 4, 18, 29, 11, 26, 34, 0|];
early = [0, 131, 0, 88, 207, 397, 32, 340, 0, 239, 0, 113, 0, 0, 207, 104, 44, 145, 24, 368, 0, 212, 0, 619, 155, 275, 387, 151, 57, 0, 317, 0, 374, 49, 0, 0, 259, 301, 274, 199, 203, 14, 244, 467, 0, 0, 507, 421, 0, 130, 115, 0, 200, 59, 0, 130, 49, 530, 405, 213, 0, 89, 0, 214, 197, 230, 12, 177, 119, 340, 303, 556, 328, 0, 300, 61, 74, 0, 414, 189, 519];
late = [878, 323, 185, 328, 355, 529, 307, 576, 86, 518, 136, 248, 214, 182, 417, 266, 203, 398, 181, 602, 231, 379, 106, 836, 266, 547, 605, 361, 309, 93, 505, 168, 574, 242, 90, 216, 534, 501, 511, 425, 375, 211, 468, 712, 132, 160, 717, 581, 105, 347, 405, 133, 373, 324, 124, 360, 204, 693, 562, 419, 61, 307, 74, 425, 429, 372, 248, 349, 367, 543, 457, 754, 606, 174, 410, 229, 282, 201, 561, 419, 780];