% n80w160.002	   59.67 740
n = 81;
duration = [|0, 12, 20, 31, 45, 34, 49, 23, 44, 10, 22, 22, 20, 46, 47, 27, 29, 7, 31, 21, 20, 25, 29, 20, 16, 15, 5, 54, 40, 39, 18, 20, 45, 37, 4, 46, 14, 22, 30, 24, 49, 46, 46, 43, 20, 42, 14, 33, 34, 35, 21, 9, 46, 19, 43, 36, 34, 29, 40, 28, 14, 22, 26, 22, 21, 36, 32, 13, 48, 36, 34, 21, 37, 8, 48, 47, 2, 21, 25, 25, 27
            |12, 0, 28, 37, 39, 40, 43, 30, 38, 5, 30, 28, 17, 38, 40, 26, 31, 11, 35, 29, 9, 33, 39, 29, 10, 23, 6, 55, 44, 41, 7, 16, 44, 32, 9, 39, 24, 11, 39, 33, 47, 48, 40, 35, 12, 35, 5, 24, 32, 41, 25, 5, 42, 30, 34, 36, 35, 35, 43, 20, 5, 29, 32, 31, 32, 27, 33, 19, 40, 42, 40, 17, 30, 16, 40, 46, 14, 13, 36, 33, 23
            |20, 28, 0, 11, 43, 15, 46, 3, 41, 29, 2, 6, 21, 48, 46, 21, 16, 17, 14, 1, 33, 5, 13, 3, 24, 5, 24, 39, 21, 23, 32, 23, 34, 34, 20, 46, 7, 34, 11, 5, 38, 31, 44, 45, 28, 42, 26, 37, 26, 17, 9, 28, 40, 9, 45, 25, 22, 10, 22, 32, 26, 2, 7, 5, 9, 41, 20, 9, 49, 17, 15, 22, 37, 13, 48, 35, 19, 30, 11, 5, 25
            |31, 37, 11, 0, 41, 4, 43, 9, 39, 39, 11, 9, 25, 48, 44, 21, 12, 26, 6, 11, 40, 7, 16, 13, 30, 16, 34, 29, 10, 14, 39, 27, 27, 32, 30, 45, 19, 40, 11, 11, 32, 21, 41, 45, 33, 41, 34, 40, 23, 5, 12, 38, 36, 19, 46, 20, 16, 2, 12, 35, 34, 9, 5, 14, 18, 43, 16, 18, 48, 6, 4, 26, 38, 23, 47, 28, 30, 35, 18, 7, 27
            |45, 39, 43, 41, 0, 42, 4, 43, 2, 44, 45, 37, 26, 9, 3, 22, 29, 39, 35, 44, 33, 43, 55, 46, 30, 42, 43, 32, 39, 31, 34, 25, 20, 9, 41, 5, 47, 30, 51, 48, 18, 32, 1, 9, 27, 5, 34, 17, 18, 40, 34, 44, 8, 51, 10, 22, 25, 40, 35, 19, 34, 42, 39, 48, 52, 16, 26, 38, 8, 40, 42, 25, 9, 42, 7, 22, 47, 26, 55, 45, 19
            |34, 40, 15, 4, 42, 0, 44, 12, 40, 42, 14, 13, 28, 49, 45, 23, 14, 30, 8, 14, 44, 10, 18, 17, 33, 19, 38, 27, 7, 13, 43, 30, 27, 34, 33, 46, 22, 43, 12, 14, 31, 19, 42, 47, 36, 43, 37, 42, 25, 3, 15, 42, 37, 22, 47, 21, 17, 5, 10, 37, 37, 13, 9, 17, 21, 46, 17, 21, 49, 3, 0, 29, 39, 27, 49, 27, 33, 38, 20, 10, 29
            |49, 43, 46, 43, 4, 44, 0, 45, 5, 48, 48, 40, 29, 11, 5, 25, 31, 42, 37, 47, 37, 46, 58, 49, 34, 45, 47, 31, 40, 32, 38, 29, 20, 13, 45, 7, 50, 34, 53, 50, 17, 32, 3, 12, 31, 9, 38, 21, 20, 41, 37, 48, 8, 55, 13, 23, 27, 42, 36, 23, 38, 45, 41, 51, 55, 20, 28, 41, 9, 42, 44, 28, 13, 45, 9, 22, 50, 30, 57, 47, 23
            |23, 30, 3, 9, 43, 12, 45, 0, 41, 32, 3, 6, 22, 48, 45, 21, 15, 19, 12, 2, 35, 2, 13, 5, 25, 8, 27, 36, 18, 21, 34, 24, 33, 33, 22, 46, 10, 35, 9, 5, 37, 28, 43, 45, 29, 42, 28, 38, 26, 14, 9, 31, 39, 11, 45, 24, 21, 8, 20, 33, 28, 1, 5, 6, 11, 42, 19, 11, 49, 14, 12, 23, 38, 15, 48, 33, 22, 31, 12, 3, 26
            |44, 38, 41, 39, 2, 40, 5, 41, 0, 43, 43, 35, 24, 11, 5, 21, 27, 37, 33, 42, 33, 41, 53, 44, 29, 40, 42, 30, 37, 29, 34, 24, 18, 8, 40, 7, 45, 30, 49, 46, 16, 29, 2, 10, 26, 6, 33, 17, 16, 37, 32, 43, 6, 50, 12, 20, 23, 37, 33, 19, 33, 40, 37, 46, 51, 17, 23, 36, 10, 38, 40, 23, 9, 40, 9, 20, 45, 26, 53, 43, 17
            |10, 5, 29, 39, 44, 42, 48, 32, 43, 0, 31, 30, 21, 43, 45, 30, 35, 13, 38, 30, 13, 34, 39, 29, 15, 24, 5, 58, 47, 45, 12, 21, 48, 37, 9, 44, 24, 16, 40, 34, 51, 52, 45, 40, 17, 40, 10, 29, 36, 43, 28, 1, 47, 29, 39, 40, 39, 37, 46, 25, 10, 31, 34, 31, 31, 32, 37, 21, 45, 44, 42, 22, 35, 16, 45, 50, 12, 18, 35, 34, 28
            |22, 30, 2, 11, 45, 14, 48, 3, 43, 31, 0, 8, 23, 50, 48, 23, 18, 19, 15, 1, 35, 4, 11, 2, 26, 7, 26, 39, 21, 24, 34, 25, 36, 36, 21, 48, 8, 36, 9, 3, 40, 31, 45, 47, 30, 44, 28, 40, 28, 17, 11, 30, 42, 8, 47, 27, 24, 10, 23, 34, 28, 3, 8, 3, 8, 43, 22, 11, 51, 17, 14, 25, 40, 14, 50, 36, 20, 32, 9, 4, 28
            |22, 28, 6, 9, 37, 13, 40, 6, 35, 30, 8, 0, 17, 42, 40, 15, 10, 17, 9, 7, 31, 7, 18, 9, 21, 8, 25, 34, 18, 18, 30, 19, 28, 28, 20, 40, 12, 31, 15, 11, 32, 26, 37, 40, 24, 36, 24, 33, 20, 14, 4, 29, 34, 15, 40, 19, 16, 8, 18, 27, 24, 5, 4, 11, 16, 36, 14, 9, 43, 14, 13, 18, 32, 14, 42, 29, 21, 26, 17, 8, 20
            |20, 17, 21, 25, 26, 28, 29, 22, 24, 21, 23, 17, 0, 28, 28, 8, 16, 13, 21, 22, 17, 23, 34, 24, 7, 18, 19, 37, 30, 25, 16, 2, 27, 17, 16, 27, 22, 16, 31, 26, 30, 31, 26, 25, 8, 23, 12, 16, 15, 27, 13, 21, 26, 28, 25, 19, 19, 23, 28, 11, 12, 21, 20, 26, 29, 20, 17, 13, 30, 28, 28, 1, 18, 16, 29, 29, 21, 10, 32, 25, 7
            |46, 38, 48, 48, 9, 49, 11, 48, 11, 43, 50, 42, 28, 0, 6, 28, 36, 40, 42, 49, 31, 49, 61, 51, 31, 46, 43, 41, 47, 39, 32, 27, 29, 16, 42, 4, 50, 28, 57, 53, 27, 40, 10, 3, 27, 7, 34, 14, 25, 47, 39, 43, 17, 56, 4, 30, 33, 46, 43, 19, 34, 47, 45, 53, 57, 12, 33, 42, 2, 48, 49, 27, 11, 44, 3, 31, 48, 25, 59, 50, 23
            |47, 40, 46, 44, 3, 45, 5, 45, 5, 45, 48, 40, 28, 6, 0, 25, 32, 40, 38, 46, 34, 46, 58, 49, 31, 44, 44, 35, 42, 34, 34, 27, 23, 12, 43, 2, 49, 31, 54, 50, 21, 35, 4, 7, 28, 5, 35, 16, 21, 43, 36, 45, 11, 54, 8, 25, 28, 43, 38, 20, 35, 45, 42, 51, 55, 16, 29, 40, 5, 44, 45, 26, 10, 44, 4, 25, 48, 27, 57, 47, 21
            |27, 26, 21, 21, 22, 23, 25, 21, 21, 30, 23, 15, 8, 28, 25, 0, 9, 20, 15, 21, 25, 21, 33, 24, 16, 19, 26, 29, 23, 17, 24, 10, 19, 13, 23, 25, 24, 23, 29, 25, 22, 23, 23, 25, 16, 21, 21, 19, 7, 21, 11, 29, 20, 29, 25, 11, 10, 19, 20, 15, 21, 20, 17, 26, 30, 23, 9, 16, 28, 22, 23, 9, 17, 21, 28, 21, 27, 17, 32, 23, 6
            |29, 31, 16, 12, 29, 14, 31, 15, 27, 35, 18, 10, 16, 36, 32, 9, 0, 23, 6, 16, 32, 15, 27, 19, 22, 17, 30, 25, 14, 10, 32, 18, 18, 20, 26, 33, 22, 31, 22, 20, 22, 17, 29, 33, 24, 29, 27, 28, 11, 12, 8, 34, 25, 25, 34, 9, 6, 11, 12, 24, 27, 15, 10, 21, 26, 32, 4, 16, 36, 13, 14, 16, 25, 22, 35, 19, 29, 26, 27, 16, 15
            |7, 11, 17, 26, 39, 30, 42, 19, 37, 13, 19, 17, 13, 40, 40, 20, 23, 0, 26, 18, 17, 22, 28, 18, 10, 12, 8, 47, 34, 33, 16, 13, 38, 30, 4, 40, 14, 18, 28, 22, 41, 40, 39, 37, 14, 35, 10, 27, 27, 31, 16, 12, 39, 19, 37, 30, 28, 25, 34, 21, 10, 18, 21, 20, 21, 30, 26, 9, 42, 31, 30, 14, 30, 5, 41, 40, 8, 16, 25, 22, 20
            |31, 35, 14, 6, 35, 8, 37, 12, 33, 38, 15, 9, 21, 42, 38, 15, 6, 26, 0, 14, 37, 11, 22, 17, 27, 17, 33, 25, 9, 9, 37, 23, 21, 26, 29, 39, 21, 37, 17, 16, 26, 16, 35, 39, 29, 35, 31, 35, 17, 6, 10, 37, 30, 23, 40, 14, 10, 5, 9, 30, 31, 12, 7, 18, 23, 38, 9, 18, 42, 7, 8, 22, 32, 23, 41, 22, 31, 31, 23, 12, 21
            |21, 29, 1, 11, 44, 14, 47, 2, 42, 30, 1, 7, 22, 49, 46, 21, 16, 18, 14, 0, 34, 4, 12, 3, 25, 6, 25, 39, 21, 23, 33, 24, 34, 34, 21, 47, 8, 35, 10, 4, 39, 31, 44, 46, 28, 43, 27, 38, 27, 16, 10, 29, 41, 9, 46, 26, 22, 10, 22, 33, 27, 2, 7, 4, 9, 42, 21, 10, 50, 17, 14, 23, 38, 14, 49, 35, 20, 31, 11, 4, 26
            |20, 9, 33, 40, 33, 44, 37, 35, 33, 13, 35, 31, 17, 31, 34, 25, 32, 17, 37, 34, 0, 37, 45, 35, 10, 28, 15, 53, 46, 42, 1, 15, 42, 28, 17, 32, 31, 3, 44, 38, 43, 48, 34, 28, 9, 29, 7, 17, 30, 43, 28, 13, 37, 36, 27, 35, 35, 38, 44, 14, 7, 34, 35, 37, 38, 19, 33, 24, 33, 44, 44, 16, 24, 22, 33, 44, 22, 8, 42, 38, 21
            |25, 33, 5, 7, 43, 10, 46, 2, 41, 34, 4, 7, 23, 49, 46, 21, 15, 22, 11, 4, 37, 0, 12, 7, 27, 10, 29, 35, 17, 20, 36, 25, 32, 34, 24, 47, 12, 37, 8, 5, 36, 27, 43, 46, 31, 42, 30, 39, 26, 12, 10, 33, 39, 12, 46, 24, 20, 6, 18, 34, 30, 3, 4, 7, 12, 43, 19, 13, 50, 13, 10, 25, 38, 17, 49, 33, 24, 33, 12, 1, 27
            |29, 39, 13, 16, 55, 18, 58, 13, 53, 39, 11, 18, 34, 61, 58, 33, 27, 28, 22, 12, 45, 12, 0, 11, 36, 17, 34, 45, 25, 31, 44, 36, 44, 46, 30, 59, 15, 46, 6, 8, 48, 37, 56, 58, 40, 54, 38, 50, 38, 21, 22, 38, 52, 10, 58, 36, 32, 17, 28, 45, 38, 13, 17, 9, 8, 54, 31, 22, 62, 21, 18, 36, 50, 23, 61, 44, 27, 43, 4, 11, 38
            |20, 29, 3, 13, 46, 17, 49, 5, 44, 29, 2, 9, 24, 51, 49, 24, 19, 18, 17, 3, 35, 7, 11, 0, 26, 6, 24, 42, 23, 26, 34, 25, 37, 37, 20, 49, 6, 35, 10, 4, 42, 34, 47, 48, 30, 45, 27, 40, 30, 19, 13, 28, 43, 6, 48, 29, 25, 13, 25, 34, 27, 5, 10, 2, 6, 44, 24, 11, 52, 19, 17, 25, 40, 13, 51, 38, 18, 32, 8, 6, 28
            |16, 10, 24, 30, 30, 33, 34, 25, 29, 15, 26, 21, 7, 31, 31, 16, 22, 10, 27, 25, 10, 27, 36, 26, 0, 19, 13, 45, 36, 32, 9, 6, 34, 22, 12, 31, 22, 10, 35, 29, 36, 38, 31, 28, 4, 26, 5, 17, 22, 33, 18, 15, 32, 28, 27, 26, 26, 28, 34, 12, 5, 24, 25, 28, 30, 20, 24, 15, 32, 34, 33, 7, 21, 15, 32, 36, 17, 6, 34, 28, 13
            |15, 23, 5, 16, 42, 19, 45, 8, 40, 24, 7, 8, 18, 46, 44, 19, 17, 12, 17, 6, 28, 10, 17, 6, 19, 0, 19, 41, 25, 26, 27, 19, 35, 32, 15, 44, 5, 29, 16, 10, 39, 33, 42, 43, 23, 40, 21, 34, 26, 21, 9, 23, 40, 10, 43, 26, 23, 14, 26, 28, 21, 7, 11, 9, 11, 38, 21, 4, 47, 21, 19, 19, 35, 8, 46, 36, 14, 25, 14, 10, 23
            |5, 6, 24, 34, 43, 38, 47, 27, 42, 5, 26, 25, 19, 43, 44, 26, 30, 8, 33, 25, 15, 29, 34, 24, 13, 19, 0, 55, 42, 40, 13, 18, 45, 35, 4, 43, 19, 17, 35, 28, 48, 48, 44, 40, 16, 39, 9, 29, 33, 38, 23, 4, 45, 24, 39, 37, 35, 32, 42, 24, 9, 26, 29, 26, 26, 32, 33, 16, 45, 39, 38, 19, 34, 11, 45, 47, 8, 18, 30, 29, 25
            |54, 55, 39, 29, 32, 27, 31, 36, 30, 58, 39, 34, 37, 41, 35, 29, 25, 47, 25, 39, 53, 35, 45, 42, 45, 41, 55, 0, 20, 16, 53, 39, 13, 29, 51, 37, 46, 51, 39, 40, 14, 8, 31, 40, 45, 36, 50, 43, 24, 24, 33, 58, 24, 48, 42, 18, 19, 29, 17, 41, 50, 37, 32, 42, 47, 45, 22, 41, 40, 24, 27, 37, 36, 47, 39, 10, 54, 46, 47, 36, 33
            |40, 44, 21, 10, 39, 7, 40, 18, 37, 47, 21, 18, 30, 47, 42, 23, 14, 34, 9, 21, 46, 17, 25, 23, 36, 25, 42, 20, 0, 9, 46, 32, 22, 32, 38, 44, 28, 45, 19, 21, 26, 13, 39, 45, 38, 40, 40, 42, 23, 4, 19, 46, 33, 29, 46, 17, 15, 11, 4, 38, 40, 19, 14, 23, 28, 45, 15, 26, 47, 4, 7, 31, 38, 32, 46, 21, 39, 40, 27, 17, 29
            |39, 41, 23, 14, 31, 13, 32, 21, 29, 45, 24, 18, 25, 39, 34, 17, 10, 33, 9, 23, 42, 20, 31, 26, 32, 26, 40, 16, 9, 0, 41, 27, 14, 24, 36, 35, 30, 40, 25, 25, 18, 8, 30, 37, 33, 32, 37, 35, 15, 10, 17, 44, 24, 32, 38, 9, 7, 14, 4, 32, 37, 21, 16, 27, 32, 38, 9, 26, 39, 11, 13, 25, 30, 31, 38, 13, 39, 35, 32, 21, 23
            |18, 7, 32, 39, 34, 43, 38, 34, 34, 12, 34, 30, 16, 32, 34, 24, 32, 16, 37, 33, 1, 36, 44, 34, 9, 27, 13, 53, 46, 41, 0, 14, 42, 28, 15, 33, 29, 4, 43, 37, 44, 47, 35, 29, 8, 29, 6, 18, 30, 42, 27, 12, 38, 35, 28, 35, 35, 37, 44, 15, 6, 33, 34, 36, 37, 20, 33, 23, 34, 43, 43, 16, 25, 21, 34, 44, 21, 8, 41, 37, 21
            |20, 16, 23, 27, 25, 30, 29, 24, 24, 21, 25, 19, 2, 27, 27, 10, 18, 13, 23, 24, 15, 25, 36, 25, 6, 19, 18, 39, 32, 27, 14, 0, 28, 17, 16, 27, 23, 14, 33, 28, 30, 33, 26, 24, 6, 22, 11, 15, 16, 29, 15, 20, 26, 29, 24, 21, 20, 25, 30, 9, 11, 23, 22, 27, 30, 18, 18, 15, 29, 30, 30, 1, 17, 17, 28, 30, 21, 8, 34, 27, 7
            |45, 44, 34, 27, 20, 27, 20, 33, 18, 48, 36, 28, 27, 29, 23, 19, 18, 38, 21, 34, 42, 32, 44, 37, 34, 35, 45, 13, 22, 14, 42, 28, 0, 16, 42, 25, 40, 40, 38, 37, 4, 12, 19, 28, 33, 23, 39, 30, 12, 24, 26, 48, 12, 43, 29, 9, 12, 27, 18, 29, 39, 32, 28, 39, 44, 32, 14, 33, 28, 24, 27, 27, 23, 39, 27, 2, 46, 34, 44, 33, 21
            |37, 32, 34, 32, 9, 34, 13, 33, 8, 37, 36, 28, 17, 16, 12, 13, 20, 30, 26, 34, 28, 34, 46, 37, 22, 32, 35, 29, 32, 24, 28, 17, 16, 0, 33, 13, 37, 25, 42, 38, 16, 26, 10, 14, 20, 9, 27, 14, 9, 31, 24, 37, 9, 42, 14, 14, 17, 31, 28, 14, 27, 33, 30, 39, 43, 16, 17, 29, 16, 32, 34, 16, 7, 33, 15, 18, 38, 20, 45, 35, 10
            |4, 9, 20, 30, 41, 33, 45, 22, 40, 9, 21, 20, 16, 42, 43, 23, 26, 4, 29, 21, 17, 24, 30, 20, 12, 15, 4, 51, 38, 36, 15, 16, 42, 33, 0, 42, 15, 18, 30, 24, 45, 44, 42, 39, 16, 38, 10, 29, 30, 34, 19, 9, 42, 20, 39, 33, 31, 28, 37, 23, 10, 21, 24, 22, 22, 32, 29, 12, 44, 35, 33, 17, 33, 7, 44, 43, 6, 17, 26, 25, 23
            |46, 39, 46, 45, 5, 46, 7, 46, 7, 44, 48, 40, 27, 4, 2, 25, 33, 40, 39, 47, 32, 47, 59, 49, 31, 44, 43, 37, 44, 35, 33, 27, 25, 13, 42, 0, 49, 29, 54, 51, 23, 36, 6, 5, 27, 4, 34, 15, 22, 44, 37, 44, 13, 54, 6, 26, 30, 43, 40, 19, 34, 45, 42, 51, 55, 14, 30, 40, 3, 45, 46, 26, 9, 43, 2, 27, 48, 26, 58, 48, 21
            |14, 24, 7, 19, 47, 22, 50, 10, 45, 24, 8, 12, 22, 50, 49, 24, 22, 14, 21, 8, 31, 12, 15, 6, 22, 5, 19, 46, 28, 30, 29, 23, 40, 37, 15, 49, 0, 32, 16, 10, 44, 38, 47, 47, 27, 44, 23, 38, 31, 24, 14, 23, 45, 6, 47, 31, 28, 17, 30, 33, 23, 9, 14, 7, 8, 42, 26, 9, 51, 24, 22, 23, 40, 8, 51, 41, 13, 29, 11, 12, 28
            |22, 11, 34, 40, 30, 43, 34, 35, 30, 16, 36, 31, 16, 28, 31, 23, 31, 18, 37, 35, 3, 37, 46, 35, 10, 29, 17, 51, 45, 40, 4, 14, 40, 25, 18, 29, 32, 0, 45, 39, 41, 46, 32, 25, 7, 26, 9, 14, 28, 43, 28, 16, 34, 38, 24, 33, 34, 38, 43, 12, 9, 34, 35, 38, 39, 16, 32, 25, 30, 44, 43, 15, 21, 24, 30, 42, 24, 6, 43, 38, 19
            |30, 39, 11, 11, 51, 12, 53, 9, 49, 40, 9, 15, 31, 57, 54, 29, 22, 28, 17, 10, 44, 8, 6, 10, 35, 16, 35, 39, 19, 25, 43, 33, 38, 42, 30, 54, 16, 45, 0, 6, 43, 31, 51, 54, 38, 50, 37, 47, 33, 15, 18, 39, 47, 13, 54, 31, 27, 12, 22, 42, 37, 10, 12, 9, 11, 51, 26, 20, 57, 15, 12, 33, 46, 23, 57, 38, 28, 41, 9, 7, 35
            |24, 33, 5, 11, 48, 14, 50, 5, 46, 34, 3, 11, 26, 53, 50, 25, 20, 22, 16, 4, 38, 5, 8, 4, 29, 10, 28, 40, 21, 25, 37, 28, 37, 38, 24, 51, 10, 39, 6, 0, 41, 32, 48, 50, 33, 47, 31, 43, 31, 16, 14, 33, 44, 8, 50, 29, 25, 11, 23, 37, 31, 6, 9, 3, 7, 46, 24, 14, 54, 17, 14, 28, 42, 17, 53, 38, 22, 35, 7, 4, 30
            |49, 47, 38, 32, 18, 31, 17, 37, 16, 51, 40, 32, 30, 27, 21, 22, 22, 41, 26, 39, 43, 36, 48, 42, 36, 39, 48, 14, 26, 18, 44, 30, 4, 16, 45, 23, 44, 41, 43, 41, 0, 15, 17, 27, 35, 22, 41, 30, 15, 28, 30, 51, 10, 48, 28, 13, 16, 31, 22, 30, 41, 37, 32, 43, 48, 32, 18, 37, 26, 29, 31, 29, 23, 42, 25, 5, 49, 36, 49, 38, 23
            |46, 48, 31, 21, 32, 19, 32, 28, 29, 52, 31, 26, 31, 40, 35, 23, 17, 40, 16, 31, 48, 27, 37, 34, 38, 33, 48, 8, 13, 8, 47, 33, 12, 26, 44, 36, 38, 46, 31, 32, 15, 0, 31, 39, 39, 34, 43, 39, 19, 16, 25, 51, 24, 39, 40, 13, 13, 21, 9, 36, 43, 29, 24, 34, 39, 42, 15, 33, 40, 16, 19, 32, 33, 39, 39, 10, 46, 40, 39, 28, 28
            |46, 40, 44, 41, 1, 42, 3, 43, 2, 45, 45, 37, 26, 10, 4, 23, 29, 39, 35, 44, 34, 43, 56, 47, 31, 42, 44, 31, 39, 30, 35, 26, 19, 10, 42, 6, 47, 32, 51, 48, 17, 31, 0, 10, 28, 6, 35, 18, 18, 39, 34, 45, 7, 52, 12, 22, 25, 40, 35, 20, 35, 42, 39, 49, 53, 18, 25, 39, 9, 40, 42, 25, 10, 42, 8, 21, 48, 27, 55, 45, 20
            |43, 35, 45, 45, 9, 47, 12, 45, 10, 40, 47, 40, 25, 3, 7, 25, 33, 37, 39, 46, 28, 46, 58, 48, 28, 43, 40, 40, 45, 37, 29, 24, 28, 14, 39, 5, 47, 25, 54, 50, 27, 39, 10, 0, 24, 5, 31, 11, 22, 45, 36, 40, 17, 53, 1, 28, 31, 44, 41, 16, 31, 45, 42, 50, 54, 9, 30, 39, 5, 46, 47, 24, 8, 41, 5, 30, 45, 22, 57, 48, 20
            |20, 12, 28, 33, 27, 36, 31, 29, 26, 17, 30, 24, 8, 27, 28, 16, 24, 14, 29, 28, 9, 31, 40, 30, 4, 23, 16, 45, 38, 33, 8, 6, 33, 20, 16, 27, 27, 7, 38, 33, 35, 39, 28, 24, 0, 23, 7, 13, 21, 35, 21, 17, 30, 32, 23, 26, 26, 31, 36, 8, 7, 28, 28, 32, 34, 16, 25, 19, 29, 36, 36, 8, 18, 19, 28, 35, 21, 2, 38, 32, 12
            |42, 35, 42, 41, 5, 43, 9, 42, 6, 40, 44, 36, 23, 7, 5, 21, 29, 35, 35, 43, 29, 42, 54, 45, 26, 40, 39, 36, 40, 32, 29, 22, 23, 9, 38, 4, 44, 26, 50, 47, 22, 34, 6, 5, 23, 0, 30, 12, 18, 40, 33, 40, 12, 50, 6, 23, 26, 39, 37, 15, 30, 41, 38, 47, 51, 11, 26, 36, 7, 41, 43, 22, 5, 39, 6, 25, 43, 22, 53, 44, 17
            |14, 5, 26, 34, 34, 37, 38, 28, 33, 10, 28, 24, 12, 34, 35, 21, 27, 10, 31, 27, 7, 30, 38, 27, 5, 21, 9, 50, 40, 37, 6, 11, 39, 27, 10, 34, 23, 9, 37, 31, 41, 43, 35, 31, 7, 30, 0, 20, 27, 37, 22, 10, 36, 29, 30, 31, 30, 32, 39, 15, 0, 27, 28, 30, 31, 22, 28, 17, 36, 38, 37, 12, 25, 15, 35, 41, 16, 8, 35, 31, 18
            |33, 24, 37, 40, 17, 42, 21, 38, 17, 29, 40, 33, 16, 14, 16, 19, 28, 27, 35, 38, 17, 39, 50, 40, 17, 34, 29, 43, 42, 35, 18, 15, 30, 14, 29, 15, 38, 14, 47, 43, 30, 39, 18, 11, 13, 12, 20, 0, 20, 41, 29, 29, 22, 44, 10, 26, 28, 38, 39, 6, 20, 37, 36, 42, 45, 4, 27, 30, 16, 42, 42, 15, 8, 31, 16, 32, 34, 11, 48, 41, 13
            |34, 32, 26, 23, 18, 25, 20, 26, 16, 36, 28, 20, 15, 25, 21, 7, 11, 27, 17, 27, 30, 26, 38, 30, 22, 26, 33, 24, 23, 15, 30, 16, 12, 9, 30, 22, 31, 28, 33, 31, 15, 19, 18, 22, 21, 18, 27, 20, 0, 22, 17, 36, 14, 35, 23, 6, 8, 22, 19, 17, 27, 25, 21, 31, 36, 23, 8, 23, 25, 23, 25, 14, 15, 28, 24, 14, 34, 22, 38, 27, 9
            |35, 41, 17, 5, 40, 3, 41, 14, 37, 43, 17, 14, 27, 47, 43, 21, 12, 31, 6, 16, 43, 12, 21, 19, 33, 21, 38, 24, 4, 10, 42, 29, 24, 31, 34, 44, 24, 43, 15, 16, 28, 16, 39, 45, 35, 40, 37, 41, 22, 0, 15, 42, 34, 24, 45, 18, 14, 6, 7, 36, 37, 14, 10, 19, 24, 44, 14, 22, 47, 1, 3, 28, 37, 28, 46, 24, 35, 37, 23, 13, 27
            |21, 25, 9, 12, 34, 15, 37, 9, 32, 28, 11, 4, 13, 39, 36, 11, 8, 16, 10, 10, 28, 10, 22, 13, 18, 9, 23, 33, 19, 17, 27, 15, 26, 24, 19, 37, 14, 28, 18, 14, 30, 25, 34, 36, 21, 33, 22, 29, 17, 15, 0, 27, 31, 18, 36, 17, 14, 10, 18, 24, 22, 8, 7, 14, 19, 33, 12, 8, 40, 16, 15, 15, 28, 14, 39, 27, 21, 23, 21, 12, 16
            |9, 5, 28, 38, 44, 42, 48, 31, 43, 1, 30, 29, 21, 43, 45, 29, 34, 12, 37, 29, 13, 33, 38, 28, 15, 23, 4, 58, 46, 44, 12, 20, 48, 37, 9, 44, 23, 16, 39, 33, 51, 51, 45, 40, 17, 40, 10, 29, 36, 42, 27, 0, 46, 28, 39, 40, 38, 36, 45, 25, 10, 30, 33, 30, 30, 32, 36, 20, 45, 43, 42, 22, 35, 16, 45, 50, 11, 18, 34, 34, 28
            |46, 42, 40, 36, 8, 37, 8, 39, 6, 47, 42, 34, 26, 17, 11, 20, 25, 39, 30, 41, 37, 39, 52, 43, 32, 40, 45, 24, 33, 24, 38, 26, 12, 9, 42, 13, 45, 34, 47, 44, 10, 24, 7, 17, 30, 12, 36, 22, 14, 34, 31, 46, 0, 49, 18, 16, 20, 35, 29, 23, 36, 39, 35, 45, 50, 23, 21, 37, 16, 35, 37, 25, 14, 41, 15, 14, 47, 30, 51, 41, 19
            |19, 30, 9, 19, 51, 22, 55, 11, 50, 29, 8, 15, 28, 56, 54, 29, 25, 19, 23, 9, 36, 12, 10, 6, 28, 10, 24, 48, 29, 32, 35, 29, 43, 42, 20, 54, 6, 38, 13, 8, 48, 39, 52, 53, 32, 50, 29, 44, 35, 24, 18, 28, 49, 0, 52, 35, 31, 18, 31, 38, 29, 11, 16, 5, 2, 47, 29, 14, 57, 25, 22, 29, 45, 14, 56, 44, 17, 35, 6, 12, 33
            |43, 34, 45, 46, 10, 47, 13, 45, 12, 39, 47, 40, 25, 4, 8, 25, 34, 37, 40, 46, 27, 46, 58, 48, 27, 43, 39, 42, 46, 38, 28, 24, 29, 14, 39, 6, 47, 24, 54, 50, 28, 40, 12, 1, 23, 6, 30, 10, 23, 45, 36, 39, 18, 52, 0, 29, 31, 44, 42, 15, 30, 45, 42, 50, 54, 8, 31, 38, 6, 46, 47, 24, 8, 41, 6, 31, 44, 22, 57, 48, 20
            |36, 36, 25, 20, 22, 21, 23, 24, 20, 40, 27, 19, 19, 30, 25, 11, 9, 30, 14, 26, 35, 24, 36, 29, 26, 26, 37, 18, 17, 9, 35, 21, 9, 14, 33, 26, 31, 33, 31, 29, 13, 13, 22, 28, 26, 23, 31, 26, 6, 18, 17, 40, 16, 35, 29, 0, 4, 19, 14, 23, 31, 24, 19, 30, 35, 29, 5, 24, 30, 19, 21, 19, 21, 30, 29, 10, 37, 27, 36, 25, 15
            |34, 35, 22, 16, 25, 17, 27, 21, 23, 39, 24, 16, 19, 33, 28, 10, 6, 28, 10, 22, 35, 20, 32, 25, 26, 23, 35, 19, 15, 7, 35, 20, 12, 17, 31, 30, 28, 34, 27, 25, 16, 13, 25, 31, 26, 26, 30, 28, 8, 14, 14, 38, 20, 31, 31, 4, 0, 15, 11, 25, 30, 20, 16, 27, 32, 31, 2, 22, 33, 15, 17, 19, 24, 28, 32, 13, 35, 28, 33, 22, 16
            |29, 35, 10, 2, 40, 5, 42, 8, 37, 37, 10, 8, 23, 46, 43, 19, 11, 25, 5, 10, 38, 6, 17, 13, 28, 14, 32, 29, 11, 14, 37, 25, 27, 31, 28, 43, 17, 38, 12, 11, 31, 21, 40, 44, 31, 39, 32, 38, 22, 6, 10, 36, 35, 18, 44, 19, 15, 0, 12, 33, 32, 8, 4, 13, 18, 41, 14, 16, 46, 7, 5, 24, 36, 21, 46, 27, 28, 33, 18, 7, 25
            |40, 43, 22, 12, 35, 10, 36, 20, 33, 46, 23, 18, 28, 43, 38, 20, 12, 34, 9, 22, 44, 18, 28, 25, 34, 26, 42, 17, 4, 4, 44, 30, 18, 28, 37, 40, 30, 43, 22, 23, 22, 9, 35, 41, 36, 37, 39, 39, 19, 7, 18, 45, 29, 31, 42, 14, 11, 12, 0, 35, 39, 20, 15, 25, 30, 42, 12, 26, 43, 7, 10, 28, 35, 32, 42, 17, 39, 38, 30, 19, 26
            |28, 20, 32, 35, 19, 37, 23, 33, 19, 25, 34, 27, 11, 19, 20, 15, 24, 21, 30, 33, 14, 34, 45, 34, 12, 28, 24, 41, 38, 32, 15, 9, 29, 14, 23, 19, 33, 12, 42, 37, 30, 36, 20, 16, 8, 15, 15, 6, 17, 36, 24, 25, 23, 38, 15, 23, 25, 33, 35, 0, 15, 32, 31, 37, 40, 9, 23, 24, 21, 37, 37, 9, 10, 26, 20, 31, 29, 7, 43, 35, 9
            |14, 5, 26, 34, 34, 37, 38, 28, 33, 10, 28, 24, 12, 34, 35, 21, 27, 10, 31, 27, 7, 30, 38, 27, 5, 21, 9, 50, 40, 37, 6, 11, 39, 27, 10, 34, 23, 9, 37, 31, 41, 43, 35, 31, 7, 30, 0, 20, 27, 37, 22, 10, 36, 29, 30, 31, 30, 32, 39, 15, 0, 27, 28, 30, 31, 22, 28, 17, 36, 38, 37, 12, 25, 15, 35, 41, 16, 8, 35, 31, 18
            |22, 29, 2, 9, 42, 13, 45, 1, 40, 31, 3, 5, 21, 47, 45, 20, 15, 18, 12, 2, 34, 3, 13, 5, 24, 7, 26, 37, 19, 21, 33, 23, 32, 33, 21, 45, 9, 34, 10, 6, 37, 29, 42, 45, 28, 41, 27, 37, 25, 14, 8, 30, 39, 11, 45, 24, 20, 8, 20, 32, 27, 0, 5, 6, 11, 41, 19, 10, 48, 15, 13, 22, 37, 14, 47, 33, 21, 30, 13, 4, 25
            |26, 32, 7, 5, 39, 9, 41, 5, 37, 34, 8, 4, 20, 45, 42, 17, 10, 21, 7, 7, 35, 4, 17, 10, 25, 11, 29, 32, 14, 16, 34, 22, 28, 30, 24, 42, 14, 35, 12, 9, 32, 24, 39, 42, 28, 38, 28, 36, 21, 10, 7, 33, 35, 16, 42, 19, 16, 4, 15, 31, 28, 5, 0, 11, 16, 39, 14, 13, 45, 11, 9, 22, 34, 18, 45, 28, 25, 30, 17, 6, 23
            |22, 31, 5, 14, 48, 17, 51, 6, 46, 31, 3, 11, 26, 53, 51, 26, 21, 20, 18, 4, 37, 7, 9, 2, 28, 9, 26, 42, 23, 27, 36, 27, 39, 39, 22, 51, 7, 38, 9, 3, 43, 34, 49, 50, 32, 47, 30, 42, 31, 19, 14, 30, 45, 5, 50, 30, 27, 13, 25, 37, 30, 6, 11, 0, 5, 46, 25, 13, 54, 19, 17, 27, 42, 15, 53, 39, 20, 34, 6, 6, 30
            |21, 32, 9, 18, 52, 21, 55, 11, 51, 31, 8, 16, 29, 57, 55, 30, 26, 21, 23, 9, 38, 12, 8, 6, 30, 11, 26, 47, 28, 32, 37, 30, 44, 43, 22, 55, 8, 39, 11, 7, 48, 39, 53, 54, 34, 51, 31, 45, 36, 24, 19, 30, 50, 2, 54, 35, 32, 18, 30, 40, 31, 11, 16, 5, 0, 49, 30, 16, 58, 24, 21, 30, 46, 16, 57, 44, 19, 36, 4, 11, 34
            |36, 27, 41, 43, 16, 46, 20, 42, 17, 32, 43, 36, 20, 12, 16, 23, 32, 30, 38, 42, 19, 43, 54, 44, 20, 38, 32, 45, 45, 38, 20, 18, 32, 16, 32, 14, 42, 16, 51, 46, 32, 42, 18, 9, 16, 11, 22, 4, 23, 44, 33, 32, 23, 47, 8, 29, 31, 41, 42, 9, 22, 41, 39, 46, 49, 0, 30, 33, 14, 45, 46, 19, 9, 35, 14, 34, 38, 14, 52, 44, 17
            |32, 33, 20, 16, 26, 17, 28, 19, 23, 37, 22, 14, 17, 33, 29, 9, 4, 26, 9, 21, 33, 19, 31, 24, 24, 21, 33, 22, 15, 9, 33, 18, 14, 17, 29, 30, 26, 32, 26, 24, 18, 15, 25, 30, 25, 26, 28, 27, 8, 14, 12, 36, 21, 29, 31, 5, 2, 14, 12, 23, 28, 19, 14, 25, 30, 30, 0, 20, 33, 15, 17, 17, 23, 25, 32, 15, 32, 26, 31, 20, 14
            |13, 19, 9, 18, 38, 21, 41, 11, 36, 21, 11, 9, 13, 42, 40, 16, 16, 9, 18, 10, 24, 13, 22, 11, 15, 4, 16, 41, 26, 26, 23, 15, 33, 29, 12, 40, 9, 25, 20, 14, 37, 33, 39, 39, 19, 36, 17, 30, 23, 22, 8, 20, 37, 14, 38, 24, 22, 16, 26, 24, 17, 10, 13, 13, 16, 33, 20, 0, 43, 23, 21, 15, 31, 6, 42, 35, 13, 21, 19, 14, 19
            |48, 40, 49, 48, 8, 49, 9, 49, 10, 45, 51, 43, 30, 2, 5, 28, 36, 42, 42, 50, 33, 50, 62, 52, 32, 47, 45, 40, 47, 39, 34, 29, 28, 16, 44, 3, 51, 30, 57, 54, 26, 40, 9, 5, 29, 7, 36, 16, 25, 47, 40, 45, 16, 57, 6, 30, 33, 46, 43, 21, 36, 48, 45, 54, 58, 14, 33, 43, 0, 48, 49, 28, 12, 46, 1, 30, 50, 27, 60, 51, 24
            |36, 42, 17, 6, 40, 3, 42, 14, 38, 44, 17, 14, 28, 48, 44, 22, 13, 31, 7, 17, 44, 13, 21, 19, 34, 21, 39, 24, 4, 11, 43, 30, 24, 32, 35, 45, 24, 44, 15, 17, 29, 16, 40, 46, 36, 41, 38, 42, 23, 1, 16, 43, 35, 25, 46, 19, 15, 7, 7, 37, 38, 15, 11, 19, 24, 45, 15, 23, 48, 0, 3, 29, 38, 28, 47, 24, 35, 38, 23, 13, 28
            |34, 40, 15, 4, 42, 0, 44, 12, 40, 42, 14, 13, 28, 49, 45, 23, 14, 30, 8, 14, 44, 10, 18, 17, 33, 19, 38, 27, 7, 13, 43, 30, 27, 34, 33, 46, 22, 43, 12, 14, 31, 19, 42, 47, 36, 43, 37, 42, 25, 3, 15, 42, 37, 22, 47, 21, 17, 5, 10, 37, 37, 13, 9, 17, 21, 46, 17, 21, 49, 3, 0, 29, 39, 27, 49, 27, 33, 38, 20, 10, 29
            |21, 17, 22, 26, 25, 29, 28, 23, 23, 22, 25, 18, 1, 27, 26, 9, 16, 14, 22, 23, 16, 25, 36, 25, 7, 19, 19, 37, 31, 25, 16, 1, 27, 16, 17, 26, 23, 15, 33, 28, 29, 32, 25, 24, 8, 22, 12, 15, 14, 28, 15, 22, 25, 29, 24, 19, 19, 24, 28, 9, 12, 22, 22, 27, 30, 19, 17, 15, 28, 29, 29, 0, 17, 17, 28, 29, 22, 9, 33, 26, 6
            |37, 30, 37, 38, 9, 39, 13, 38, 9, 35, 40, 32, 18, 11, 10, 17, 25, 30, 32, 38, 24, 38, 50, 40, 21, 35, 34, 36, 38, 30, 25, 17, 23, 7, 33, 9, 40, 21, 46, 42, 23, 33, 10, 8, 18, 5, 25, 8, 15, 37, 28, 35, 14, 45, 8, 21, 24, 36, 35, 10, 25, 37, 34, 42, 46, 9, 23, 31, 12, 38, 39, 17, 0, 34, 11, 25, 38, 17, 49, 40, 12
            |8, 16, 13, 23, 42, 27, 45, 15, 40, 16, 14, 14, 16, 44, 44, 21, 22, 5, 23, 14, 22, 17, 23, 13, 15, 8, 11, 47, 32, 31, 21, 17, 39, 33, 7, 43, 8, 24, 23, 17, 42, 39, 42, 41, 19, 39, 15, 31, 28, 28, 14, 16, 41, 14, 41, 30, 28, 21, 32, 26, 15, 14, 18, 15, 16, 35, 25, 6, 46, 28, 27, 17, 34, 0, 45, 40, 7, 21, 20, 18, 23
            |48, 40, 48, 47, 7, 49, 9, 48, 9, 45, 50, 42, 29, 3, 4, 28, 35, 41, 41, 49, 33, 49, 61, 51, 32, 46, 45, 39, 46, 38, 34, 28, 27, 15, 44, 2, 51, 30, 57, 53, 25, 39, 8, 5, 28, 6, 35, 16, 24, 46, 39, 45, 15, 56, 6, 29, 32, 46, 42, 20, 35, 47, 45, 53, 57, 14, 32, 42, 1, 47, 49, 28, 11, 45, 0, 29, 49, 27, 60, 50, 23
            |47, 46, 35, 28, 22, 27, 22, 33, 20, 50, 36, 29, 29, 31, 25, 21, 19, 40, 22, 35, 44, 33, 44, 38, 36, 36, 47, 10, 21, 13, 44, 30, 2, 18, 43, 27, 41, 42, 38, 38, 5, 10, 21, 30, 35, 25, 41, 32, 14, 24, 27, 50, 14, 44, 31, 10, 13, 27, 17, 31, 41, 33, 28, 39, 44, 34, 15, 35, 30, 24, 27, 29, 25, 40, 29, 0, 47, 36, 45, 34, 23
            |2, 14, 19, 30, 47, 33, 50, 22, 45, 12, 20, 21, 21, 48, 48, 27, 29, 8, 31, 20, 22, 24, 27, 18, 17, 14, 8, 54, 39, 39, 21, 21, 46, 38, 6, 48, 13, 24, 28, 22, 49, 46, 48, 45, 21, 43, 16, 34, 34, 35, 21, 11, 47, 17, 44, 37, 35, 28, 39, 29, 16, 21, 25, 20, 19, 38, 32, 13, 50, 35, 33, 22, 38, 7, 49, 47, 0, 23, 23, 24, 28
            |21, 13, 30, 35, 26, 38, 30, 31, 26, 18, 32, 26, 10, 25, 27, 17, 26, 16, 31, 31, 8, 33, 43, 32, 6, 25, 18, 46, 40, 35, 8, 8, 34, 20, 17, 26, 29, 6, 41, 35, 36, 40, 27, 22, 2, 22, 8, 11, 22, 37, 23, 18, 30, 35, 22, 27, 28, 33, 38, 7, 8, 30, 30, 34, 36, 14, 26, 21, 27, 38, 38, 9, 17, 21, 27, 36, 23, 0, 40, 34, 13
            |25, 36, 11, 18, 55, 20, 57, 12, 53, 35, 9, 17, 32, 59, 57, 32, 27, 25, 23, 11, 42, 12, 4, 8, 34, 14, 30, 47, 27, 32, 41, 34, 44, 45, 26, 58, 11, 43, 9, 7, 49, 39, 55, 57, 38, 53, 35, 48, 38, 23, 21, 34, 51, 6, 57, 36, 33, 18, 30, 43, 35, 13, 17, 6, 4, 52, 31, 19, 60, 23, 20, 33, 49, 20, 60, 45, 23, 40, 0, 11, 37
            |25, 33, 5, 7, 45, 10, 47, 3, 43, 34, 4, 8, 25, 50, 47, 23, 16, 22, 12, 4, 38, 1, 11, 6, 28, 10, 29, 36, 17, 21, 37, 27, 33, 35, 25, 48, 12, 38, 7, 4, 38, 28, 45, 48, 32, 44, 31, 41, 27, 13, 12, 34, 41, 12, 48, 25, 22, 7, 19, 35, 31, 4, 6, 6, 11, 44, 20, 14, 51, 13, 10, 26, 40, 18, 50, 34, 24, 34, 11, 0, 28
            |27, 23, 25, 27, 19, 29, 23, 26, 17, 28, 28, 20, 7, 23, 21, 6, 15, 20, 21, 26, 21, 27, 38, 28, 13, 23, 25, 33, 29, 23, 21, 7, 21, 10, 23, 21, 28, 19, 35, 30, 23, 28, 20, 20, 12, 17, 18, 13, 9, 27, 16, 28, 19, 33, 20, 15, 16, 25, 26, 9, 18, 25, 23, 30, 34, 17, 14, 19, 24, 28, 29, 6, 12, 23, 23, 23, 28, 13, 37, 28, 0|];
early = [0, 0, 69, 33, 268, 17, 246, 38, 289, 0, 60, 547, 2, 316, 291, 20, 21, 166, 31, 31, 0, 38, 435, 97, 0, 85, 0, 593, 363, 357, 154, 358, 234, 192, 0, 311, 95, 0, 148, 88, 237, 404, 250, 306, 0, 285, 0, 212, 256, 16, 110, 0, 283, 117, 325, 228, 259, 32, 387, 8, 0, 36, 157, 43, 92, 309, 370, 119, 493, 447, 13, 26, 203, 471, 296, 384, 193, 0, 118, 66, 599];
late = [819, 103, 236, 191, 427, 188, 435, 226, 449, 119, 214, 738, 185, 446, 421, 165, 182, 306, 185, 237, 125, 230, 598, 250, 124, 212, 110, 766, 535, 550, 358, 463, 412, 403, 55, 448, 269, 121, 296, 221, 419, 551, 407, 429, 146, 437, 97, 354, 375, 221, 322, 129, 418, 272, 496, 408, 389, 187, 497, 165, 110, 248, 296, 205, 285, 502, 520, 318, 656, 587, 196, 144, 396, 641, 466, 547, 307, 134, 266, 218, 718];