% n80w180.004	   74.41 752
n = 81;
duration = [|0, 23, 28, 11, 11, 27, 23, 26, 32, 22, 22, 21, 21, 22, 20, 21, 11, 24, 18, 6, 27, 28, 28, 20, 21, 21, 29, 12, 28, 32, 9, 21, 22, 33, 21, 19, 26, 15, 8, 21, 23, 8, 24, 22, 28, 26, 23, 21, 31, 22, 23, 16, 25, 13, 28, 27, 20, 20, 10, 18, 23, 11, 8, 22, 19, 21, 24, 25, 3, 24, 17, 23, 18, 8, 20, 34, 25, 14, 20, 13, 17
            |23, 0, 5, 20, 33, 23, 45, 13, 9, 42, 27, 43, 28, 44, 41, 21, 16, 46, 29, 17, 15, 8, 5, 6, 4, 43, 52, 31, 9, 55, 16, 1, 16, 12, 44, 38, 8, 13, 30, 10, 14, 15, 46, 45, 9, 29, 45, 40, 40, 19, 43, 32, 16, 21, 28, 50, 14, 23, 13, 30, 22, 25, 27, 38, 32, 15, 2, 47, 23, 41, 30, 31, 26, 16, 18, 12, 14, 21, 42, 20, 8
            |28, 5, 0, 24, 38, 23, 51, 16, 4, 47, 29, 48, 30, 50, 47, 25, 21, 51, 34, 22, 17, 5, 1, 11, 7, 48, 57, 37, 6, 60, 21, 7, 20, 9, 49, 44, 9, 17, 35, 12, 18, 20, 51, 50, 6, 30, 49, 44, 45, 24, 47, 37, 19, 24, 29, 54, 18, 25, 18, 35, 23, 29, 32, 43, 37, 19, 5, 52, 28, 46, 33, 33, 29, 21, 20, 9, 17, 25, 47, 23, 12
            |11, 20, 24, 0, 16, 16, 32, 29, 27, 23, 12, 26, 11, 31, 29, 28, 17, 33, 28, 7, 30, 23, 25, 21, 17, 30, 35, 23, 22, 38, 5, 19, 27, 32, 28, 30, 26, 8, 17, 13, 26, 11, 32, 28, 22, 16, 25, 20, 41, 28, 23, 26, 29, 2, 17, 32, 25, 9, 9, 29, 12, 5, 18, 32, 29, 26, 22, 28, 8, 35, 10, 14, 8, 8, 10, 32, 28, 4, 28, 2, 12
            |11, 33, 38, 16, 0, 31, 17, 37, 42, 11, 24, 10, 22, 16, 15, 31, 22, 18, 24, 16, 38, 38, 38, 31, 31, 15, 19, 15, 37, 22, 18, 32, 33, 44, 12, 18, 37, 23, 7, 29, 34, 19, 17, 12, 37, 28, 12, 12, 36, 32, 12, 19, 36, 18, 30, 16, 31, 23, 21, 24, 27, 12, 13, 23, 23, 32, 35, 14, 11, 25, 16, 23, 19, 18, 26, 45, 36, 18, 13, 18, 26
            |27, 23, 23, 16, 31, 0, 48, 36, 24, 34, 9, 40, 11, 47, 45, 40, 29, 49, 42, 22, 37, 19, 25, 27, 19, 46, 50, 39, 18, 52, 18, 22, 36, 32, 44, 46, 30, 14, 33, 13, 35, 24, 48, 42, 18, 8, 38, 31, 56, 39, 35, 42, 37, 14, 6, 46, 34, 8, 20, 43, 4, 19, 34, 48, 44, 35, 25, 41, 24, 51, 18, 13, 13, 21, 7, 32, 36, 13, 44, 14, 17
            |23, 45, 51, 32, 17, 48, 0, 45, 55, 21, 41, 12, 39, 1, 4, 35, 31, 1, 23, 30, 45, 51, 50, 41, 44, 2, 11, 15, 51, 13, 32, 44, 39, 55, 7, 10, 47, 38, 16, 44, 40, 30, 1, 11, 51, 45, 20, 25, 29, 37, 22, 17, 43, 34, 47, 14, 38, 40, 34, 23, 44, 29, 19, 16, 20, 38, 46, 17, 25, 16, 33, 40, 36, 31, 42, 56, 43, 35, 4, 34, 40
            |26, 13, 16, 29, 37, 36, 45, 0, 19, 48, 39, 46, 39, 44, 40, 12, 15, 45, 23, 23, 1, 21, 15, 9, 17, 43, 53, 30, 21, 56, 24, 14, 6, 13, 45, 35, 7, 24, 32, 23, 4, 19, 45, 47, 21, 41, 50, 47, 31, 9, 49, 28, 3, 30, 41, 52, 6, 34, 20, 24, 34, 33, 27, 33, 27, 6, 12, 51, 28, 35, 39, 42, 36, 22, 30, 14, 2, 31, 42, 29, 19
            |32, 9, 4, 27, 42, 24, 55, 19, 0, 50, 31, 52, 32, 54, 51, 29, 25, 55, 38, 26, 21, 5, 5, 15, 11, 52, 61, 41, 6, 63, 24, 11, 23, 9, 53, 48, 13, 19, 39, 14, 21, 24, 55, 53, 6, 31, 52, 47, 49, 27, 51, 41, 22, 27, 30, 58, 22, 27, 21, 39, 24, 32, 36, 47, 42, 23, 9, 55, 31, 50, 36, 35, 31, 24, 22, 9, 21, 27, 51, 26, 16
            |22, 42, 47, 23, 11, 34, 21, 48, 50, 0, 26, 9, 23, 21, 21, 42, 33, 23, 35, 25, 49, 45, 47, 41, 39, 21, 17, 25, 45, 19, 26, 41, 44, 54, 14, 27, 47, 30, 18, 36, 44, 29, 21, 11, 45, 29, 3, 4, 46, 43, 1, 29, 47, 23, 31, 12, 42, 26, 30, 35, 31, 18, 24, 33, 34, 43, 44, 7, 20, 34, 17, 23, 21, 27, 31, 54, 46, 23, 18, 24, 34
            |22, 27, 29, 12, 24, 9, 41, 39, 31, 26, 0, 32, 2, 40, 39, 40, 29, 42, 40, 19, 40, 26, 30, 30, 23, 39, 42, 34, 25, 44, 16, 26, 38, 38, 36, 40, 34, 15, 28, 17, 37, 23, 41, 34, 25, 4, 29, 22, 53, 39, 26, 38, 40, 10, 6, 37, 35, 4, 20, 41, 7, 13, 30, 44, 41, 37, 29, 33, 20, 47, 9, 4, 5, 19, 9, 38, 38, 8, 37, 11, 19
            |21, 43, 48, 26, 10, 40, 12, 46, 52, 9, 32, 0, 30, 11, 13, 38, 31, 13, 29, 26, 47, 48, 48, 41, 41, 11, 9, 19, 47, 12, 28, 42, 41, 54, 5, 19, 47, 33, 14, 39, 42, 28, 11, 2, 47, 36, 8, 13, 38, 40, 10, 23, 45, 27, 38, 6, 40, 32, 30, 29, 36, 22, 20, 25, 27, 40, 45, 6, 21, 26, 23, 30, 27, 28, 35, 55, 44, 28, 9, 28, 36
            |21, 28, 30, 11, 22, 11, 39, 39, 32, 23, 2, 30, 0, 38, 37, 39, 28, 40, 39, 19, 40, 27, 31, 31, 24, 37, 39, 33, 26, 42, 16, 27, 38, 39, 34, 39, 35, 15, 26, 18, 37, 22, 39, 32, 26, 6, 27, 20, 52, 39, 24, 37, 40, 9, 8, 35, 35, 5, 20, 40, 9, 11, 29, 43, 40, 37, 30, 30, 19, 45, 7, 3, 4, 19, 10, 39, 39, 8, 35, 10, 20
            |22, 44, 50, 31, 16, 47, 1, 44, 54, 21, 40, 11, 38, 0, 4, 34, 30, 2, 23, 29, 44, 51, 49, 41, 43, 1, 11, 14, 50, 13, 31, 43, 38, 54, 6, 10, 46, 37, 15, 43, 40, 30, 1, 10, 50, 44, 19, 24, 29, 36, 21, 17, 42, 33, 46, 14, 38, 39, 33, 22, 43, 28, 18, 16, 20, 38, 45, 17, 24, 16, 32, 39, 35, 30, 41, 55, 42, 34, 3, 33, 39
            |20, 41, 47, 29, 15, 45, 4, 40, 51, 21, 39, 13, 37, 4, 0, 31, 26, 4, 19, 26, 40, 48, 46, 37, 40, 2, 14, 11, 47, 17, 29, 40, 35, 51, 8, 7, 43, 35, 12, 40, 36, 26, 5, 12, 47, 43, 20, 24, 26, 32, 22, 13, 38, 31, 45, 16, 34, 37, 30, 19, 41, 26, 14, 13, 16, 34, 42, 18, 21, 14, 30, 38, 34, 27, 39, 51, 38, 32, 3, 31, 36
            |21, 21, 25, 28, 31, 40, 35, 12, 29, 42, 40, 38, 39, 34, 31, 0, 11, 34, 12, 21, 11, 29, 24, 15, 23, 33, 44, 20, 29, 47, 23, 20, 6, 25, 37, 25, 17, 26, 24, 28, 8, 17, 36, 39, 29, 43, 43, 42, 20, 2, 43, 18, 9, 30, 43, 44, 7, 36, 20, 13, 37, 31, 18, 21, 16, 6, 20, 44, 24, 24, 37, 42, 36, 21, 33, 25, 9, 31, 33, 29, 23
            |11, 16, 21, 17, 22, 29, 31, 15, 25, 33, 29, 31, 28, 30, 26, 11, 0, 31, 14, 10, 16, 23, 20, 11, 16, 28, 38, 16, 23, 41, 12, 14, 11, 24, 31, 23, 16, 16, 17, 19, 11, 6, 31, 32, 23, 32, 34, 32, 27, 11, 34, 16, 14, 19, 33, 37, 9, 25, 9, 15, 26, 20, 12, 22, 17, 10, 16, 36, 13, 25, 26, 31, 25, 9, 23, 25, 14, 20, 28, 18, 14
            |24, 46, 51, 33, 18, 49, 1, 45, 55, 23, 42, 13, 40, 2, 4, 34, 31, 0, 23, 30, 45, 52, 51, 42, 45, 3, 12, 15, 52, 14, 33, 44, 39, 55, 8, 10, 47, 39, 16, 45, 40, 31, 2, 12, 52, 46, 21, 26, 28, 36, 23, 17, 43, 35, 48, 15, 38, 41, 34, 22, 45, 30, 19, 15, 20, 38, 47, 19, 25, 15, 34, 41, 37, 32, 43, 56, 42, 36, 5, 35, 40
            |18, 29, 34, 28, 24, 42, 23, 23, 38, 35, 40, 29, 39, 23, 19, 12, 14, 23, 0, 21, 23, 37, 33, 23, 30, 22, 34, 10, 37, 36, 24, 28, 17, 35, 26, 13, 28, 29, 17, 33, 19, 18, 24, 29, 37, 44, 35, 36, 14, 14, 36, 6, 21, 30, 45, 34, 17, 37, 22, 1, 39, 28, 11, 9, 4, 17, 29, 35, 21, 12, 35, 41, 35, 21, 36, 36, 21, 31, 22, 29, 28
            |6, 17, 22, 7, 16, 22, 30, 23, 26, 25, 19, 26, 19, 29, 26, 21, 10, 30, 21, 0, 24, 22, 22, 16, 15, 28, 35, 18, 21, 38, 3, 16, 20, 28, 27, 25, 22, 9, 14, 14, 20, 4, 30, 28, 21, 23, 28, 24, 35, 21, 26, 21, 23, 9, 24, 33, 18, 16, 4, 22, 18, 10, 13, 27, 23, 19, 19, 30, 6, 30, 16, 21, 15, 1, 15, 29, 22, 11, 26, 8, 10
            |27, 15, 17, 30, 38, 37, 45, 1, 21, 49, 40, 47, 40, 44, 40, 11, 16, 45, 23, 24, 0, 22, 16, 10, 19, 43, 54, 30, 23, 56, 25, 15, 6, 14, 46, 35, 8, 25, 32, 25, 4, 20, 45, 47, 23, 42, 50, 48, 30, 9, 49, 28, 2, 31, 42, 53, 7, 36, 21, 24, 35, 34, 27, 32, 27, 6, 13, 52, 28, 35, 40, 43, 38, 23, 32, 15, 2, 33, 42, 30, 21
            |28, 8, 5, 23, 38, 19, 51, 21, 5, 45, 26, 48, 27, 51, 48, 29, 23, 52, 37, 22, 22, 0, 6, 15, 7, 49, 57, 38, 1, 60, 20, 9, 24, 14, 49, 45, 14, 15, 36, 9, 22, 21, 52, 49, 1, 26, 48, 43, 49, 28, 46, 39, 23, 22, 25, 54, 22, 22, 18, 38, 19, 28, 34, 45, 40, 23, 9, 51, 27, 48, 31, 30, 26, 21, 17, 13, 22, 22, 48, 21, 12
            |28, 5, 1, 25, 38, 25, 50, 15, 5, 47, 30, 48, 31, 49, 46, 24, 20, 51, 33, 22, 16, 6, 0, 10, 8, 48, 57, 36, 7, 60, 21, 6, 18, 8, 49, 43, 8, 17, 35, 13, 16, 20, 51, 50, 7, 31, 49, 45, 44, 22, 48, 37, 17, 25, 30, 54, 17, 26, 18, 34, 24, 30, 32, 42, 37, 18, 4, 52, 28, 45, 34, 34, 30, 21, 21, 8, 16, 25, 47, 24, 13
            |20, 6, 11, 21, 31, 27, 41, 9, 15, 41, 30, 41, 31, 41, 37, 15, 11, 42, 23, 16, 10, 15, 10, 0, 9, 39, 49, 27, 15, 52, 16, 6, 9, 13, 41, 34, 6, 16, 27, 15, 8, 13, 42, 42, 15, 32, 43, 40, 34, 13, 42, 27, 10, 22, 32, 47, 8, 26, 12, 24, 25, 25, 23, 32, 27, 9, 6, 45, 21, 35, 31, 34, 28, 15, 22, 14, 9, 23, 38, 21, 11
            |21, 4, 7, 17, 31, 19, 44, 17, 11, 39, 23, 41, 24, 43, 40, 23, 16, 45, 30, 15, 19, 7, 8, 9, 0, 42, 50, 31, 7, 53, 13, 4, 19, 15, 42, 38, 12, 9, 29, 6, 17, 14, 45, 43, 7, 25, 42, 37, 42, 22, 40, 32, 19, 17, 24, 47, 17, 19, 11, 31, 17, 22, 26, 38, 33, 18, 6, 45, 21, 41, 26, 27, 22, 14, 14, 16, 18, 18, 41, 16, 5
            |21, 43, 48, 30, 15, 46, 2, 43, 52, 21, 39, 11, 37, 1, 2, 33, 28, 3, 22, 28, 43, 49, 48, 39, 42, 0, 12, 13, 49, 15, 30, 42, 37, 53, 7, 9, 45, 36, 14, 42, 38, 28, 3, 10, 49, 43, 19, 24, 28, 35, 21, 15, 41, 32, 45, 14, 36, 38, 31, 21, 42, 27, 16, 15, 19, 36, 44, 17, 23, 15, 31, 38, 34, 29, 40, 53, 40, 33, 2, 32, 38
            |29, 52, 57, 35, 19, 50, 11, 53, 61, 17, 42, 9, 39, 11, 14, 44, 38, 12, 34, 35, 54, 57, 57, 49, 50, 12, 0, 24, 56, 3, 37, 50, 48, 62, 8, 21, 55, 43, 22, 48, 49, 37, 10, 8, 56, 45, 14, 21, 40, 46, 17, 27, 52, 37, 48, 5, 47, 41, 39, 33, 46, 31, 27, 27, 31, 47, 53, 10, 29, 27, 32, 39, 37, 36, 45, 63, 51, 37, 12, 37, 45
            |12, 31, 37, 23, 15, 39, 15, 30, 41, 25, 34, 19, 33, 14, 11, 20, 16, 15, 10, 18, 30, 38, 36, 27, 31, 13, 24, 0, 38, 27, 21, 30, 24, 40, 17, 7, 32, 27, 8, 32, 25, 17, 16, 19, 38, 38, 25, 26, 21, 22, 26, 4, 28, 25, 40, 25, 23, 32, 21, 10, 35, 22, 5, 9, 9, 23, 32, 25, 15, 12, 28, 35, 30, 19, 33, 41, 28, 27, 13, 25, 27
            |28, 9, 6, 22, 37, 18, 51, 21, 6, 45, 25, 47, 26, 50, 47, 29, 23, 52, 37, 21, 23, 1, 7, 15, 7, 49, 56, 38, 0, 59, 19, 9, 24, 15, 49, 45, 15, 14, 35, 9, 22, 21, 51, 49, 0, 25, 47, 42, 49, 28, 45, 39, 24, 21, 24, 53, 22, 21, 17, 38, 18, 27, 33, 45, 40, 24, 9, 50, 27, 48, 30, 29, 25, 20, 16, 14, 22, 22, 47, 21, 11
            |32, 55, 60, 38, 22, 52, 13, 56, 63, 19, 44, 12, 42, 13, 17, 47, 41, 14, 36, 38, 56, 60, 60, 52, 53, 15, 3, 27, 59, 0, 40, 53, 51, 65, 11, 24, 57, 45, 25, 51, 52, 40, 12, 10, 59, 48, 16, 23, 42, 49, 19, 30, 54, 39, 50, 7, 50, 44, 42, 36, 48, 34, 29, 29, 33, 50, 56, 12, 32, 29, 35, 41, 39, 39, 48, 66, 54, 40, 14, 40, 48
            |9, 16, 21, 5, 18, 18, 32, 24, 24, 26, 16, 28, 16, 31, 29, 23, 12, 33, 24, 3, 25, 20, 21, 16, 13, 30, 37, 21, 19, 40, 0, 15, 22, 28, 30, 28, 22, 6, 16, 12, 21, 6, 33, 29, 19, 20, 29, 24, 38, 23, 27, 24, 24, 7, 21, 34, 20, 13, 4, 25, 15, 9, 16, 30, 26, 21, 18, 31, 8, 33, 15, 19, 13, 3, 12, 28, 23, 8, 28, 6, 8
            |21, 1, 7, 19, 32, 22, 44, 14, 11, 41, 26, 42, 27, 43, 40, 20, 14, 44, 28, 16, 15, 9, 6, 6, 4, 42, 50, 30, 9, 53, 15, 0, 15, 13, 43, 37, 8, 12, 29, 10, 14, 14, 44, 43, 9, 28, 43, 39, 40, 19, 42, 31, 16, 19, 28, 48, 13, 22, 11, 29, 21, 24, 25, 36, 31, 15, 3, 46, 21, 39, 29, 30, 25, 14, 17, 13, 14, 20, 40, 18, 7
            |22, 16, 20, 27, 33, 36, 39, 6, 23, 44, 38, 41, 38, 38, 35, 6, 11, 39, 17, 20, 6, 24, 18, 9, 19, 37, 48, 24, 24, 51, 22, 15, 0, 18, 40, 30, 11, 23, 27, 24, 2, 16, 40, 42, 24, 40, 45, 43, 26, 4, 45, 23, 4, 28, 40, 47, 2, 34, 18, 18, 34, 30, 21, 27, 21, 1, 15, 46, 24, 30, 37, 40, 35, 19, 30, 19, 4, 30, 37, 28, 19
            |33, 12, 9, 32, 44, 32, 55, 13, 9, 54, 38, 54, 39, 54, 51, 25, 24, 55, 35, 28, 14, 14, 8, 13, 15, 53, 62, 40, 15, 65, 28, 13, 18, 0, 54, 47, 8, 25, 40, 21, 16, 26, 55, 55, 15, 39, 56, 52, 44, 22, 55, 40, 16, 32, 38, 60, 18, 34, 24, 36, 32, 37, 36, 45, 39, 19, 10, 58, 34, 48, 41, 42, 38, 27, 29, 1, 15, 33, 52, 31, 20
            |21, 44, 49, 28, 12, 44, 7, 45, 53, 14, 36, 5, 34, 6, 8, 37, 31, 8, 26, 27, 46, 49, 49, 41, 42, 7, 8, 17, 49, 11, 30, 43, 40, 54, 0, 15, 47, 35, 14, 41, 41, 29, 6, 4, 49, 40, 13, 18, 35, 38, 15, 20, 44, 30, 42, 8, 39, 35, 32, 26, 40, 25, 19, 21, 24, 39, 45, 10, 22, 22, 27, 34, 31, 29, 38, 55, 44, 31, 5, 30, 38
            |19, 38, 44, 30, 18, 46, 10, 35, 48, 27, 40, 19, 39, 10, 7, 25, 23, 10, 13, 25, 35, 45, 43, 34, 38, 9, 21, 7, 45, 24, 28, 37, 30, 47, 15, 0, 39, 34, 13, 39, 31, 24, 11, 18, 45, 45, 26, 29, 19, 27, 28, 7, 33, 32, 46, 23, 29, 38, 28, 13, 42, 28, 12, 6, 10, 29, 39, 25, 21, 7, 33, 40, 35, 26, 39, 48, 33, 33, 10, 32, 34
            |26, 8, 9, 26, 37, 30, 47, 7, 13, 47, 34, 47, 35, 46, 43, 17, 16, 47, 28, 22, 8, 14, 8, 6, 12, 45, 55, 32, 15, 57, 22, 8, 11, 8, 47, 39, 0, 20, 33, 18, 9, 18, 48, 48, 15, 36, 49, 46, 37, 15, 48, 32, 9, 27, 36, 53, 10, 30, 18, 28, 29, 31, 28, 37, 31, 11, 6, 51, 27, 40, 36, 38, 33, 20, 26, 9, 8, 28, 44, 26, 15
            |15, 13, 17, 8, 23, 14, 38, 24, 19, 30, 15, 33, 15, 37, 35, 26, 16, 39, 29, 9, 25, 15, 17, 16, 9, 36, 43, 27, 14, 45, 6, 12, 23, 25, 35, 34, 20, 0, 23, 6, 22, 11, 39, 35, 14, 17, 33, 28, 42, 26, 31, 29, 25, 8, 17, 39, 21, 10, 7, 30, 11, 13, 22, 36, 31, 22, 15, 36, 14, 38, 17, 18, 13, 8, 7, 25, 24, 8, 34, 7, 5
            |8, 30, 35, 17, 7, 33, 16, 32, 39, 18, 28, 14, 26, 15, 12, 24, 17, 16, 17, 14, 32, 36, 35, 27, 29, 14, 22, 8, 35, 25, 16, 29, 27, 40, 14, 13, 33, 23, 0, 28, 28, 15, 16, 15, 35, 32, 19, 19, 29, 26, 19, 12, 30, 19, 33, 21, 25, 25, 18, 17, 29, 15, 6, 17, 16, 26, 31, 20, 9, 19, 20, 27, 22, 15, 27, 41, 30, 20, 12, 19, 24
            |21, 10, 12, 13, 29, 13, 44, 23, 14, 36, 17, 39, 18, 43, 40, 28, 19, 45, 33, 14, 25, 9, 13, 15, 6, 42, 48, 32, 9, 51, 12, 10, 24, 21, 41, 39, 18, 6, 28, 0, 23, 15, 44, 41, 9, 18, 39, 33, 46, 27, 37, 34, 25, 13, 18, 45, 22, 13, 11, 34, 11, 18, 27, 40, 36, 23, 12, 42, 19, 43, 21, 21, 17, 13, 8, 21, 24, 13, 40, 12, 5
            |23, 14, 18, 26, 34, 35, 40, 4, 21, 44, 37, 42, 37, 40, 36, 8, 11, 40, 19, 20, 4, 22, 16, 8, 17, 38, 49, 25, 22, 52, 21, 14, 2, 16, 41, 31, 9, 22, 28, 23, 0, 16, 41, 43, 22, 39, 46, 43, 28, 6, 45, 24, 3, 28, 39, 48, 2, 33, 17, 20, 33, 30, 22, 29, 23, 2, 13, 47, 24, 31, 36, 40, 34, 19, 29, 17, 2, 29, 38, 27, 18
            |8, 15, 20, 11, 19, 24, 30, 19, 24, 29, 23, 28, 22, 30, 26, 17, 6, 31, 18, 4, 20, 21, 20, 13, 14, 28, 37, 17, 21, 40, 6, 14, 16, 26, 29, 24, 18, 11, 15, 15, 16, 0, 31, 30, 21, 26, 31, 28, 32, 17, 30, 19, 19, 13, 27, 35, 14, 19, 4, 19, 21, 14, 12, 25, 21, 15, 16, 33, 9, 28, 21, 25, 19, 4, 17, 26, 18, 14, 27, 12, 10
            |24, 46, 51, 32, 17, 48, 1, 45, 55, 21, 41, 11, 39, 1, 5, 36, 31, 2, 24, 30, 45, 52, 51, 42, 45, 3, 10, 16, 51, 12, 33, 44, 40, 55, 6, 11, 48, 39, 16, 44, 41, 31, 0, 10, 51, 45, 19, 24, 30, 37, 21, 18, 43, 34, 47, 13, 39, 40, 34, 24, 44, 29, 19, 17, 21, 39, 47, 16, 25, 17, 32, 40, 36, 31, 42, 56, 43, 35, 4, 34, 40
            |22, 45, 50, 28, 12, 42, 11, 47, 53, 11, 34, 2, 32, 10, 12, 39, 32, 12, 29, 28, 47, 49, 50, 42, 43, 10, 8, 19, 49, 10, 29, 43, 42, 55, 4, 18, 48, 35, 15, 41, 43, 30, 10, 0, 49, 38, 9, 15, 38, 40, 12, 23, 46, 29, 40, 5, 41, 34, 32, 29, 38, 23, 21, 25, 27, 41, 46, 7, 22, 25, 25, 32, 29, 29, 37, 56, 45, 30, 9, 30, 38
            |28, 9, 6, 22, 37, 18, 51, 21, 6, 45, 25, 47, 26, 50, 47, 29, 23, 52, 37, 21, 23, 1, 7, 15, 7, 49, 56, 38, 0, 59, 19, 9, 24, 15, 49, 45, 15, 14, 35, 9, 22, 21, 51, 49, 0, 25, 47, 42, 49, 28, 45, 39, 24, 21, 24, 53, 22, 21, 17, 38, 18, 27, 33, 45, 40, 24, 9, 50, 27, 48, 30, 29, 25, 20, 16, 14, 22, 22, 47, 21, 11
            |26, 29, 30, 16, 28, 8, 45, 41, 31, 29, 4, 36, 6, 44, 43, 43, 32, 46, 44, 23, 42, 26, 31, 32, 25, 43, 45, 38, 25, 48, 20, 28, 40, 39, 40, 45, 36, 17, 32, 18, 39, 26, 45, 38, 25, 0, 32, 25, 57, 42, 29, 42, 42, 14, 2, 41, 38, 7, 23, 44, 7, 17, 34, 48, 45, 39, 31, 36, 24, 51, 13, 7, 9, 23, 10, 39, 41, 12, 41, 14, 22
            |23, 45, 49, 25, 12, 38, 20, 50, 52, 3, 29, 8, 27, 19, 20, 43, 34, 21, 35, 28, 50, 48, 49, 43, 42, 19, 14, 25, 47, 16, 29, 43, 45, 56, 13, 26, 49, 33, 19, 39, 46, 31, 19, 9, 47, 32, 0, 7, 46, 45, 3, 30, 49, 26, 34, 9, 44, 30, 32, 35, 34, 21, 25, 32, 34, 44, 46, 4, 22, 34, 20, 26, 25, 29, 34, 57, 48, 26, 17, 27, 37
            |21, 40, 44, 20, 12, 31, 25, 47, 47, 4, 22, 13, 20, 24, 24, 42, 32, 26, 36, 24, 48, 43, 45, 40, 37, 24, 21, 26, 42, 23, 24, 39, 43, 52, 18, 29, 46, 28, 19, 33, 43, 28, 24, 15, 42, 25, 7, 0, 47, 43, 4, 31, 46, 21, 28, 16, 41, 23, 28, 36, 27, 15, 25, 35, 35, 42, 42, 11, 19, 36, 13, 19, 18, 25, 28, 52, 46, 21, 21, 21, 32
            |31, 40, 45, 41, 36, 56, 29, 31, 49, 46, 53, 38, 52, 29, 26, 20, 27, 28, 14, 35, 30, 49, 44, 34, 42, 28, 40, 21, 49, 42, 38, 40, 26, 44, 35, 19, 37, 42, 29, 46, 28, 32, 30, 38, 49, 57, 46, 47, 0, 22, 47, 17, 28, 44, 58, 42, 27, 50, 36, 13, 52, 42, 24, 13, 13, 26, 40, 44, 34, 13, 48, 54, 49, 35, 49, 45, 29, 45, 29, 43, 40
            |22, 19, 24, 28, 32, 39, 37, 9, 27, 43, 39, 40, 39, 36, 32, 2, 11, 36, 14, 21, 9, 28, 22, 13, 22, 35, 46, 22, 28, 49, 23, 19, 4, 22, 38, 27, 15, 26, 26, 27, 6, 17, 37, 40, 28, 42, 45, 43, 22, 0, 44, 20, 7, 30, 43, 46, 5, 36, 20, 15, 36, 31, 20, 24, 18, 4, 19, 45, 24, 26, 38, 42, 36, 21, 33, 23, 7, 31, 34, 29, 22
            |23, 43, 47, 23, 12, 35, 22, 49, 51, 1, 26, 10, 24, 21, 22, 43, 34, 23, 36, 26, 49, 46, 48, 42, 40, 21, 17, 26, 45, 19, 27, 42, 45, 55, 15, 28, 48, 31, 19, 37, 45, 30, 21, 12, 45, 29, 3, 4, 47, 44, 0, 30, 48, 24, 32, 12, 43, 27, 30, 36, 31, 18, 25, 34, 34, 44, 45, 7, 21, 35, 17, 23, 22, 28, 31, 55, 47, 24, 19, 25, 35
            |16, 32, 37, 26, 19, 42, 17, 28, 41, 29, 38, 23, 37, 17, 13, 18, 16, 17, 6, 21, 28, 39, 37, 27, 32, 15, 27, 4, 39, 30, 24, 31, 23, 40, 20, 7, 32, 29, 12, 34, 24, 19, 18, 23, 39, 42, 30, 31, 17, 20, 30, 0, 26, 29, 43, 28, 22, 35, 23, 6, 38, 26, 8, 6, 4, 22, 33, 29, 18, 9, 32, 39, 33, 21, 35, 41, 26, 30, 16, 28, 29
            |25, 16, 19, 29, 36, 37, 43, 3, 22, 47, 40, 45, 40, 42, 38, 9, 14, 43, 21, 23, 2, 23, 17, 10, 19, 41, 52, 28, 24, 54, 24, 16, 4, 16, 44, 33, 9, 25, 30, 25, 3, 19, 43, 46, 24, 42, 49, 46, 28, 7, 48, 26, 0, 31, 42, 51, 5, 35, 20, 22, 35, 33, 25, 30, 24, 4, 14, 50, 27, 33, 39, 43, 37, 22, 32, 17, 1, 32, 40, 30, 21
            |13, 21, 24, 2, 18, 14, 34, 30, 27, 23, 10, 27, 9, 33, 31, 30, 19, 35, 30, 9, 31, 22, 25, 22, 17, 32, 37, 25, 21, 39, 7, 19, 28, 32, 30, 32, 27, 8, 19, 13, 28, 13, 34, 29, 21, 14, 26, 21, 44, 30, 24, 29, 31, 0, 15, 33, 26, 7, 10, 31, 10, 6, 21, 35, 31, 28, 23, 29, 10, 37, 9, 12, 6, 9, 8, 33, 30, 1, 30, 1, 12
            |28, 28, 29, 17, 30, 6, 47, 41, 30, 31, 6, 38, 8, 46, 45, 43, 33, 48, 45, 24, 42, 25, 30, 32, 24, 45, 48, 40, 24, 50, 21, 28, 40, 38, 42, 46, 36, 17, 33, 18, 39, 27, 47, 40, 24, 2, 34, 28, 58, 43, 32, 43, 42, 15, 0, 43, 38, 8, 23, 45, 7, 18, 35, 49, 46, 40, 30, 38, 25, 52, 15, 9, 11, 23, 10, 38, 41, 13, 43, 15, 21
            |27, 50, 54, 32, 16, 46, 14, 52, 58, 12, 37, 6, 35, 14, 16, 44, 37, 15, 34, 33, 53, 54, 54, 47, 47, 14, 5, 25, 53, 7, 34, 48, 47, 60, 8, 23, 53, 39, 21, 45, 48, 35, 13, 5, 53, 41, 9, 16, 42, 46, 12, 28, 51, 33, 43, 0, 46, 37, 37, 34, 42, 27, 26, 29, 32, 47, 51, 5, 27, 30, 28, 34, 33, 34, 41, 61, 51, 34, 13, 34, 43
            |20, 14, 18, 25, 31, 34, 38, 6, 22, 42, 35, 40, 35, 38, 34, 7, 9, 38, 17, 18, 7, 22, 17, 8, 17, 36, 47, 23, 22, 50, 20, 13, 2, 18, 39, 29, 10, 21, 25, 22, 2, 14, 39, 41, 22, 38, 44, 41, 27, 5, 43, 22, 5, 26, 38, 46, 0, 31, 16, 18, 32, 28, 20, 27, 21, 1, 13, 45, 22, 30, 35, 38, 33, 17, 28, 19, 4, 28, 36, 25, 17
            |20, 23, 25, 9, 23, 8, 40, 34, 27, 26, 4, 32, 5, 39, 37, 36, 25, 41, 37, 16, 36, 22, 26, 26, 19, 38, 41, 32, 21, 44, 13, 22, 34, 34, 35, 38, 30, 10, 25, 13, 33, 19, 40, 34, 21, 7, 30, 23, 50, 36, 27, 35, 35, 7, 8, 37, 31, 0, 16, 37, 4, 11, 27, 41, 38, 33, 25, 33, 17, 44, 10, 8, 5, 16, 5, 34, 34, 5, 36, 7, 15
            |10, 13, 18, 9, 21, 20, 34, 20, 21, 30, 20, 30, 20, 33, 30, 20, 9, 34, 22, 4, 21, 18, 18, 12, 11, 31, 39, 21, 17, 42, 4, 11, 18, 24, 32, 28, 18, 7, 18, 11, 17, 4, 34, 32, 17, 23, 32, 28, 36, 20, 30, 23, 20, 10, 23, 37, 16, 16, 0, 23, 17, 13, 16, 29, 25, 17, 14, 34, 10, 32, 19, 22, 17, 3, 14, 25, 19, 12, 30, 9, 6
            |18, 30, 35, 29, 24, 43, 23, 24, 39, 35, 41, 29, 40, 22, 19, 13, 15, 22, 1, 22, 24, 38, 34, 24, 31, 21, 33, 10, 38, 36, 25, 29, 18, 36, 26, 13, 28, 30, 17, 34, 20, 19, 24, 29, 38, 44, 35, 36, 13, 15, 36, 6, 22, 31, 45, 34, 18, 37, 23, 0, 40, 29, 12, 9, 3, 18, 30, 35, 21, 11, 35, 42, 36, 22, 37, 37, 22, 32, 22, 30, 29
            |23, 22, 23, 12, 27, 4, 44, 34, 24, 31, 7, 36, 9, 43, 41, 37, 26, 45, 39, 18, 35, 19, 24, 25, 17, 42, 46, 35, 18, 48, 15, 21, 34, 32, 40, 42, 29, 11, 29, 11, 33, 21, 44, 38, 18, 7, 34, 27, 52, 36, 31, 38, 35, 10, 7, 42, 32, 4, 17, 40, 0, 15, 30, 44, 41, 33, 24, 38, 20, 47, 14, 11, 9, 17, 4, 32, 34, 9, 40, 10, 15
            |11, 25, 29, 5, 12, 19, 29, 33, 32, 18, 13, 22, 11, 28, 26, 31, 20, 30, 28, 10, 34, 28, 30, 25, 22, 27, 31, 22, 27, 34, 9, 24, 30, 37, 25, 28, 31, 13, 15, 18, 30, 14, 29, 23, 27, 17, 21, 15, 42, 31, 18, 26, 33, 6, 18, 27, 28, 11, 13, 29, 15, 0, 18, 31, 29, 29, 27, 24, 8, 34, 7, 13, 8, 11, 14, 37, 32, 6, 25, 6, 17
            |8, 27, 32, 18, 13, 34, 19, 27, 36, 24, 30, 20, 29, 18, 14, 18, 12, 19, 11, 13, 27, 34, 32, 23, 26, 16, 27, 5, 33, 29, 16, 25, 21, 36, 19, 12, 28, 22, 6, 27, 22, 12, 19, 21, 33, 34, 25, 25, 24, 20, 25, 8, 25, 21, 35, 26, 20, 27, 16, 12, 30, 18, 0, 14, 11, 21, 28, 25, 10, 17, 24, 31, 25, 14, 28, 37, 25, 22, 16, 20, 22
            |22, 38, 43, 32, 23, 48, 16, 33, 47, 33, 44, 25, 43, 16, 13, 21, 22, 15, 9, 27, 32, 45, 42, 32, 38, 15, 27, 9, 45, 29, 30, 36, 27, 45, 21, 6, 37, 36, 17, 40, 29, 25, 17, 25, 45, 48, 32, 35, 13, 24, 34, 6, 30, 35, 49, 29, 27, 41, 29, 9, 44, 31, 14, 0, 6, 26, 38, 31, 24, 3, 37, 44, 39, 27, 41, 46, 31, 36, 16, 34, 35
            |19, 32, 37, 29, 23, 44, 20, 27, 42, 34, 41, 27, 40, 20, 16, 16, 17, 20, 4, 23, 27, 40, 37, 27, 33, 19, 31, 9, 40, 33, 26, 31, 21, 39, 24, 10, 31, 31, 16, 36, 23, 21, 21, 27, 40, 45, 34, 35, 13, 18, 34, 4, 24, 31, 46, 32, 21, 38, 25, 3, 41, 29, 11, 6, 0, 21, 33, 33, 21, 9, 35, 42, 36, 23, 38, 40, 25, 33, 19, 31, 30
            |21, 15, 19, 26, 32, 35, 38, 6, 23, 43, 37, 40, 37, 38, 34, 6, 10, 38, 17, 19, 6, 23, 18, 9, 18, 36, 47, 23, 24, 50, 21, 15, 1, 19, 39, 29, 11, 22, 26, 23, 2, 15, 39, 41, 24, 39, 44, 42, 26, 4, 44, 22, 4, 28, 40, 47, 1, 33, 17, 18, 33, 29, 21, 26, 21, 0, 15, 46, 23, 29, 36, 40, 34, 18, 29, 20, 4, 29, 36, 27, 18
            |24, 2, 5, 22, 35, 25, 46, 12, 9, 44, 29, 45, 30, 45, 42, 20, 16, 47, 29, 19, 13, 9, 4, 6, 6, 44, 53, 32, 9, 56, 18, 3, 15, 10, 45, 39, 6, 15, 31, 12, 13, 16, 47, 46, 9, 31, 46, 42, 40, 19, 45, 33, 14, 23, 30, 51, 13, 25, 14, 30, 24, 27, 28, 38, 33, 15, 0, 49, 24, 41, 32, 33, 28, 17, 20, 10, 13, 23, 43, 22, 10
            |25, 47, 52, 28, 14, 41, 17, 51, 55, 7, 33, 6, 30, 17, 18, 44, 36, 19, 35, 30, 52, 51, 52, 45, 45, 17, 10, 25, 50, 12, 31, 46, 46, 58, 10, 25, 51, 36, 20, 42, 47, 33, 16, 7, 50, 36, 4, 11, 44, 45, 7, 29, 50, 29, 38, 5, 45, 33, 34, 35, 38, 24, 25, 31, 33, 46, 49, 0, 24, 32, 23, 30, 28, 31, 37, 59, 49, 30, 15, 30, 40
            |3, 23, 28, 8, 11, 24, 25, 28, 31, 20, 20, 21, 19, 24, 21, 24, 13, 25, 21, 6, 28, 27, 28, 21, 21, 23, 29, 15, 27, 32, 8, 21, 24, 34, 22, 21, 27, 14, 9, 19, 24, 9, 25, 22, 27, 24, 22, 19, 34, 24, 21, 18, 27, 10, 25, 27, 22, 17, 10, 21, 20, 8, 10, 24, 21, 23, 24, 24, 0, 27, 14, 21, 15, 7, 18, 34, 26, 12, 21, 10, 16
            |24, 41, 46, 35, 25, 51, 16, 35, 50, 34, 47, 26, 45, 16, 14, 24, 25, 15, 12, 30, 35, 48, 45, 35, 41, 15, 27, 12, 48, 29, 33, 39, 30, 48, 22, 7, 40, 38, 19, 43, 31, 28, 17, 25, 48, 51, 34, 36, 13, 26, 35, 9, 33, 37, 52, 30, 30, 44, 32, 11, 47, 34, 17, 3, 9, 29, 41, 32, 27, 0, 40, 47, 42, 30, 44, 48, 33, 39, 17, 37, 38
            |17, 30, 33, 10, 16, 18, 33, 39, 36, 17, 9, 23, 7, 32, 30, 37, 26, 34, 35, 16, 40, 31, 34, 31, 26, 31, 32, 28, 30, 35, 15, 29, 37, 41, 27, 33, 36, 17, 20, 21, 36, 21, 32, 25, 30, 13, 20, 13, 48, 38, 17, 32, 39, 9, 15, 28, 35, 10, 19, 35, 14, 7, 24, 37, 35, 36, 32, 23, 14, 40, 0, 7, 5, 17, 15, 42, 38, 9, 29, 10, 22
            |23, 31, 33, 14, 23, 13, 40, 42, 35, 23, 4, 30, 3, 39, 38, 42, 31, 41, 41, 21, 43, 30, 34, 34, 27, 38, 39, 35, 29, 41, 19, 30, 40, 42, 34, 40, 38, 18, 27, 21, 40, 25, 40, 32, 29, 7, 26, 19, 54, 42, 23, 39, 43, 12, 9, 34, 38, 8, 22, 42, 11, 13, 31, 44, 42, 40, 33, 30, 21, 47, 7, 0, 6, 21, 13, 42, 41, 11, 36, 13, 23
            |18, 26, 29, 8, 19, 13, 36, 36, 31, 21, 5, 27, 4, 35, 34, 36, 25, 37, 35, 15, 38, 26, 30, 28, 22, 34, 37, 30, 25, 39, 13, 25, 35, 38, 31, 35, 33, 13, 22, 17, 34, 19, 36, 29, 25, 9, 25, 18, 49, 36, 22, 33, 37, 6, 11, 33, 33, 5, 17, 36, 9, 8, 25, 39, 36, 34, 28, 28, 15, 42, 5, 6, 0, 16, 10, 38, 36, 5, 32, 7, 18
            |8, 16, 21, 8, 18, 21, 31, 22, 24, 27, 19, 28, 19, 30, 27, 21, 9, 32, 21, 1, 23, 21, 21, 15, 14, 29, 36, 19, 20, 39, 3, 14, 19, 27, 29, 26, 20, 8, 15, 13, 19, 4, 31, 29, 20, 23, 29, 25, 35, 21, 28, 21, 22, 9, 23, 34, 17, 16, 3, 22, 17, 11, 14, 27, 23, 18, 17, 31, 7, 30, 17, 21, 16, 0, 14, 27, 21, 11, 27, 9, 9
            |20, 18, 20, 10, 26, 7, 42, 30, 22, 31, 9, 35, 10, 41, 39, 33, 23, 43, 36, 15, 32, 17, 21, 22, 14, 40, 45, 33, 16, 48, 12, 17, 30, 29, 38, 39, 26, 7, 27, 8, 29, 17, 42, 37, 16, 10, 34, 28, 49, 33, 31, 35, 32, 8, 10, 41, 28, 5, 14, 37, 4, 14, 28, 41, 38, 29, 20, 37, 18, 44, 15, 13, 10, 14, 0, 29, 30, 8, 38, 8, 11
            |34, 12, 9, 32, 45, 32, 56, 14, 9, 54, 38, 55, 39, 55, 51, 25, 25, 56, 36, 29, 15, 13, 8, 14, 16, 53, 63, 41, 14, 66, 28, 13, 19, 1, 55, 48, 9, 25, 41, 21, 17, 26, 56, 56, 14, 39, 57, 52, 45, 23, 55, 41, 17, 33, 38, 61, 19, 34, 25, 37, 32, 37, 37, 46, 40, 20, 10, 59, 34, 48, 42, 42, 38, 27, 29, 0, 16, 33, 52, 32, 20
            |25, 14, 17, 28, 36, 36, 43, 2, 21, 46, 38, 44, 39, 42, 38, 9, 14, 42, 21, 22, 2, 22, 16, 9, 18, 40, 51, 28, 22, 54, 23, 14, 4, 15, 44, 33, 8, 24, 30, 24, 2, 18, 43, 45, 22, 41, 48, 46, 29, 7, 47, 26, 1, 30, 41, 51, 4, 34, 19, 22, 34, 32, 25, 31, 25, 4, 13, 49, 26, 33, 38, 41, 36, 21, 30, 16, 0, 31, 40, 29, 19
            |14, 21, 25, 4, 18, 13, 35, 31, 27, 23, 8, 28, 8, 34, 32, 31, 20, 36, 31, 11, 33, 22, 25, 23, 18, 33, 37, 27, 22, 40, 8, 20, 30, 33, 31, 33, 28, 8, 20, 13, 29, 14, 35, 30, 22, 12, 26, 21, 45, 31, 24, 30, 32, 1, 13, 34, 28, 5, 12, 32, 9, 6, 22, 36, 33, 29, 23, 30, 12, 39, 9, 11, 5, 11, 8, 33, 31, 0, 31, 2, 13
            |20, 42, 47, 28, 13, 44, 4, 42, 51, 18, 37, 9, 35, 3, 3, 33, 28, 5, 22, 26, 42, 48, 47, 38, 41, 2, 12, 13, 47, 14, 28, 40, 37, 52, 5, 10, 44, 34, 12, 40, 38, 27, 4, 9, 47, 41, 17, 21, 29, 34, 19, 16, 40, 30, 43, 13, 36, 36, 30, 22, 40, 25, 16, 16, 19, 36, 43, 15, 21, 17, 29, 36, 32, 27, 38, 52, 40, 31, 0, 30, 36
            |13, 20, 23, 2, 18, 14, 34, 29, 26, 24, 11, 28, 10, 33, 31, 29, 18, 35, 29, 8, 30, 21, 24, 21, 16, 32, 37, 25, 21, 40, 6, 18, 28, 31, 30, 32, 26, 7, 19, 12, 27, 12, 34, 30, 21, 14, 27, 21, 43, 29, 25, 28, 30, 1, 15, 34, 25, 7, 9, 30, 10, 6, 20, 34, 31, 27, 22, 30, 10, 37, 10, 13, 7, 9, 8, 32, 29, 2, 30, 0, 11
            |17, 8, 12, 12, 26, 17, 40, 19, 16, 34, 19, 36, 20, 39, 36, 23, 14, 40, 28, 10, 21, 12, 13, 11, 5, 38, 45, 27, 11, 48, 8, 7, 19, 20, 38, 34, 15, 5, 24, 5, 18, 10, 40, 38, 11, 22, 37, 32, 40, 22, 35, 29, 21, 12, 21, 43, 17, 15, 6, 29, 15, 17, 22, 35, 30, 18, 10, 40, 16, 38, 22, 23, 18, 9, 11, 20, 19, 13, 36, 11, 0|];