% n80w160.004	   59.94 731
n = 81;
duration = [|0, 35, 34, 11, 24, 17, 34, 4, 33, 28, 13, 23, 37, 36, 26, 35, 14, 37, 47, 13, 34, 26, 20, 17, 39, 8, 34, 16, 39, 26, 15, 2, 9, 27, 30, 16, 28, 25, 11, 28, 23, 28, 9, 27, 38, 31, 11, 29, 21, 39, 37, 34, 38, 25, 32, 25, 33, 24, 9, 19, 11, 31, 34, 28, 33, 38, 17, 35, 41, 5, 38, 35, 35, 20, 13, 38, 11, 15, 12, 27, 16
            |35, 0, 31, 44, 12, 20, 17, 36, 34, 21, 24, 33, 15, 9, 9, 29, 24, 33, 12, 47, 16, 16, 22, 29, 12, 29, 31, 21, 21, 22, 21, 36, 36, 25, 28, 21, 34, 21, 29, 30, 36, 18, 36, 28, 37, 28, 46, 31, 38, 6, 36, 11, 20, 26, 4, 32, 23, 37, 43, 18, 45, 35, 13, 13, 34, 2, 38, 25, 10, 36, 7, 22, 25, 16, 47, 2, 45, 27, 40, 22, 40
            |34, 31, 0, 45, 30, 23, 14, 31, 3, 11, 23, 13, 18, 38, 26, 54, 35, 57, 37, 47, 15, 16, 17, 17, 42, 26, 54, 33, 13, 43, 32, 33, 27, 8, 50, 22, 9, 42, 23, 6, 15, 14, 27, 7, 60, 51, 39, 52, 18, 28, 5, 39, 14, 9, 29, 9, 48, 14, 35, 32, 45, 55, 41, 37, 4, 31, 48, 7, 27, 38, 26, 48, 51, 28, 46, 31, 45, 39, 46, 44, 49
            |11, 44, 45, 0, 32, 27, 45, 14, 44, 39, 24, 33, 47, 43, 35, 36, 21, 37, 56, 3, 44, 37, 31, 28, 45, 19, 34, 23, 49, 30, 23, 12, 18, 38, 32, 27, 38, 29, 22, 39, 33, 38, 18, 38, 37, 33, 11, 29, 31, 48, 47, 40, 49, 36, 41, 36, 36, 34, 14, 26, 2, 30, 40, 34, 43, 46, 13, 46, 51, 8, 47, 39, 37, 29, 4, 46, 1, 19, 6, 30, 11
            |24, 12, 30, 32, 0, 11, 21, 25, 32, 20, 14, 28, 20, 12, 5, 23, 12, 27, 24, 35, 19, 14, 16, 21, 16, 19, 24, 9, 26, 13, 9, 25, 26, 23, 21, 12, 30, 12, 19, 27, 30, 17, 26, 25, 31, 21, 34, 22, 31, 17, 35, 11, 24, 22, 9, 28, 18, 31, 32, 6, 33, 27, 12, 7, 32, 14, 26, 27, 21, 24, 16, 18, 21, 4, 35, 14, 33, 15, 28, 14, 28
            |17, 20, 23, 27, 11, 0, 18, 16, 24, 13, 4, 17, 20, 23, 11, 32, 12, 35, 32, 30, 17, 10, 6, 10, 27, 9, 32, 10, 23, 21, 9, 17, 16, 15, 28, 1, 21, 20, 9, 18, 19, 12, 16, 16, 38, 29, 26, 29, 20, 23, 27, 22, 22, 14, 17, 18, 27, 21, 23, 10, 28, 33, 23, 17, 23, 22, 26, 21, 25, 19, 21, 28, 30, 7, 30, 22, 27, 16, 25, 22, 27
            |34, 17, 14, 45, 21, 18, 0, 33, 17, 8, 21, 21, 4, 26, 16, 44, 29, 48, 23, 47, 1, 8, 15, 20, 29, 26, 44, 26, 5, 34, 26, 34, 30, 11, 41, 18, 20, 33, 24, 16, 24, 7, 30, 14, 51, 42, 42, 43, 27, 14, 19, 27, 4, 13, 16, 18, 37, 24, 38, 25, 46, 47, 29, 26, 18, 17, 44, 8, 13, 37, 12, 37, 40, 20, 47, 17, 45, 33, 44, 34, 45
            |4, 36, 31, 14, 25, 16, 33, 0, 30, 26, 13, 19, 36, 37, 27, 39, 17, 41, 48, 16, 32, 25, 18, 14, 41, 7, 37, 18, 37, 29, 17, 2, 4, 25, 34, 16, 24, 28, 9, 25, 19, 26, 4, 24, 42, 35, 10, 33, 17, 39, 33, 35, 36, 22, 32, 22, 36, 20, 7, 21, 14, 35, 36, 30, 29, 38, 21, 33, 41, 9, 37, 38, 38, 21, 15, 38, 14, 18, 16, 30, 21
            |33, 34, 3, 44, 32, 24, 17, 30, 0, 13, 24, 11, 21, 41, 28, 55, 36, 59, 40, 46, 18, 18, 17, 16, 45, 26, 55, 34, 16, 45, 33, 32, 26, 9, 52, 23, 6, 43, 23, 5, 13, 16, 26, 7, 62, 52, 37, 53, 16, 31, 4, 41, 17, 10, 31, 8, 50, 12, 33, 33, 44, 56, 43, 39, 1, 34, 48, 10, 30, 38, 29, 50, 52, 30, 45, 34, 44, 39, 45, 45, 48
            |28, 21, 11, 39, 20, 13, 8, 26, 13, 0, 15, 13, 12, 28, 16, 43, 25, 47, 29, 41, 8, 6, 8, 12, 32, 19, 43, 23, 11, 33, 22, 27, 23, 4, 40, 13, 13, 31, 17, 9, 16, 3, 23, 7, 50, 41, 35, 41, 19, 20, 16, 29, 11, 5, 19, 11, 37, 17, 31, 22, 39, 45, 31, 26, 13, 22, 39, 8, 20, 31, 18, 38, 40, 18, 41, 22, 39, 29, 38, 33, 40
            |13, 24, 23, 24, 14, 4, 21, 13, 24, 15, 0, 16, 23, 26, 14, 34, 12, 37, 35, 27, 20, 13, 7, 9, 30, 6, 33, 11, 25, 23, 10, 14, 12, 16, 29, 3, 20, 21, 5, 18, 17, 14, 12, 17, 39, 30, 23, 30, 18, 26, 27, 25, 25, 14, 20, 17, 29, 19, 19, 12, 25, 33, 26, 20, 23, 26, 25, 23, 28, 16, 25, 30, 32, 10, 26, 26, 24, 16, 23, 24, 25
            |23, 33, 13, 33, 28, 17, 21, 19, 11, 13, 16, 0, 25, 38, 25, 49, 28, 52, 42, 35, 21, 17, 11, 7, 43, 16, 49, 26, 23, 38, 26, 21, 15, 9, 45, 16, 5, 37, 13, 7, 3, 16, 15, 7, 55, 46, 26, 45, 6, 33, 14, 38, 23, 8, 30, 3, 44, 4, 22, 27, 33, 49, 40, 34, 10, 34, 38, 17, 33, 28, 31, 45, 47, 24, 34, 34, 33, 31, 35, 39, 38
            |37, 15, 18, 47, 20, 20, 4, 36, 21, 12, 23, 25, 0, 23, 15, 42, 30, 47, 19, 50, 4, 10, 18, 23, 27, 29, 43, 27, 6, 34, 27, 37, 33, 15, 40, 21, 24, 32, 27, 20, 28, 10, 33, 18, 50, 41, 45, 43, 31, 11, 23, 25, 5, 17, 14, 22, 36, 28, 41, 25, 48, 47, 27, 25, 22, 14, 45, 11, 9, 39, 9, 36, 39, 21, 50, 14, 48, 34, 45, 34, 46
            |36, 9, 38, 43, 12, 23, 26, 37, 41, 28, 26, 38, 23, 0, 13, 21, 22, 25, 16, 45, 24, 22, 27, 33, 4, 31, 23, 20, 30, 16, 21, 37, 38, 32, 21, 24, 41, 16, 31, 37, 41, 25, 38, 35, 29, 21, 47, 24, 43, 14, 44, 3, 28, 32, 9, 38, 15, 42, 44, 17, 44, 28, 5, 8, 41, 10, 34, 33, 18, 35, 15, 13, 17, 16, 46, 10, 43, 24, 38, 16, 36
            |26, 9, 26, 35, 5, 11, 16, 27, 28, 16, 14, 25, 15, 13, 0, 28, 16, 32, 21, 38, 14, 10, 14, 20, 17, 20, 29, 13, 21, 18, 13, 27, 26, 19, 25, 12, 28, 17, 19, 24, 28, 13, 26, 22, 35, 26, 36, 28, 30, 13, 32, 13, 19, 19, 6, 25, 22, 29, 33, 10, 36, 32, 15, 11, 29, 11, 31, 22, 16, 27, 12, 22, 25, 7, 38, 11, 36, 19, 32, 19, 32
            |35, 29, 54, 36, 23, 32, 44, 39, 55, 43, 34, 49, 42, 21, 28, 0, 22, 4, 37, 39, 42, 38, 38, 42, 20, 35, 3, 23, 48, 11, 24, 37, 42, 46, 5, 33, 53, 12, 38, 50, 51, 40, 42, 48, 8, 4, 45, 8, 51, 35, 59, 18, 47, 45, 28, 50, 6, 52, 44, 22, 38, 9, 16, 17, 55, 31, 24, 50, 39, 32, 36, 8, 4, 25, 41, 31, 37, 20, 31, 10, 26
            |14, 24, 35, 21, 12, 12, 29, 17, 36, 25, 12, 28, 30, 22, 16, 22, 0, 25, 36, 23, 28, 21, 18, 21, 25, 13, 21, 3, 34, 12, 3, 16, 19, 27, 18, 13, 32, 11, 15, 30, 29, 24, 19, 28, 27, 19, 25, 18, 29, 29, 39, 20, 33, 26, 21, 29, 19, 31, 23, 6, 22, 21, 20, 14, 35, 26, 15, 33, 32, 13, 28, 21, 21, 9, 24, 26, 21, 4, 17, 13, 16
            |37, 33, 57, 37, 27, 35, 48, 41, 59, 47, 37, 52, 47, 25, 32, 4, 25, 0, 41, 39, 46, 41, 42, 45, 24, 38, 4, 26, 52, 14, 27, 39, 44, 50, 7, 36, 56, 16, 40, 54, 54, 44, 44, 52, 4, 6, 46, 8, 54, 39, 62, 23, 51, 49, 32, 53, 10, 55, 46, 25, 39, 8, 20, 21, 59, 35, 24, 54, 43, 33, 40, 12, 8, 29, 41, 35, 38, 22, 31, 13, 26
            |47, 12, 37, 56, 24, 32, 23, 48, 40, 29, 35, 42, 19, 16, 21, 37, 36, 41, 0, 59, 22, 25, 33, 39, 17, 41, 39, 33, 25, 32, 33, 48, 47, 33, 37, 32, 42, 32, 40, 38, 45, 27, 47, 36, 45, 37, 58, 41, 48, 9, 42, 19, 23, 35, 16, 41, 31, 46, 54, 30, 57, 44, 21, 24, 41, 10, 50, 30, 10, 48, 11, 29, 33, 28, 59, 10, 57, 39, 52, 32, 51
            |13, 47, 47, 3, 35, 30, 47, 16, 46, 41, 27, 35, 50, 45, 38, 39, 23, 39, 59, 0, 47, 40, 33, 30, 48, 22, 36, 26, 52, 32, 25, 14, 20, 40, 34, 29, 40, 32, 24, 41, 35, 41, 20, 40, 39, 35, 11, 31, 32, 51, 49, 43, 51, 38, 43, 38, 39, 36, 14, 29, 2, 32, 42, 37, 45, 49, 15, 49, 54, 11, 50, 41, 40, 31, 2, 49, 2, 22, 8, 33, 13
            |34, 16, 15, 44, 19, 17, 1, 32, 18, 8, 20, 21, 4, 24, 14, 42, 28, 46, 22, 47, 0, 7, 14, 20, 28, 25, 43, 25, 6, 33, 25, 34, 30, 12, 40, 18, 20, 31, 23, 16, 24, 6, 30, 15, 50, 40, 42, 42, 27, 13, 21, 25, 5, 13, 15, 19, 36, 25, 38, 23, 45, 46, 28, 25, 19, 16, 43, 9, 12, 36, 11, 36, 39, 19, 47, 16, 45, 32, 43, 33, 44
            |26, 16, 16, 37, 14, 10, 8, 25, 18, 6, 13, 17, 10, 22, 10, 38, 21, 41, 25, 40, 7, 0, 8, 14, 27, 18, 38, 18, 13, 27, 18, 26, 23, 9, 35, 10, 18, 26, 16, 15, 20, 3, 23, 12, 45, 35, 35, 36, 23, 16, 22, 23, 12, 10, 13, 16, 32, 21, 31, 17, 38, 40, 25, 21, 19, 17, 36, 13, 17, 29, 14, 32, 35, 13, 39, 17, 37, 25, 36, 28, 37
            |20, 22, 17, 31, 16, 6, 15, 18, 17, 8, 7, 11, 18, 27, 14, 38, 18, 42, 33, 33, 14, 8, 0, 6, 31, 11, 38, 16, 19, 28, 16, 19, 16, 9, 35, 6, 14, 26, 9, 12, 14, 8, 16, 10, 45, 35, 27, 35, 16, 23, 21, 27, 18, 7, 19, 12, 33, 15, 24, 16, 31, 39, 28, 23, 17, 24, 32, 16, 24, 23, 21, 34, 36, 13, 33, 24, 31, 22, 30, 28, 32
            |17, 29, 17, 28, 21, 10, 20, 14, 16, 12, 9, 7, 23, 33, 20, 42, 21, 45, 39, 30, 20, 14, 6, 0, 37, 9, 42, 19, 23, 31, 19, 16, 11, 10, 38, 9, 12, 30, 6, 11, 9, 13, 11, 10, 48, 39, 23, 38, 10, 30, 20, 32, 23, 8, 25, 9, 38, 10, 19, 20, 28, 42, 34, 28, 16, 30, 32, 19, 31, 21, 28, 39, 40, 18, 29, 30, 28, 24, 29, 32, 32
            |39, 12, 42, 45, 16, 27, 29, 41, 45, 32, 30, 43, 27, 4, 17, 20, 25, 24, 17, 48, 28, 27, 31, 37, 0, 35, 22, 23, 33, 17, 24, 40, 42, 36, 21, 28, 45, 17, 35, 41, 45, 29, 42, 39, 28, 21, 50, 24, 47, 17, 48, 5, 32, 36, 13, 42, 14, 47, 47, 20, 47, 28, 6, 11, 45, 13, 36, 37, 21, 38, 18, 12, 16, 20, 49, 13, 46, 26, 40, 17, 38
            |8, 29, 26, 19, 19, 9, 26, 7, 26, 19, 6, 16, 29, 31, 20, 35, 13, 38, 41, 22, 25, 18, 11, 9, 35, 0, 34, 13, 30, 25, 12, 8, 7, 19, 31, 8, 21, 24, 3, 21, 17, 19, 7, 19, 40, 32, 17, 31, 16, 32, 29, 29, 30, 17, 26, 18, 32, 18, 14, 15, 20, 34, 30, 24, 25, 31, 22, 27, 34, 12, 30, 33, 34, 15, 21, 31, 19, 16, 19, 26, 22
            |34, 31, 54, 34, 24, 32, 44, 37, 55, 43, 33, 49, 43, 23, 29, 3, 21, 4, 39, 36, 43, 38, 38, 42, 22, 34, 0, 22, 49, 11, 23, 36, 40, 46, 4, 33, 52, 12, 37, 50, 50, 41, 40, 48, 7, 3, 43, 5, 51, 37, 59, 20, 48, 45, 29, 50, 8, 52, 43, 22, 36, 6, 18, 18, 55, 32, 22, 50, 41, 30, 37, 10, 6, 25, 38, 32, 35, 19, 28, 10, 24
            |16, 21, 33, 23, 9, 10, 26, 18, 34, 23, 11, 26, 27, 20, 13, 23, 3, 26, 33, 26, 25, 18, 16, 19, 23, 13, 22, 0, 31, 12, 1, 18, 20, 25, 19, 11, 30, 11, 15, 28, 28, 21, 20, 26, 28, 19, 27, 19, 29, 25, 37, 17, 30, 24, 17, 28, 19, 30, 25, 3, 25, 23, 18, 12, 33, 23, 18, 31, 29, 16, 25, 20, 21, 6, 27, 23, 24, 7, 20, 13, 20
            |39, 21, 13, 49, 26, 23, 5, 37, 16, 11, 25, 23, 6, 30, 21, 48, 34, 52, 25, 52, 6, 13, 19, 23, 33, 30, 49, 31, 0, 39, 31, 38, 34, 13, 46, 23, 21, 38, 28, 17, 26, 11, 34, 16, 56, 47, 46, 48, 29, 17, 18, 31, 1, 16, 21, 20, 42, 26, 42, 30, 50, 52, 33, 31, 18, 21, 49, 6, 15, 42, 15, 42, 45, 25, 52, 21, 50, 38, 48, 39, 50
            |26, 22, 43, 30, 13, 21, 34, 29, 45, 33, 23, 38, 34, 16, 18, 11, 12, 14, 32, 32, 33, 27, 28, 31, 17, 25, 11, 12, 39, 0, 13, 28, 32, 35, 7, 22, 42, 1, 27, 40, 40, 30, 32, 37, 17, 8, 36, 9, 41, 28, 48, 13, 38, 35, 20, 39, 7, 42, 35, 11, 31, 13, 12, 9, 45, 24, 19, 40, 32, 24, 28, 9, 9, 15, 34, 24, 30, 11, 24, 1, 21
            |15, 21, 32, 23, 9, 9, 26, 17, 33, 22, 10, 26, 27, 21, 13, 24, 3, 27, 33, 25, 25, 18, 16, 19, 24, 12, 23, 1, 31, 13, 0, 17, 19, 24, 19, 10, 30, 12, 14, 28, 27, 21, 19, 26, 29, 20, 26, 20, 28, 26, 37, 18, 30, 23, 18, 27, 20, 29, 24, 4, 24, 23, 19, 13, 33, 24, 18, 30, 29, 15, 25, 21, 22, 6, 26, 24, 23, 7, 19, 14, 19
            |2, 36, 33, 12, 25, 17, 34, 2, 32, 27, 14, 21, 37, 37, 27, 37, 16, 39, 48, 14, 34, 26, 19, 16, 40, 8, 36, 18, 38, 28, 17, 0, 7, 26, 33, 16, 26, 27, 10, 27, 21, 27, 7, 26, 40, 34, 9, 31, 19, 40, 35, 35, 38, 24, 33, 24, 35, 22, 7, 20, 12, 34, 35, 29, 31, 38, 19, 35, 42, 7, 38, 37, 37, 21, 13, 38, 12, 17, 14, 29, 18
            |9, 36, 27, 18, 26, 16, 30, 4, 26, 23, 12, 15, 33, 38, 26, 42, 19, 44, 47, 20, 30, 23, 16, 11, 42, 7, 40, 20, 34, 32, 19, 7, 0, 21, 37, 15, 20, 30, 7, 21, 15, 24, 0, 20, 46, 38, 12, 36, 13, 38, 29, 36, 34, 19, 32, 18, 38, 16, 8, 22, 18, 39, 37, 31, 25, 38, 25, 30, 40, 14, 36, 40, 41, 22, 19, 38, 18, 22, 21, 33, 25
            |27, 25, 8, 38, 23, 15, 11, 25, 9, 4, 16, 9, 15, 32, 19, 46, 27, 50, 33, 40, 12, 9, 9, 10, 36, 19, 46, 25, 13, 35, 24, 26, 21, 0, 43, 14, 9, 34, 16, 5, 13, 7, 21, 3, 52, 43, 33, 44, 16, 24, 13, 32, 13, 2, 23, 7, 40, 13, 29, 24, 38, 47, 34, 29, 9, 26, 40, 9, 24, 31, 22, 41, 43, 21, 40, 26, 38, 31, 38, 36, 41
            |30, 28, 50, 32, 21, 28, 41, 34, 52, 40, 29, 45, 40, 21, 25, 5, 18, 7, 37, 34, 40, 35, 35, 38, 21, 31, 4, 19, 46, 7, 19, 33, 37, 43, 0, 29, 49, 9, 33, 47, 47, 37, 37, 45, 10, 1, 40, 4, 47, 34, 55, 18, 45, 42, 27, 46, 7, 48, 39, 18, 34, 7, 16, 16, 52, 30, 19, 47, 38, 27, 35, 9, 6, 22, 36, 30, 33, 16, 26, 7, 22
            |16, 21, 22, 27, 12, 1, 18, 16, 23, 13, 3, 16, 21, 24, 12, 33, 13, 36, 32, 29, 18, 10, 6, 9, 28, 8, 33, 11, 23, 22, 10, 16, 15, 14, 29, 0, 20, 21, 8, 18, 18, 12, 15, 16, 39, 30, 25, 30, 19, 23, 27, 23, 22, 13, 17, 17, 28, 20, 22, 11, 27, 33, 24, 18, 23, 23, 26, 21, 25, 19, 22, 29, 31, 8, 29, 23, 27, 17, 25, 23, 27
            |28, 34, 9, 38, 30, 21, 20, 24, 6, 13, 20, 5, 24, 41, 28, 53, 32, 56, 42, 40, 20, 18, 14, 12, 45, 21, 52, 30, 21, 42, 30, 26, 20, 9, 49, 20, 0, 41, 18, 4, 6, 16, 20, 6, 59, 50, 31, 49, 10, 33, 9, 40, 21, 8, 32, 3, 48, 6, 27, 31, 38, 53, 42, 37, 5, 35, 43, 14, 33, 33, 31, 48, 50, 27, 39, 35, 38, 36, 40, 43, 43
            |25, 21, 42, 29, 12, 20, 33, 28, 43, 31, 21, 37, 32, 16, 17, 12, 11, 16, 32, 32, 31, 26, 26, 30, 17, 24, 12, 11, 38, 1, 12, 27, 30, 34, 9, 21, 41, 0, 26, 38, 39, 29, 30, 36, 19, 9, 36, 10, 39, 27, 47, 13, 36, 33, 19, 38, 8, 40, 34, 10, 31, 15, 11, 8, 43, 23, 19, 39, 31, 23, 27, 10, 10, 13, 33, 23, 30, 10, 24, 2, 21
            |11, 29, 23, 22, 19, 9, 24, 9, 23, 17, 5, 13, 27, 31, 19, 38, 15, 40, 40, 24, 23, 16, 9, 6, 35, 3, 37, 15, 28, 27, 14, 10, 7, 16, 33, 8, 18, 26, 0, 17, 14, 17, 7, 16, 42, 34, 19, 33, 14, 31, 26, 30, 27, 14, 25, 15, 34, 16, 15, 16, 22, 36, 31, 25, 22, 30, 25, 24, 33, 15, 29, 35, 36, 15, 24, 30, 22, 18, 22, 28, 26
            |28, 30, 6, 39, 27, 18, 16, 25, 5, 9, 18, 7, 20, 37, 24, 50, 30, 54, 38, 41, 16, 15, 12, 11, 41, 21, 50, 28, 17, 40, 28, 27, 21, 5, 47, 18, 4, 38, 17, 0, 9, 12, 21, 2, 57, 47, 33, 48, 13, 29, 9, 37, 17, 5, 28, 4, 45, 9, 29, 28, 39, 51, 39, 34, 5, 31, 43, 11, 28, 33, 27, 45, 48, 25, 40, 31, 39, 34, 40, 40, 43
            |23, 36, 15, 33, 30, 19, 24, 19, 13, 16, 17, 3, 28, 41, 28, 51, 29, 54, 45, 35, 24, 20, 14, 9, 45, 17, 50, 28, 26, 40, 27, 21, 15, 13, 47, 18, 6, 39, 14, 9, 0, 19, 15, 10, 56, 48, 25, 47, 4, 36, 15, 41, 26, 11, 33, 6, 47, 1, 21, 29, 33, 50, 42, 37, 11, 37, 39, 20, 36, 28, 34, 48, 49, 27, 33, 37, 33, 33, 35, 41, 39
            |28, 18, 14, 38, 17, 12, 7, 26, 16, 3, 14, 16, 10, 25, 13, 40, 24, 44, 27, 41, 6, 3, 8, 13, 29, 19, 41, 21, 11, 30, 21, 27, 24, 7, 37, 12, 16, 29, 17, 12, 19, 0, 24, 10, 47, 38, 36, 39, 22, 17, 19, 26, 10, 8, 16, 14, 35, 19, 32, 20, 39, 43, 27, 23, 16, 19, 38, 10, 17, 31, 15, 35, 37, 16, 40, 19, 39, 28, 37, 31, 39
            |9, 36, 27, 18, 26, 16, 30, 4, 26, 23, 12, 15, 33, 38, 26, 42, 19, 44, 47, 20, 30, 23, 16, 11, 42, 7, 40, 20, 34, 32, 19, 7, 0, 21, 37, 15, 20, 30, 7, 21, 15, 24, 0, 20, 46, 38, 12, 36, 13, 38, 29, 36, 34, 19, 32, 18, 38, 16, 8, 22, 18, 39, 37, 31, 25, 38, 25, 30, 40, 14, 36, 40, 41, 22, 19, 38, 18, 22, 21, 33, 25
            |27, 28, 7, 38, 25, 16, 14, 24, 7, 7, 17, 7, 18, 35, 22, 48, 28, 52, 36, 40, 15, 12, 10, 10, 39, 19, 48, 26, 16, 37, 26, 26, 20, 3, 45, 16, 6, 36, 16, 2, 10, 10, 20, 0, 54, 45, 32, 45, 13, 27, 11, 35, 16, 3, 26, 4, 43, 10, 28, 26, 38, 49, 37, 32, 7, 29, 41, 10, 27, 31, 25, 43, 46, 23, 39, 29, 38, 32, 38, 38, 41
            |38, 37, 60, 37, 31, 38, 51, 42, 62, 50, 39, 55, 50, 29, 35, 8, 27, 4, 45, 39, 50, 45, 45, 48, 28, 40, 7, 28, 56, 17, 29, 40, 46, 52, 10, 39, 59, 19, 42, 57, 56, 47, 46, 54, 0, 9, 47, 9, 56, 43, 65, 26, 55, 52, 36, 56, 14, 58, 47, 28, 39, 7, 24, 25, 62, 39, 24, 57, 47, 34, 44, 16, 12, 32, 41, 39, 38, 24, 31, 17, 26
            |31, 28, 51, 33, 21, 29, 42, 35, 52, 41, 30, 46, 41, 21, 26, 4, 19, 6, 37, 35, 40, 35, 35, 39, 21, 32, 3, 19, 47, 8, 20, 34, 38, 43, 1, 30, 50, 9, 34, 47, 48, 38, 38, 45, 9, 0, 41, 4, 48, 34, 56, 18, 45, 42, 27, 47, 6, 49, 40, 19, 35, 7, 16, 16, 52, 30, 20, 48, 38, 28, 35, 9, 6, 23, 37, 30, 34, 16, 27, 7, 22
            |11, 46, 39, 11, 34, 26, 42, 10, 37, 35, 23, 26, 45, 47, 36, 45, 25, 46, 58, 11, 42, 35, 27, 23, 50, 17, 43, 27, 46, 36, 26, 9, 12, 33, 40, 25, 31, 36, 19, 33, 25, 36, 12, 32, 47, 41, 0, 38, 22, 49, 40, 44, 46, 31, 42, 29, 43, 26, 4, 30, 10, 40, 45, 39, 36, 48, 23, 42, 51, 13, 47, 46, 45, 31, 9, 48, 11, 25, 17, 37, 22
            |29, 31, 52, 29, 22, 29, 43, 33, 53, 41, 30, 45, 43, 24, 28, 8, 18, 8, 41, 31, 42, 36, 35, 38, 24, 31, 5, 19, 48, 9, 20, 31, 36, 44, 4, 30, 49, 10, 33, 48, 47, 39, 36, 45, 9, 4, 38, 0, 47, 37, 56, 21, 47, 43, 29, 47, 10, 48, 38, 19, 31, 4, 19, 18, 52, 33, 16, 49, 41, 25, 37, 13, 10, 23, 33, 33, 30, 15, 23, 9, 19
            |21, 38, 18, 31, 31, 20, 27, 17, 16, 19, 18, 6, 31, 43, 30, 51, 29, 54, 48, 32, 27, 23, 16, 10, 47, 16, 51, 29, 29, 41, 28, 19, 13, 16, 47, 19, 10, 39, 14, 13, 4, 22, 13, 13, 56, 48, 22, 47, 0, 39, 18, 42, 29, 14, 35, 9, 47, 4, 18, 30, 30, 50, 44, 38, 15, 40, 38, 23, 39, 26, 37, 48, 50, 28, 31, 40, 30, 32, 33, 42, 37
            |39, 6, 28, 48, 17, 23, 14, 39, 31, 20, 26, 33, 11, 14, 13, 35, 29, 39, 9, 51, 13, 16, 23, 30, 17, 32, 37, 25, 17, 28, 26, 40, 38, 24, 34, 23, 33, 27, 31, 29, 36, 17, 38, 27, 43, 34, 49, 37, 39, 0, 34, 17, 16, 25, 8, 31, 29, 37, 45, 23, 49, 41, 19, 19, 32, 4, 43, 22, 4, 40, 2, 28, 31, 20, 51, 4, 49, 32, 45, 28, 45
            |37, 36, 5, 47, 35, 27, 19, 33, 4, 16, 27, 14, 23, 44, 32, 59, 39, 62, 42, 49, 21, 22, 21, 20, 48, 29, 59, 37, 18, 48, 37, 35, 29, 13, 55, 27, 9, 47, 26, 9, 15, 19, 29, 11, 65, 56, 40, 56, 18, 34, 0, 44, 19, 14, 34, 11, 53, 14, 36, 37, 47, 60, 46, 42, 4, 37, 52, 12, 32, 41, 32, 53, 56, 33, 48, 37, 47, 43, 49, 49, 52
            |34, 11, 39, 40, 11, 22, 27, 35, 41, 29, 25, 38, 25, 3, 13, 18, 20, 23, 19, 43, 25, 23, 27, 32, 5, 29, 20, 17, 31, 13, 18, 35, 36, 32, 18, 23, 40, 13, 30, 37, 41, 26, 36, 35, 26, 18, 44, 21, 42, 17, 44, 0, 30, 32, 11, 38, 12, 42, 42, 15, 42, 25, 2, 6, 42, 12, 31, 34, 21, 33, 17, 11, 15, 15, 44, 12, 41, 21, 35, 13, 33
            |38, 20, 14, 49, 24, 22, 4, 36, 17, 11, 25, 23, 5, 28, 19, 47, 33, 51, 23, 51, 5, 12, 18, 23, 32, 30, 48, 30, 1, 38, 30, 38, 34, 13, 45, 22, 21, 36, 27, 17, 26, 10, 34, 16, 55, 45, 46, 47, 29, 16, 19, 30, 0, 16, 19, 20, 41, 26, 42, 28, 49, 51, 32, 30, 18, 19, 48, 7, 13, 41, 14, 40, 44, 24, 51, 19, 49, 37, 48, 38, 49
            |25, 26, 9, 36, 22, 14, 13, 22, 10, 5, 14, 8, 17, 32, 19, 45, 26, 49, 35, 38, 13, 10, 7, 8, 36, 17, 45, 24, 16, 35, 23, 24, 19, 2, 42, 13, 8, 33, 14, 5, 11, 8, 19, 3, 52, 42, 31, 43, 14, 25, 14, 32, 16, 0, 23, 6, 40, 11, 27, 23, 36, 46, 34, 29, 10, 27, 39, 11, 25, 29, 23, 40, 43, 20, 37, 27, 36, 30, 36, 35, 39
            |32, 4, 29, 41, 9, 17, 16, 32, 31, 19, 20, 30, 14, 9, 6, 28, 21, 32, 16, 43, 15, 13, 19, 25, 13, 26, 29, 17, 21, 20, 18, 33, 32, 23, 27, 17, 32, 19, 25, 28, 33, 16, 32, 26, 36, 27, 42, 29, 35, 8, 34, 11, 19, 23, 0, 29, 22, 34, 39, 15, 42, 33, 13, 11, 32, 6, 35, 24, 12, 33, 8, 21, 25, 12, 44, 6, 41, 24, 37, 20, 37
            |25, 32, 9, 36, 28, 18, 18, 22, 8, 11, 17, 3, 22, 38, 25, 50, 29, 53, 41, 38, 19, 16, 12, 9, 42, 18, 50, 28, 20, 39, 27, 24, 18, 7, 46, 17, 3, 38, 15, 4, 6, 14, 18, 4, 56, 47, 29, 47, 9, 31, 11, 38, 20, 6, 29, 0, 45, 6, 25, 28, 36, 50, 40, 34, 7, 33, 41, 14, 31, 30, 29, 46, 48, 25, 37, 33, 36, 33, 37, 40, 41
            |33, 23, 48, 36, 18, 27, 37, 36, 50, 37, 29, 44, 36, 15, 22, 6, 19, 10, 31, 39, 36, 32, 33, 38, 14, 32, 8, 19, 42, 7, 20, 35, 38, 40, 7, 28, 48, 8, 34, 45, 47, 35, 38, 43, 14, 6, 43, 10, 47, 29, 53, 12, 41, 40, 22, 45, 0, 48, 42, 17, 38, 14, 10, 11, 50, 25, 25, 44, 33, 30, 29, 3, 3, 20, 40, 25, 37, 18, 30, 6, 27
            |24, 37, 14, 34, 31, 21, 24, 20, 12, 17, 19, 4, 28, 42, 29, 52, 31, 55, 46, 36, 25, 21, 15, 10, 47, 18, 52, 30, 26, 42, 29, 22, 16, 13, 48, 20, 6, 40, 16, 9, 1, 19, 16, 10, 58, 49, 26, 48, 4, 37, 14, 42, 26, 11, 34, 6, 48, 0, 22, 30, 34, 52, 43, 38, 11, 38, 40, 20, 37, 29, 35, 49, 51, 28, 34, 38, 34, 34, 36, 43, 40
            |9, 43, 35, 14, 32, 23, 38, 7, 33, 31, 19, 22, 41, 44, 33, 44, 23, 46, 54, 14, 38, 31, 24, 19, 47, 14, 43, 25, 42, 35, 24, 7, 8, 29, 39, 22, 27, 34, 15, 29, 21, 32, 8, 28, 47, 40, 4, 38, 18, 45, 36, 42, 42, 27, 39, 25, 42, 22, 0, 27, 13, 40, 42, 36, 32, 45, 24, 38, 47, 13, 44, 44, 44, 28, 13, 45, 13, 24, 18, 36, 23
            |19, 18, 32, 26, 6, 10, 25, 21, 33, 22, 12, 27, 25, 17, 10, 22, 6, 25, 30, 29, 23, 17, 16, 20, 20, 15, 22, 3, 30, 11, 4, 20, 22, 24, 18, 11, 31, 10, 16, 28, 29, 20, 22, 26, 28, 19, 30, 19, 30, 23, 37, 15, 28, 23, 15, 28, 17, 30, 27, 0, 28, 23, 15, 9, 33, 20, 21, 30, 26, 18, 22, 19, 20, 4, 30, 20, 27, 9, 22, 12, 22
            |11, 45, 45, 2, 33, 28, 46, 14, 44, 39, 25, 33, 48, 44, 36, 38, 22, 39, 57, 2, 45, 38, 31, 28, 47, 20, 36, 25, 50, 31, 24, 12, 18, 38, 34, 27, 38, 31, 22, 39, 33, 39, 18, 38, 39, 35, 10, 31, 30, 49, 47, 42, 49, 36, 42, 36, 38, 34, 13, 28, 0, 32, 41, 36, 43, 48, 15, 47, 52, 9, 48, 40, 39, 30, 2, 48, 1, 21, 8, 32, 13
            |31, 35, 55, 30, 27, 33, 47, 35, 56, 45, 33, 49, 47, 28, 32, 9, 21, 8, 44, 32, 46, 40, 39, 42, 28, 34, 6, 23, 52, 13, 23, 34, 39, 47, 7, 33, 53, 15, 36, 51, 50, 43, 39, 49, 7, 7, 40, 4, 50, 41, 60, 25, 51, 46, 33, 50, 14, 52, 40, 23, 32, 0, 23, 22, 56, 37, 17, 53, 45, 27, 41, 16, 13, 27, 34, 37, 31, 18, 24, 13, 19
            |34, 13, 41, 40, 12, 23, 29, 36, 43, 31, 26, 40, 27, 5, 15, 16, 20, 20, 21, 42, 28, 25, 28, 34, 6, 30, 18, 18, 33, 12, 19, 35, 37, 34, 16, 24, 42, 11, 31, 39, 42, 27, 37, 37, 24, 16, 45, 19, 44, 19, 46, 2, 32, 34, 13, 40, 10, 43, 42, 15, 41, 23, 0, 6, 43, 15, 30, 36, 23, 33, 20, 9, 12, 16, 44, 15, 40, 21, 35, 11, 33
            |28, 13, 37, 34, 7, 17, 26, 30, 39, 26, 20, 34, 25, 8, 11, 17, 14, 21, 24, 37, 25, 21, 23, 28, 11, 24, 18, 12, 31, 9, 13, 29, 31, 29, 16, 18, 37, 8, 25, 34, 37, 23, 31, 32, 25, 16, 39, 18, 38, 19, 42, 6, 30, 29, 11, 34, 11, 38, 36, 9, 36, 22, 6, 0, 39, 15, 26, 33, 23, 27, 19, 11, 14, 10, 38, 15, 35, 16, 30, 9, 28
            |33, 34, 4, 43, 32, 23, 18, 29, 1, 13, 23, 10, 22, 41, 29, 55, 35, 59, 41, 45, 19, 19, 17, 16, 45, 25, 55, 33, 18, 45, 33, 31, 25, 9, 52, 23, 5, 43, 22, 5, 11, 16, 25, 7, 62, 52, 36, 52, 15, 32, 4, 42, 18, 10, 32, 7, 50, 11, 32, 33, 43, 56, 43, 39, 0, 35, 48, 11, 31, 37, 30, 50, 53, 30, 44, 35, 43, 39, 44, 45, 48
            |38, 2, 31, 46, 14, 22, 17, 38, 34, 22, 26, 34, 14, 10, 11, 31, 26, 35, 10, 49, 16, 17, 24, 30, 13, 31, 32, 23, 21, 24, 24, 38, 38, 26, 30, 23, 35, 23, 30, 31, 37, 19, 38, 29, 39, 30, 48, 33, 40, 4, 37, 12, 19, 27, 6, 33, 25, 38, 45, 20, 48, 37, 15, 15, 35, 0, 40, 25, 9, 38, 6, 23, 27, 18, 50, 0, 47, 29, 43, 24, 42
            |17, 38, 48, 13, 26, 26, 44, 21, 48, 39, 25, 38, 45, 34, 31, 24, 15, 24, 50, 15, 43, 36, 32, 32, 36, 22, 22, 18, 49, 19, 18, 19, 25, 40, 19, 26, 43, 19, 25, 43, 39, 38, 25, 41, 24, 20, 23, 16, 38, 43, 52, 31, 48, 39, 35, 41, 25, 40, 24, 21, 15, 17, 30, 26, 48, 40, 0, 48, 47, 12, 43, 27, 25, 24, 17, 40, 14, 11, 7, 20, 2
            |35, 25, 7, 46, 27, 21, 8, 33, 10, 8, 23, 17, 11, 33, 22, 50, 33, 54, 30, 49, 9, 13, 16, 19, 37, 27, 50, 31, 6, 40, 30, 35, 30, 9, 47, 21, 14, 39, 24, 11, 20, 10, 30, 10, 57, 48, 42, 49, 23, 22, 12, 34, 7, 11, 24, 14, 44, 20, 38, 30, 47, 53, 36, 33, 11, 25, 48, 0, 20, 39, 20, 44, 47, 25, 48, 25, 47, 37, 46, 40, 48
            |41, 10, 27, 51, 21, 25, 13, 41, 30, 20, 28, 33, 9, 18, 16, 39, 32, 43, 10, 54, 12, 17, 24, 31, 21, 34, 41, 29, 15, 32, 29, 42, 40, 24, 38, 25, 33, 31, 33, 28, 36, 17, 40, 27, 47, 38, 51, 41, 39, 4, 32, 21, 13, 25, 12, 31, 33, 37, 47, 26, 52, 45, 23, 23, 31, 9, 47, 20, 0, 43, 4, 32, 35, 23, 54, 9, 52, 35, 48, 32, 48
            |5, 36, 38, 8, 24, 19, 37, 9, 38, 31, 16, 28, 39, 35, 27, 32, 13, 33, 48, 11, 36, 29, 23, 21, 38, 12, 30, 16, 42, 24, 15, 7, 14, 31, 27, 19, 33, 23, 15, 33, 28, 31, 14, 31, 34, 28, 13, 25, 26, 40, 41, 33, 41, 29, 33, 30, 30, 29, 13, 18, 9, 27, 33, 27, 37, 38, 12, 39, 43, 0, 39, 33, 32, 21, 11, 38, 9, 12, 7, 25, 11
            |38, 7, 26, 47, 16, 21, 12, 37, 29, 18, 25, 31, 9, 15, 12, 36, 28, 40, 11, 50, 11, 14, 21, 28, 18, 30, 37, 25, 15, 28, 25, 38, 36, 22, 35, 22, 31, 27, 29, 27, 34, 15, 36, 25, 44, 35, 47, 37, 37, 2, 32, 17, 14, 23, 8, 29, 29, 35, 44, 22, 48, 41, 20, 19, 30, 6, 43, 20, 4, 39, 0, 28, 32, 19, 50, 6, 48, 31, 44, 28, 44
            |35, 22, 48, 39, 18, 28, 37, 38, 50, 38, 30, 45, 36, 13, 22, 8, 21, 12, 29, 41, 36, 32, 34, 39, 12, 33, 10, 20, 42, 9, 21, 37, 40, 41, 9, 29, 48, 10, 35, 45, 48, 35, 40, 43, 16, 9, 46, 13, 48, 28, 53, 11, 40, 40, 21, 46, 3, 49, 44, 19, 40, 16, 9, 11, 50, 23, 27, 44, 32, 33, 28, 0, 4, 21, 43, 23, 40, 20, 33, 8, 30
            |35, 25, 51, 37, 21, 30, 40, 38, 52, 40, 32, 47, 39, 17, 25, 4, 21, 8, 33, 40, 39, 35, 36, 40, 16, 34, 6, 21, 45, 9, 22, 37, 41, 43, 6, 31, 50, 10, 36, 48, 49, 37, 41, 46, 12, 6, 45, 10, 50, 31, 56, 15, 44, 43, 25, 48, 3, 51, 44, 20, 39, 13, 12, 14, 53, 27, 25, 47, 35, 32, 32, 4, 0, 23, 41, 27, 38, 20, 32, 8, 28
            |20, 16, 28, 29, 4, 7, 20, 21, 30, 18, 10, 24, 21, 16, 7, 25, 9, 29, 28, 31, 19, 13, 13, 18, 20, 15, 25, 6, 25, 15, 6, 21, 22, 21, 22, 8, 27, 13, 15, 25, 27, 16, 22, 23, 32, 23, 31, 23, 28, 20, 33, 15, 24, 20, 12, 25, 20, 28, 28, 4, 30, 27, 16, 10, 30, 18, 24, 25, 23, 21, 19, 21, 23, 0, 32, 18, 29, 13, 25, 16, 26
            |13, 47, 46, 4, 35, 30, 47, 15, 45, 41, 26, 34, 50, 46, 38, 41, 24, 41, 59, 2, 47, 39, 33, 29, 49, 21, 38, 27, 52, 34, 26, 13, 19, 40, 36, 29, 39, 33, 24, 40, 33, 40, 19, 39, 41, 37, 9, 33, 31, 51, 48, 44, 51, 37, 44, 37, 40, 34, 13, 30, 2, 34, 44, 38, 44, 50, 17, 48, 54, 11, 50, 43, 41, 32, 0, 50, 3, 23, 10, 35, 15
            |38, 2, 31, 46, 14, 22, 17, 38, 34, 22, 26, 34, 14, 10, 11, 31, 26, 35, 10, 49, 16, 17, 24, 30, 13, 31, 32, 23, 21, 24, 24, 38, 38, 26, 30, 23, 35, 23, 30, 31, 37, 19, 38, 29, 39, 30, 48, 33, 40, 4, 37, 12, 19, 27, 6, 33, 25, 38, 45, 20, 48, 37, 15, 15, 35, 0, 40, 25, 9, 38, 6, 23, 27, 18, 50, 0, 47, 29, 43, 24, 42
            |11, 45, 45, 1, 33, 27, 45, 14, 44, 39, 24, 33, 48, 43, 36, 37, 21, 38, 57, 2, 45, 37, 31, 28, 46, 19, 35, 24, 50, 30, 23, 12, 18, 38, 33, 27, 38, 30, 22, 39, 33, 39, 18, 38, 38, 34, 11, 30, 30, 49, 47, 41, 49, 36, 41, 36, 37, 34, 13, 27, 1, 31, 40, 35, 43, 47, 14, 47, 52, 9, 48, 40, 38, 29, 3, 47, 0, 20, 7, 31, 12
            |15, 27, 39, 19, 15, 16, 33, 18, 39, 29, 16, 31, 34, 24, 19, 20, 4, 22, 39, 22, 32, 25, 22, 24, 26, 16, 19, 7, 38, 11, 7, 17, 22, 31, 16, 17, 36, 10, 18, 34, 33, 28, 22, 32, 24, 16, 25, 15, 32, 32, 43, 21, 37, 30, 24, 33, 18, 34, 24, 9, 21, 18, 21, 16, 39, 29, 11, 37, 35, 12, 31, 20, 20, 13, 23, 29, 20, 0, 14, 12, 13
            |12, 40, 46, 6, 28, 25, 44, 16, 45, 38, 23, 35, 45, 38, 32, 31, 17, 31, 52, 8, 43, 36, 30, 29, 40, 19, 28, 20, 48, 24, 19, 14, 21, 38, 26, 25, 40, 24, 22, 40, 35, 37, 21, 38, 31, 27, 17, 23, 33, 45, 49, 35, 48, 36, 37, 37, 30, 36, 18, 22, 8, 24, 35, 30, 44, 43, 7, 46, 48, 7, 44, 33, 32, 25, 10, 43, 7, 14, 0, 25, 5
            |27, 22, 44, 30, 14, 22, 34, 30, 45, 33, 24, 39, 34, 16, 19, 10, 13, 13, 32, 33, 33, 28, 28, 32, 17, 26, 10, 13, 39, 1, 14, 29, 33, 36, 7, 23, 43, 2, 28, 40, 41, 31, 33, 38, 17, 7, 37, 9, 42, 28, 49, 13, 38, 35, 20, 40, 6, 43, 36, 12, 32, 13, 11, 9, 45, 24, 20, 40, 32, 25, 28, 8, 8, 16, 35, 24, 31, 12, 25, 0, 22
            |16, 40, 49, 11, 28, 27, 45, 21, 48, 40, 25, 38, 46, 36, 32, 26, 16, 26, 51, 13, 44, 37, 32, 32, 38, 22, 24, 20, 50, 21, 19, 18, 25, 41, 22, 27, 43, 21, 26, 43, 39, 39, 25, 41, 26, 22, 22, 19, 37, 45, 52, 33, 49, 39, 37, 41, 27, 40, 23, 22, 13, 19, 33, 28, 48, 42, 2, 48, 48, 11, 44, 30, 28, 26, 15, 42, 12, 13, 5, 22, 0|];
early = [0, 71, 388, 136, 90, 0, 295, 0, 425, 345, 0, 350, 291, 52, 255, 20, 0, 34, 559, 160, 311, 311, 0, 504, 58, 157, 51, 146, 399, 63, 0, 0, 0, 336, 23, 0, 385, 35, 0, 362, 409, 272, 0, 312, 203, 7, 486, 269, 341, 89, 356, 478, 331, 349, 94, 333, 0, 332, 0, 1, 133, 229, 36, 81, 353, 111, 207, 591, 453, 145, 99, 220, 0, 0, 156, 85, 172, 0, 190, 9, 555];
late = [812, 218, 549, 325, 309, 127, 460, 100, 555, 467, 123, 488, 488, 244, 459, 192, 186, 214, 765, 326, 469, 452, 103, 654, 218, 284, 188, 298, 598, 211, 135, 69, 67, 485, 193, 131, 544, 153, 93, 532, 548, 434, 105, 466, 375, 161, 703, 418, 540, 228, 536, 606, 475, 491, 261, 525, 153, 507, 125, 125, 316, 362, 243, 199, 512, 252, 378, 777, 593, 320, 235, 408, 195, 123, 354, 259, 333, 178, 345, 158, 717];