% n80w120.005	   19.91 797
n = 81;
duration = [|0, 41, 31, 45, 5, 17, 30, 41, 27, 7, 47, 17, 8, 21, 5, 37, 4, 33, 18, 55, 26, 29, 7, 36, 49, 40, 42, 14, 40, 44, 48, 23, 35, 23, 39, 43, 45, 24, 48, 23, 49, 50, 10, 41, 34, 37, 27, 5, 5, 36, 16, 29, 35, 21, 13, 10, 37, 22, 19, 20, 30, 13, 36, 4, 21, 36, 23, 55, 38, 20, 10, 13, 14, 27, 27, 32, 45, 27, 17, 54, 32
            |41, 0, 28, 5, 45, 25, 21, 35, 14, 40, 22, 24, 49, 28, 41, 40, 45, 9, 34, 25, 18, 13, 47, 9, 15, 32, 2, 28, 48, 4, 16, 27, 18, 44, 31, 25, 9, 27, 24, 26, 14, 26, 33, 4, 7, 4, 43, 44, 36, 26, 28, 12, 6, 39, 28, 43, 47, 19, 31, 43, 25, 28, 26, 44, 24, 21, 31, 23, 26, 21, 51, 35, 46, 34, 22, 19, 27, 19, 30, 22, 23
            |31, 28, 0, 28, 32, 18, 36, 11, 22, 25, 19, 24, 38, 36, 35, 13, 34, 20, 13, 28, 30, 28, 33, 31, 26, 9, 27, 27, 20, 28, 24, 36, 11, 19, 8, 14, 25, 7, 20, 8, 26, 21, 31, 25, 25, 27, 16, 36, 28, 6, 30, 20, 26, 16, 25, 26, 18, 19, 12, 20, 39, 23, 6, 31, 12, 9, 8, 29, 8, 21, 40, 18, 26, 7, 8, 9, 15, 11, 34, 28, 39
            |45, 5, 28, 0, 49, 28, 26, 34, 19, 43, 19, 28, 53, 34, 45, 40, 49, 12, 36, 20, 24, 19, 50, 15, 10, 30, 4, 32, 47, 1, 11, 32, 17, 45, 30, 23, 4, 28, 21, 28, 9, 22, 38, 4, 11, 9, 44, 48, 40, 25, 33, 16, 11, 41, 32, 46, 46, 22, 33, 45, 30, 32, 25, 48, 26, 20, 32, 18, 25, 25, 55, 38, 49, 35, 23, 19, 24, 21, 35, 17, 28
            |5, 45, 32, 49, 0, 21, 35, 42, 31, 7, 49, 22, 5, 26, 9, 37, 3, 37, 19, 58, 31, 34, 2, 40, 53, 41, 46, 19, 39, 48, 52, 28, 38, 21, 40, 45, 49, 26, 51, 25, 52, 52, 16, 45, 39, 41, 26, 7, 10, 38, 21, 33, 40, 20, 18, 8, 36, 27, 21, 18, 35, 17, 38, 1, 24, 38, 25, 58, 40, 24, 8, 14, 11, 27, 30, 35, 47, 30, 22, 58, 37
            |17, 25, 18, 28, 21, 0, 21, 29, 11, 15, 31, 7, 25, 18, 19, 29, 22, 16, 13, 38, 15, 16, 22, 21, 32, 27, 25, 9, 34, 28, 31, 19, 19, 22, 26, 28, 28, 11, 32, 10, 31, 34, 14, 24, 18, 21, 24, 21, 13, 21, 12, 12, 19, 19, 7, 19, 32, 6, 11, 21, 23, 5, 21, 20, 6, 20, 13, 38, 24, 4, 27, 11, 22, 18, 11, 16, 30, 10, 16, 37, 24
            |30, 21, 36, 26, 35, 21, 0, 47, 14, 33, 40, 15, 37, 10, 28, 49, 34, 20, 34, 45, 6, 9, 37, 11, 35, 44, 22, 17, 55, 25, 36, 9, 31, 44, 43, 40, 29, 31, 42, 30, 34, 44, 20, 24, 16, 17, 45, 31, 25, 37, 14, 17, 16, 40, 18, 37, 53, 17, 32, 42, 4, 20, 37, 35, 26, 33, 34, 43, 39, 17, 38, 32, 41, 38, 28, 29, 42, 25, 14, 42, 3
            |41, 35, 11, 34, 42, 29, 47, 0, 33, 35, 18, 35, 47, 47, 45, 8, 44, 29, 22, 26, 40, 38, 42, 40, 28, 4, 34, 38, 15, 34, 26, 47, 18, 24, 4, 12, 30, 18, 18, 19, 29, 18, 42, 31, 34, 35, 19, 46, 39, 10, 41, 30, 34, 22, 36, 34, 15, 30, 22, 26, 50, 34, 10, 40, 23, 15, 17, 28, 9, 32, 49, 28, 34, 14, 19, 17, 12, 21, 45, 28, 50
            |27, 14, 22, 19, 31, 11, 14, 33, 0, 26, 27, 9, 35, 17, 27, 35, 31, 8, 23, 34, 8, 6, 33, 10, 25, 30, 15, 14, 42, 18, 25, 16, 17, 33, 29, 27, 20, 18, 29, 17, 24, 31, 19, 15, 8, 10, 33, 30, 22, 23, 14, 4, 9, 29, 13, 30, 40, 5, 20, 32, 17, 14, 23, 30, 13, 19, 21, 33, 25, 7, 36, 22, 33, 25, 14, 16, 29, 12, 17, 32, 17
            |7, 40, 25, 43, 7, 15, 33, 35, 26, 0, 42, 18, 13, 25, 12, 30, 9, 31, 12, 51, 28, 30, 8, 36, 46, 34, 40, 16, 33, 43, 45, 27, 31, 16, 33, 38, 43, 19, 44, 18, 46, 45, 15, 39, 33, 36, 20, 12, 8, 31, 19, 28, 34, 14, 15, 4, 30, 21, 14, 13, 34, 13, 31, 6, 17, 31, 17, 51, 33, 19, 15, 7, 9, 20, 23, 28, 40, 23, 21, 51, 35
            |47, 22, 19, 19, 49, 31, 40, 18, 27, 42, 0, 35, 54, 44, 50, 26, 51, 20, 32, 9, 35, 31, 50, 30, 11, 15, 21, 38, 33, 20, 9, 44, 12, 38, 15, 6, 14, 23, 2, 24, 11, 4, 44, 18, 24, 25, 34, 51, 43, 13, 40, 23, 24, 34, 37, 44, 33, 28, 29, 39, 44, 36, 13, 48, 26, 11, 26, 10, 11, 30, 57, 35, 45, 26, 20, 15, 6, 20, 44, 10, 43
            |17, 24, 24, 28, 22, 7, 15, 35, 9, 18, 35, 0, 25, 11, 17, 35, 22, 17, 19, 42, 9, 12, 24, 18, 34, 33, 25, 4, 41, 27, 34, 12, 23, 28, 32, 33, 29, 18, 36, 17, 33, 38, 10, 24, 17, 20, 30, 20, 12, 27, 6, 13, 18, 25, 4, 23, 39, 7, 17, 27, 17, 5, 27, 21, 12, 25, 20, 41, 29, 4, 27, 17, 26, 25, 17, 20, 35, 15, 10, 40, 18
            |8, 49, 38, 53, 5, 25, 37, 47, 35, 13, 54, 25, 0, 27, 9, 42, 4, 41, 25, 63, 33, 37, 6, 43, 57, 47, 50, 22, 44, 52, 56, 29, 43, 26, 46, 51, 53, 31, 56, 31, 57, 57, 17, 49, 42, 45, 31, 6, 13, 43, 23, 37, 43, 26, 21, 13, 41, 30, 26, 23, 36, 21, 43, 7, 29, 43, 30, 63, 45, 28, 2, 20, 16, 33, 35, 40, 52, 35, 23, 62, 38
            |21, 28, 36, 34, 26, 18, 10, 47, 17, 25, 44, 11, 27, 0, 18, 47, 25, 25, 30, 50, 10, 15, 28, 20, 42, 44, 30, 10, 52, 33, 42, 2, 33, 38, 43, 43, 36, 29, 46, 28, 41, 48, 11, 31, 22, 24, 41, 21, 17, 38, 6, 21, 23, 35, 12, 30, 50, 17, 28, 36, 9, 14, 38, 26, 24, 35, 31, 49, 40, 15, 28, 26, 34, 36, 28, 31, 45, 26, 4, 48, 11
            |5, 41, 35, 45, 9, 19, 28, 45, 27, 12, 50, 17, 9, 18, 0, 42, 7, 34, 23, 58, 25, 29, 11, 35, 51, 44, 42, 13, 45, 45, 50, 20, 38, 28, 43, 47, 46, 28, 51, 27, 50, 53, 8, 42, 34, 37, 32, 3, 7, 39, 14, 30, 35, 26, 14, 16, 42, 23, 24, 25, 27, 14, 39, 9, 24, 39, 28, 57, 42, 21, 10, 18, 20, 31, 30, 35, 48, 29, 14, 57, 29
            |37, 40, 13, 40, 37, 29, 49, 8, 35, 30, 26, 35, 42, 47, 42, 0, 40, 33, 19, 34, 42, 41, 37, 44, 36, 11, 39, 37, 8, 40, 34, 48, 23, 17, 11, 20, 36, 18, 26, 19, 36, 26, 40, 37, 38, 40, 12, 42, 36, 15, 41, 33, 38, 17, 35, 29, 7, 31, 19, 20, 51, 33, 15, 36, 23, 20, 16, 36, 16, 32, 45, 24, 28, 11, 21, 21, 20, 23, 45, 36, 52
            |4, 45, 34, 49, 3, 22, 34, 44, 31, 9, 51, 22, 4, 25, 7, 40, 0, 38, 22, 59, 30, 34, 5, 40, 54, 43, 46, 18, 42, 49, 53, 26, 40, 24, 42, 47, 49, 28, 52, 27, 53, 54, 14, 45, 39, 41, 29, 4, 9, 40, 20, 34, 40, 23, 18, 11, 39, 27, 23, 21, 34, 17, 40, 4, 25, 40, 27, 59, 42, 24, 6, 17, 15, 30, 31, 36, 49, 31, 20, 59, 35
            |33, 9, 20, 12, 37, 16, 20, 29, 8, 31, 20, 17, 41, 25, 34, 33, 38, 0, 25, 26, 15, 11, 39, 12, 17, 25, 9, 21, 40, 11, 17, 24, 11, 35, 24, 21, 12, 18, 22, 17, 16, 24, 27, 8, 5, 7, 34, 37, 28, 19, 22, 4, 6, 30, 21, 35, 38, 11, 22, 34, 24, 20, 19, 36, 15, 14, 22, 25, 20, 14, 43, 26, 37, 25, 13, 11, 23, 10, 26, 24, 23
            |18, 34, 13, 36, 19, 13, 34, 22, 23, 12, 32, 19, 25, 30, 23, 19, 22, 25, 0, 40, 28, 28, 19, 33, 37, 22, 34, 20, 23, 36, 35, 31, 22, 10, 21, 27, 35, 9, 33, 8, 37, 34, 22, 32, 29, 32, 11, 24, 17, 19, 23, 23, 30, 6, 17, 13, 20, 18, 3, 9, 36, 15, 19, 18, 10, 21, 6, 41, 21, 17, 27, 5, 13, 8, 13, 18, 28, 15, 27, 41, 37
            |55, 25, 28, 20, 58, 38, 45, 26, 34, 51, 9, 42, 63, 50, 58, 34, 59, 26, 40, 0, 41, 36, 59, 34, 10, 23, 23, 46, 41, 21, 9, 50, 20, 47, 23, 15, 16, 32, 8, 33, 11, 8, 51, 21, 29, 28, 43, 60, 51, 22, 47, 30, 28, 43, 45, 53, 41, 35, 38, 48, 49, 44, 22, 57, 34, 20, 35, 3, 20, 38, 65, 44, 54, 35, 28, 23, 14, 28, 51, 4, 48
            |26, 18, 30, 24, 31, 15, 6, 40, 8, 28, 35, 9, 33, 10, 25, 42, 30, 15, 28, 41, 0, 5, 33, 10, 32, 38, 20, 12, 49, 23, 32, 9, 25, 37, 37, 35, 26, 24, 37, 24, 31, 39, 16, 21, 13, 14, 39, 28, 21, 31, 10, 12, 13, 34, 13, 32, 46, 11, 25, 36, 9, 15, 31, 30, 19, 27, 28, 40, 33, 11, 35, 26, 36, 32, 22, 24, 37, 19, 12, 39, 9
            |29, 13, 28, 19, 34, 16, 9, 38, 6, 30, 31, 12, 37, 15, 29, 41, 34, 11, 28, 36, 5, 0, 36, 6, 27, 35, 15, 16, 47, 18, 27, 14, 22, 38, 34, 31, 21, 23, 33, 23, 26, 35, 21, 16, 8, 9, 39, 32, 24, 28, 15, 9, 8, 34, 16, 34, 45, 10, 26, 37, 13, 17, 28, 33, 19, 24, 27, 35, 30, 11, 39, 27, 38, 31, 20, 21, 33, 17, 17, 34, 12
            |7, 47, 33, 50, 2, 22, 37, 42, 33, 8, 50, 24, 6, 28, 11, 37, 5, 39, 19, 59, 33, 36, 0, 42, 54, 41, 47, 21, 38, 50, 53, 30, 39, 20, 40, 46, 50, 27, 52, 26, 53, 53, 18, 46, 40, 43, 25, 9, 12, 38, 23, 35, 41, 20, 20, 7, 35, 28, 21, 17, 37, 19, 38, 3, 25, 39, 25, 59, 40, 26, 8, 15, 10, 27, 31, 36, 48, 31, 24, 59, 39
            |36, 9, 31, 15, 40, 21, 11, 40, 10, 36, 30, 18, 43, 20, 35, 44, 40, 12, 33, 34, 10, 6, 42, 0, 24, 37, 11, 22, 51, 14, 25, 18, 23, 43, 36, 32, 18, 27, 32, 27, 23, 34, 27, 13, 7, 6, 43, 38, 30, 30, 21, 11, 6, 39, 22, 40, 49, 16, 30, 42, 15, 23, 30, 39, 23, 26, 31, 32, 31, 17, 45, 33, 43, 35, 23, 23, 34, 21, 22, 31, 14
            |49, 15, 26, 10, 53, 32, 35, 28, 25, 46, 11, 34, 57, 42, 51, 36, 54, 17, 37, 10, 32, 27, 54, 24, 0, 25, 13, 38, 43, 11, 2, 41, 16, 45, 25, 16, 6, 28, 12, 29, 1, 13, 44, 11, 19, 18, 42, 53, 45, 21, 39, 21, 19, 41, 37, 49, 43, 28, 34, 45, 39, 37, 21, 51, 29, 17, 32, 8, 20, 30, 59, 40, 50, 33, 24, 19, 17, 23, 43, 7, 38
            |40, 32, 9, 30, 41, 27, 44, 4, 30, 34, 15, 33, 47, 44, 44, 11, 43, 25, 22, 23, 38, 35, 41, 37, 25, 0, 30, 36, 18, 31, 23, 45, 14, 25, 1, 9, 26, 16, 15, 17, 25, 15, 40, 28, 30, 32, 21, 45, 37, 7, 39, 26, 31, 23, 34, 34, 18, 27, 21, 27, 47, 32, 7, 40, 21, 11, 17, 25, 6, 29, 49, 27, 34, 14, 16, 14, 9, 18, 43, 25, 47
            |42, 2, 27, 4, 46, 25, 22, 34, 15, 40, 21, 25, 50, 30, 42, 39, 46, 9, 34, 23, 20, 15, 47, 11, 13, 30, 0, 29, 47, 3, 14, 29, 17, 43, 30, 24, 7, 26, 22, 26, 12, 24, 34, 3, 8, 6, 42, 45, 37, 24, 29, 13, 7, 39, 29, 44, 46, 19, 31, 43, 27, 29, 24, 45, 24, 19, 30, 21, 25, 22, 51, 35, 46, 33, 21, 18, 25, 19, 32, 20, 25
            |14, 28, 27, 32, 19, 9, 17, 38, 14, 16, 38, 4, 22, 10, 13, 37, 18, 21, 20, 46, 12, 16, 21, 22, 38, 36, 29, 0, 43, 32, 38, 11, 27, 28, 35, 36, 33, 20, 40, 19, 38, 42, 6, 28, 21, 24, 31, 16, 9, 30, 4, 17, 22, 25, 2, 21, 40, 11, 18, 26, 17, 4, 30, 18, 15, 28, 22, 45, 32, 8, 23, 16, 25, 26, 20, 24, 38, 19, 7, 44, 19
            |40, 48, 20, 47, 39, 34, 55, 15, 42, 33, 33, 41, 44, 52, 45, 8, 42, 40, 23, 41, 49, 47, 38, 51, 43, 18, 47, 43, 0, 48, 41, 53, 30, 18, 18, 27, 44, 24, 33, 25, 43, 33, 45, 44, 45, 47, 13, 45, 40, 23, 46, 40, 46, 19, 40, 31, 3, 38, 24, 21, 58, 38, 23, 38, 29, 28, 21, 43, 23, 38, 46, 28, 28, 17, 28, 29, 27, 30, 50, 43, 58
            |44, 4, 28, 1, 48, 28, 25, 34, 18, 43, 20, 27, 52, 33, 45, 40, 49, 11, 36, 21, 23, 18, 50, 14, 11, 31, 3, 32, 48, 0, 12, 32, 17, 45, 30, 23, 5, 28, 21, 28, 10, 23, 37, 4, 11, 9, 44, 48, 39, 25, 32, 15, 10, 41, 31, 46, 47, 22, 33, 45, 29, 31, 25, 47, 26, 20, 32, 19, 25, 25, 54, 37, 49, 35, 23, 20, 25, 21, 35, 18, 28
            |48, 16, 24, 11, 52, 31, 36, 26, 25, 45, 9, 34, 56, 42, 50, 34, 53, 17, 35, 9, 32, 27, 53, 25, 2, 23, 14, 38, 41, 12, 0, 41, 14, 43, 23, 14, 7, 27, 10, 27, 3, 11, 43, 12, 20, 19, 40, 52, 44, 19, 39, 21, 19, 39, 37, 47, 40, 27, 33, 44, 40, 36, 19, 50, 27, 15, 30, 8, 18, 30, 58, 38, 49, 31, 22, 17, 15, 22, 43, 7, 38
            |23, 27, 36, 32, 28, 19, 9, 47, 16, 27, 44, 12, 29, 2, 20, 48, 26, 24, 31, 50, 9, 14, 30, 18, 41, 45, 29, 11, 53, 32, 41, 0, 33, 40, 44, 43, 35, 30, 46, 29, 40, 48, 13, 30, 21, 23, 42, 23, 19, 38, 8, 20, 22, 36, 13, 31, 51, 17, 29, 37, 7, 16, 38, 28, 24, 35, 32, 48, 40, 16, 30, 28, 36, 37, 28, 31, 45, 26, 6, 48, 9
            |35, 18, 11, 17, 38, 19, 31, 18, 17, 31, 12, 23, 43, 33, 38, 23, 40, 11, 22, 20, 25, 22, 39, 23, 16, 14, 17, 27, 30, 17, 14, 33, 0, 29, 13, 10, 14, 13, 13, 13, 15, 15, 32, 14, 16, 18, 27, 40, 31, 8, 29, 13, 17, 25, 25, 34, 29, 16, 19, 30, 34, 24, 8, 37, 14, 3, 16, 20, 9, 19, 45, 25, 35, 18, 9, 4, 12, 9, 33, 19, 34
            |23, 44, 19, 45, 21, 22, 44, 24, 33, 16, 38, 28, 26, 38, 28, 17, 24, 35, 10, 47, 37, 38, 20, 43, 45, 25, 43, 28, 18, 45, 43, 40, 29, 0, 24, 32, 43, 17, 38, 17, 45, 39, 29, 41, 38, 41, 5, 27, 23, 25, 32, 32, 39, 4, 26, 13, 15, 28, 13, 3, 45, 24, 25, 20, 20, 28, 13, 48, 26, 27, 28, 12, 10, 12, 22, 26, 33, 24, 35, 47, 46
            |39, 31, 8, 30, 40, 26, 43, 4, 29, 33, 15, 32, 46, 43, 43, 11, 42, 24, 21, 23, 37, 34, 40, 36, 25, 1, 30, 35, 18, 30, 23, 44, 13, 24, 0, 9, 26, 15, 15, 16, 25, 16, 39, 27, 29, 31, 20, 44, 36, 6, 38, 25, 30, 22, 33, 34, 18, 26, 20, 26, 46, 31, 6, 39, 20, 11, 16, 25, 5, 28, 48, 26, 33, 13, 15, 13, 9, 17, 42, 25, 46
            |43, 25, 14, 23, 45, 28, 40, 12, 27, 38, 6, 33, 51, 43, 47, 20, 47, 21, 27, 15, 35, 31, 46, 32, 16, 9, 24, 36, 27, 23, 14, 43, 10, 32, 9, 0, 18, 19, 6, 20, 17, 7, 41, 21, 25, 26, 28, 48, 40, 8, 39, 23, 26, 29, 35, 40, 27, 26, 25, 34, 44, 33, 8, 44, 22, 8, 21, 16, 6, 29, 53, 31, 40, 21, 17, 12, 2, 18, 43, 16, 44
            |45, 9, 25, 4, 49, 28, 29, 30, 20, 43, 14, 29, 53, 36, 46, 36, 49, 12, 35, 16, 26, 21, 50, 18, 6, 26, 7, 33, 44, 5, 7, 35, 14, 43, 26, 18, 0, 26, 16, 26, 5, 18, 39, 5, 13, 12, 41, 49, 40, 21, 34, 16, 13, 39, 33, 46, 43, 23, 32, 43, 33, 32, 21, 47, 25, 16, 30, 14, 21, 26, 55, 37, 48, 32, 21, 17, 20, 20, 37, 13, 32
            |24, 27, 7, 28, 26, 11, 31, 18, 18, 19, 23, 18, 31, 29, 28, 18, 28, 18, 9, 32, 24, 23, 27, 27, 28, 16, 26, 20, 24, 28, 27, 30, 13, 17, 15, 19, 26, 0, 25, 1, 28, 26, 24, 24, 22, 25, 16, 29, 21, 12, 23, 16, 23, 13, 18, 21, 22, 14, 6, 17, 34, 16, 12, 25, 5, 12, 4, 33, 14, 14, 34, 12, 22, 8, 5, 9, 21, 7, 27, 32, 34
            |48, 24, 20, 21, 51, 32, 42, 18, 29, 44, 2, 36, 56, 46, 51, 26, 52, 22, 33, 8, 37, 33, 52, 32, 12, 15, 22, 40, 33, 21, 10, 46, 13, 38, 15, 6, 16, 25, 0, 25, 13, 2, 46, 20, 26, 26, 35, 53, 45, 14, 42, 25, 26, 35, 39, 45, 33, 30, 30, 40, 46, 38, 14, 50, 27, 13, 27, 10, 12, 32, 58, 37, 46, 27, 21, 17, 6, 22, 46, 10, 45
            |23, 26, 8, 28, 25, 10, 30, 19, 17, 18, 24, 17, 31, 28, 27, 19, 27, 17, 8, 33, 24, 23, 26, 27, 29, 17, 26, 19, 25, 28, 27, 29, 13, 17, 16, 20, 26, 1, 25, 0, 28, 27, 23, 24, 22, 24, 17, 28, 20, 13, 22, 16, 22, 13, 17, 20, 23, 13, 5, 17, 33, 15, 13, 24, 4, 13, 4, 33, 15, 13, 33, 11, 22, 8, 5, 10, 22, 7, 26, 33, 33
            |49, 14, 26, 9, 52, 31, 34, 29, 24, 46, 11, 33, 57, 41, 50, 36, 53, 16, 37, 11, 31, 26, 53, 23, 1, 25, 12, 38, 43, 10, 3, 40, 15, 45, 25, 17, 5, 28, 13, 28, 0, 14, 43, 10, 18, 17, 42, 52, 44, 21, 39, 21, 18, 41, 37, 48, 43, 27, 34, 45, 38, 36, 21, 51, 28, 17, 32, 9, 20, 30, 59, 39, 50, 33, 23, 19, 17, 22, 42, 8, 37
            |50, 26, 21, 22, 52, 34, 44, 18, 31, 45, 4, 38, 57, 48, 53, 26, 54, 24, 34, 8, 39, 35, 53, 34, 13, 15, 24, 42, 33, 23, 11, 48, 15, 39, 16, 7, 18, 26, 2, 27, 14, 0, 47, 22, 28, 28, 35, 55, 46, 15, 44, 27, 28, 36, 41, 47, 33, 32, 32, 41, 48, 39, 15, 51, 29, 14, 28, 10, 13, 34, 60, 38, 47, 28, 23, 18, 6, 24, 48, 10, 47
            |10, 33, 31, 38, 16, 14, 20, 42, 19, 15, 44, 10, 17, 11, 8, 40, 14, 27, 22, 51, 16, 21, 18, 27, 44, 40, 34, 6, 45, 37, 43, 13, 32, 29, 39, 41, 39, 24, 46, 23, 43, 47, 0, 34, 27, 29, 33, 11, 6, 35, 6, 23, 27, 26, 7, 19, 42, 16, 21, 27, 20, 8, 35, 15, 19, 33, 25, 51, 37, 14, 18, 17, 23, 29, 25, 29, 43, 24, 7, 50, 21
            |41, 4, 25, 4, 45, 24, 24, 31, 15, 39, 18, 24, 49, 31, 42, 37, 45, 8, 32, 21, 21, 16, 46, 13, 11, 28, 3, 28, 44, 4, 12, 30, 14, 41, 27, 21, 5, 24, 20, 24, 10, 22, 34, 0, 8, 7, 40, 44, 36, 22, 29, 12, 8, 37, 28, 42, 43, 18, 29, 41, 28, 28, 22, 43, 22, 17, 28, 19, 22, 21, 51, 34, 45, 31, 19, 16, 22, 17, 32, 18, 26
            |34, 7, 25, 11, 39, 18, 16, 34, 8, 33, 24, 17, 42, 22, 34, 38, 39, 5, 29, 29, 13, 8, 40, 7, 19, 30, 8, 21, 45, 11, 20, 21, 16, 38, 29, 25, 13, 22, 26, 22, 18, 28, 27, 8, 0, 3, 38, 37, 29, 24, 21, 6, 1, 34, 21, 37, 43, 12, 26, 38, 20, 21, 24, 37, 18, 19, 26, 27, 25, 15, 44, 29, 40, 30, 17, 16, 27, 15, 24, 26, 19
            |37, 4, 27, 9, 41, 21, 17, 35, 10, 36, 25, 20, 45, 24, 37, 40, 41, 7, 32, 28, 14, 9, 43, 6, 18, 32, 6, 24, 47, 9, 19, 23, 18, 41, 31, 26, 12, 25, 26, 24, 17, 28, 29, 7, 3, 0, 41, 40, 32, 25, 24, 9, 2, 37, 24, 40, 45, 15, 29, 41, 21, 24, 25, 40, 21, 21, 29, 26, 26, 17, 47, 32, 43, 32, 20, 18, 28, 17, 26, 25, 19
            |27, 43, 16, 44, 26, 24, 45, 19, 33, 20, 34, 30, 31, 41, 32, 12, 29, 34, 11, 43, 39, 39, 25, 43, 42, 21, 42, 31, 13, 44, 40, 42, 27, 5, 20, 28, 41, 16, 35, 17, 42, 35, 33, 40, 38, 41, 0, 32, 27, 21, 35, 32, 39, 6, 29, 18, 10, 29, 13, 8, 47, 27, 21, 25, 20, 25, 12, 44, 23, 28, 33, 15, 16, 9, 21, 24, 29, 23, 38, 44, 48
            |5, 44, 36, 48, 7, 21, 31, 46, 30, 12, 51, 20, 6, 21, 3, 42, 4, 37, 24, 60, 28, 32, 9, 38, 53, 45, 45, 16, 45, 48, 52, 23, 40, 27, 44, 48, 49, 29, 53, 28, 52, 55, 11, 44, 37, 40, 32, 0, 8, 41, 17, 32, 38, 26, 16, 15, 42, 26, 24, 24, 30, 16, 41, 8, 26, 40, 28, 59, 43, 23, 7, 18, 18, 32, 32, 36, 50, 31, 17, 59, 32
            |5, 36, 28, 40, 10, 13, 25, 39, 22, 8, 43, 12, 13, 17, 7, 36, 9, 28, 17, 51, 21, 24, 12, 30, 45, 37, 37, 9, 40, 39, 44, 19, 31, 23, 36, 40, 40, 21, 45, 20, 44, 46, 6, 36, 29, 32, 27, 8, 0, 33, 11, 24, 30, 21, 8, 13, 37, 17, 17, 21, 26, 8, 33, 9, 17, 32, 21, 51, 35, 15, 15, 12, 17, 25, 23, 28, 42, 23, 13, 50, 27
            |36, 26, 6, 25, 38, 21, 37, 10, 23, 31, 13, 27, 43, 38, 39, 15, 40, 19, 19, 22, 31, 28, 38, 30, 21, 7, 24, 30, 23, 25, 19, 38, 8, 25, 6, 8, 21, 12, 14, 13, 21, 15, 35, 22, 24, 25, 21, 41, 33, 0, 33, 20, 24, 21, 28, 32, 22, 21, 17, 26, 41, 27, 0, 36, 16, 5, 13, 23, 2, 23, 45, 23, 32, 13, 10, 8, 9, 12, 37, 23, 40
            |16, 28, 30, 33, 21, 12, 14, 41, 14, 19, 40, 6, 23, 6, 14, 41, 20, 22, 23, 47, 10, 15, 23, 21, 39, 39, 29, 4, 46, 32, 39, 8, 29, 32, 38, 39, 34, 23, 42, 22, 39, 44, 6, 29, 21, 24, 35, 17, 11, 33, 0, 18, 22, 29, 6, 24, 43, 13, 22, 30, 14, 8, 33, 20, 18, 31, 25, 47, 35, 10, 24, 20, 28, 30, 23, 26, 41, 21, 4, 46, 16
            |29, 12, 20, 16, 33, 12, 17, 30, 4, 28, 23, 13, 37, 21, 30, 33, 34, 4, 23, 30, 12, 9, 35, 11, 21, 26, 13, 17, 40, 15, 21, 20, 13, 32, 25, 23, 16, 16, 25, 16, 21, 27, 23, 12, 6, 9, 32, 32, 24, 20, 18, 0, 7, 28, 16, 31, 38, 7, 20, 32, 21, 16, 20, 32, 12, 16, 20, 29, 21, 9, 39, 23, 34, 24, 12, 12, 25, 9, 21, 28, 21
            |35, 6, 26, 11, 40, 19, 16, 34, 9, 34, 24, 18, 43, 23, 35, 38, 40, 6, 30, 28, 13, 8, 41, 6, 19, 31, 7, 22, 46, 10, 19, 22, 17, 39, 30, 26, 13, 23, 26, 22, 18, 28, 27, 8, 1, 2, 39, 38, 30, 24, 22, 7, 0, 35, 22, 38, 44, 13, 27, 39, 20, 22, 24, 38, 19, 19, 27, 27, 25, 16, 45, 30, 41, 30, 18, 17, 28, 16, 25, 26, 19
            |21, 39, 16, 41, 20, 19, 40, 22, 29, 14, 34, 25, 26, 35, 26, 17, 23, 30, 6, 43, 34, 34, 20, 39, 41, 23, 39, 25, 19, 41, 39, 36, 25, 4, 22, 29, 39, 13, 35, 13, 41, 36, 26, 37, 34, 37, 6, 26, 21, 21, 29, 28, 35, 0, 23, 13, 16, 24, 9, 4, 42, 21, 21, 19, 16, 24, 9, 44, 23, 23, 28, 9, 11, 9, 18, 22, 30, 20, 32, 44, 43
            |13, 28, 25, 32, 18, 7, 18, 36, 13, 15, 37, 4, 21, 12, 14, 35, 18, 21, 17, 45, 13, 16, 20, 22, 37, 34, 29, 2, 40, 31, 37, 13, 25, 26, 33, 35, 33, 18, 39, 17, 37, 41, 7, 28, 21, 24, 29, 16, 8, 28, 6, 16, 22, 23, 0, 19, 38, 10, 16, 24, 19, 2, 28, 17, 13, 27, 20, 44, 31, 7, 23, 14, 23, 24, 18, 22, 37, 17, 9, 43, 21
            |10, 43, 26, 46, 8, 19, 37, 34, 30, 4, 44, 23, 13, 30, 16, 29, 11, 35, 13, 53, 32, 34, 7, 40, 49, 34, 44, 21, 31, 46, 47, 31, 34, 13, 34, 40, 46, 21, 45, 20, 48, 47, 19, 42, 37, 40, 18, 15, 13, 32, 24, 31, 38, 13, 19, 0, 28, 25, 15, 10, 38, 17, 32, 7, 20, 33, 18, 54, 34, 23, 15, 9, 4, 20, 25, 30, 41, 26, 26, 53, 39
            |37, 47, 18, 46, 36, 32, 53, 15, 40, 30, 33, 39, 41, 50, 42, 7, 39, 38, 20, 41, 46, 45, 35, 49, 43, 18, 46, 40, 3, 47, 40, 51, 29, 15, 18, 27, 43, 22, 33, 23, 43, 33, 42, 43, 43, 45, 10, 42, 37, 22, 43, 38, 44, 16, 38, 28, 0, 35, 21, 18, 55, 35, 22, 35, 27, 27, 19, 43, 22, 36, 43, 25, 25, 14, 26, 27, 27, 28, 47, 43, 56
            |22, 19, 19, 22, 27, 6, 17, 30, 5, 21, 28, 7, 30, 17, 23, 31, 27, 11, 18, 35, 11, 10, 28, 16, 28, 27, 19, 11, 38, 22, 27, 17, 16, 28, 26, 26, 23, 14, 30, 13, 27, 32, 16, 18, 12, 15, 29, 26, 17, 21, 13, 7, 13, 24, 10, 25, 35, 0, 15, 27, 20, 9, 21, 25, 8, 18, 17, 34, 23, 3, 32, 17, 28, 21, 11, 14, 28, 9, 16, 34, 20
            |19, 31, 12, 33, 21, 11, 32, 22, 20, 14, 29, 17, 26, 28, 24, 19, 23, 22, 3, 38, 25, 26, 21, 30, 34, 21, 31, 18, 24, 33, 33, 29, 19, 13, 20, 25, 32, 6, 30, 5, 34, 32, 21, 29, 26, 29, 13, 24, 17, 17, 22, 20, 27, 9, 16, 15, 21, 15, 0, 12, 34, 14, 17, 19, 7, 18, 4, 39, 19, 15, 28, 6, 16, 8, 10, 15, 26, 12, 26, 38, 35
            |20, 43, 20, 45, 18, 21, 42, 26, 32, 13, 39, 27, 23, 36, 25, 20, 21, 34, 9, 48, 36, 37, 17, 42, 45, 27, 43, 26, 21, 45, 44, 37, 30, 3, 26, 34, 43, 17, 40, 17, 45, 41, 27, 41, 38, 41, 8, 24, 21, 26, 30, 32, 39, 4, 24, 10, 18, 27, 12, 0, 43, 22, 26, 17, 19, 28, 13, 49, 28, 25, 25, 10, 8, 13, 22, 26, 35, 24, 33, 48, 44
            |30, 25, 39, 30, 35, 23, 4, 50, 17, 34, 44, 17, 36, 9, 27, 51, 34, 24, 36, 49, 9, 13, 37, 15, 39, 47, 27, 17, 58, 29, 40, 7, 34, 45, 46, 44, 33, 34, 46, 33, 38, 48, 20, 28, 20, 21, 47, 30, 26, 41, 14, 21, 20, 42, 19, 38, 55, 20, 34, 43, 0, 21, 41, 34, 28, 37, 37, 47, 42, 19, 37, 33, 42, 41, 31, 33, 46, 29, 13, 46, 2
            |13, 28, 23, 32, 17, 5, 20, 34, 14, 13, 36, 5, 21, 14, 14, 33, 17, 20, 15, 44, 15, 17, 19, 23, 37, 32, 29, 4, 38, 31, 36, 16, 24, 24, 31, 33, 32, 16, 38, 15, 36, 39, 8, 28, 21, 24, 27, 16, 8, 27, 8, 16, 22, 21, 2, 17, 35, 9, 14, 22, 21, 0, 27, 16, 11, 25, 17, 43, 29, 7, 23, 12, 21, 22, 17, 21, 35, 16, 12, 43, 22
            |36, 26, 6, 25, 38, 21, 37, 10, 23, 31, 13, 27, 43, 38, 39, 15, 40, 19, 19, 22, 31, 28, 38, 30, 21, 7, 24, 30, 23, 25, 19, 38, 8, 25, 6, 8, 21, 12, 14, 13, 21, 15, 35, 22, 24, 25, 21, 41, 33, 0, 33, 20, 24, 21, 28, 32, 22, 21, 17, 26, 41, 27, 0, 36, 16, 5, 13, 23, 2, 23, 45, 23, 32, 13, 10, 8, 9, 12, 37, 23, 40
            |4, 44, 31, 48, 1, 20, 35, 40, 30, 6, 48, 21, 7, 26, 9, 36, 4, 36, 18, 57, 30, 33, 3, 39, 51, 40, 45, 18, 38, 47, 50, 28, 37, 20, 39, 44, 47, 25, 50, 24, 51, 51, 15, 43, 37, 40, 25, 8, 9, 36, 20, 32, 38, 19, 17, 7, 35, 25, 19, 17, 34, 16, 36, 0, 23, 37, 23, 57, 39, 23, 9, 13, 11, 26, 28, 33, 46, 29, 22, 56, 36
            |21, 24, 12, 26, 24, 6, 26, 23, 13, 17, 26, 12, 29, 24, 24, 23, 25, 15, 10, 34, 19, 19, 25, 23, 29, 21, 24, 15, 29, 26, 27, 24, 14, 20, 20, 22, 25, 5, 27, 4, 28, 29, 19, 22, 18, 21, 20, 26, 17, 16, 18, 12, 19, 16, 13, 20, 27, 8, 7, 19, 28, 11, 16, 23, 0, 14, 8, 34, 18, 9, 31, 11, 22, 13, 6, 11, 24, 6, 22, 33, 29
            |36, 21, 9, 20, 38, 20, 33, 15, 19, 31, 11, 25, 43, 35, 39, 20, 40, 14, 21, 20, 27, 24, 39, 26, 17, 11, 19, 28, 28, 20, 15, 35, 3, 28, 11, 8, 16, 12, 13, 13, 17, 14, 33, 17, 19, 21, 25, 40, 32, 5, 31, 16, 19, 24, 27, 33, 27, 18, 18, 28, 37, 25, 5, 37, 14, 0, 15, 21, 6, 20, 45, 24, 34, 16, 9, 4, 10, 9, 35, 20, 36
            |23, 31, 8, 32, 25, 13, 34, 17, 21, 17, 26, 20, 30, 31, 28, 16, 27, 22, 6, 35, 28, 27, 25, 31, 32, 17, 30, 22, 21, 32, 30, 32, 16, 13, 16, 21, 30, 4, 27, 4, 32, 28, 25, 28, 26, 29, 12, 28, 21, 13, 25, 20, 27, 9, 20, 18, 19, 17, 4, 13, 37, 17, 13, 23, 8, 15, 0, 36, 16, 17, 32, 10, 19, 4, 9, 13, 23, 11, 29, 35, 37
            |55, 23, 29, 18, 58, 38, 43, 28, 33, 51, 10, 41, 63, 49, 57, 36, 59, 25, 41, 3, 40, 35, 59, 32, 8, 25, 21, 45, 43, 19, 8, 48, 20, 48, 25, 16, 14, 33, 10, 33, 9, 10, 51, 19, 27, 26, 44, 59, 51, 23, 47, 29, 27, 44, 44, 54, 43, 34, 39, 49, 47, 43, 23, 57, 34, 21, 36, 0, 22, 37, 65, 45, 55, 36, 29, 24, 16, 28, 50, 1, 46
            |38, 26, 8, 25, 40, 24, 39, 9, 25, 33, 11, 29, 45, 40, 42, 16, 42, 20, 21, 20, 33, 30, 40, 31, 20, 6, 25, 32, 23, 25, 18, 40, 9, 26, 5, 6, 21, 14, 12, 15, 20, 13, 37, 22, 25, 26, 23, 43, 35, 2, 35, 21, 25, 23, 31, 34, 22, 23, 19, 28, 42, 29, 2, 39, 18, 6, 16, 22, 0, 25, 47, 26, 34, 15, 12, 9, 7, 14, 39, 21, 42
            |20, 21, 21, 25, 24, 4, 17, 32, 7, 19, 30, 4, 28, 15, 21, 32, 24, 14, 17, 38, 11, 11, 26, 17, 30, 29, 22, 8, 38, 25, 30, 16, 19, 27, 28, 29, 26, 14, 32, 13, 30, 34, 14, 21, 15, 17, 28, 23, 15, 23, 10, 9, 16, 23, 7, 23, 36, 3, 15, 25, 19, 7, 23, 23, 9, 20, 17, 37, 25, 0, 30, 16, 26, 22, 13, 16, 31, 11, 14, 36, 20
            |10, 51, 40, 55, 8, 27, 38, 49, 36, 15, 57, 27, 2, 28, 10, 45, 6, 43, 27, 65, 35, 39, 8, 45, 59, 49, 51, 23, 46, 54, 58, 30, 45, 28, 48, 53, 55, 34, 58, 33, 59, 60, 18, 51, 44, 47, 33, 7, 15, 45, 24, 39, 45, 28, 23, 15, 43, 32, 28, 25, 37, 23, 45, 9, 31, 45, 32, 65, 47, 30, 0, 22, 18, 35, 37, 42, 54, 37, 24, 64, 39
            |13, 35, 18, 38, 14, 11, 32, 28, 22, 7, 35, 17, 20, 26, 18, 24, 17, 26, 5, 44, 26, 27, 15, 33, 40, 27, 35, 16, 28, 37, 38, 28, 25, 12, 26, 31, 37, 12, 37, 11, 39, 38, 17, 34, 29, 32, 15, 18, 12, 23, 20, 23, 30, 9, 14, 9, 25, 17, 6, 10, 33, 12, 23, 13, 11, 24, 10, 45, 26, 16, 22, 0, 11, 13, 16, 21, 33, 17, 23, 44, 34
            |14, 46, 26, 49, 11, 22, 41, 34, 33, 9, 45, 26, 16, 34, 20, 28, 15, 37, 13, 54, 36, 38, 10, 43, 50, 34, 46, 25, 28, 49, 49, 36, 35, 10, 33, 40, 48, 22, 46, 22, 50, 47, 23, 45, 40, 43, 16, 18, 17, 32, 28, 34, 41, 11, 23, 4, 25, 28, 16, 8, 42, 21, 32, 11, 22, 34, 19, 55, 34, 26, 18, 11, 0, 20, 27, 31, 41, 28, 30, 54, 43
            |27, 34, 7, 35, 27, 18, 38, 14, 25, 20, 26, 25, 33, 36, 31, 11, 30, 25, 8, 35, 32, 31, 27, 35, 33, 14, 33, 26, 17, 35, 31, 37, 18, 12, 13, 21, 32, 8, 27, 8, 33, 28, 29, 31, 30, 32, 9, 32, 25, 13, 30, 24, 30, 9, 24, 20, 14, 21, 8, 13, 41, 22, 13, 26, 13, 16, 4, 36, 15, 22, 35, 13, 20, 0, 12, 15, 22, 15, 34, 36, 41
            |27, 22, 8, 23, 30, 11, 28, 19, 14, 23, 20, 17, 35, 28, 30, 21, 31, 13, 13, 28, 22, 20, 31, 23, 24, 16, 21, 20, 28, 23, 22, 28, 9, 22, 15, 17, 21, 5, 21, 5, 23, 23, 25, 19, 17, 20, 21, 32, 23, 10, 23, 12, 18, 18, 18, 25, 26, 11, 10, 22, 31, 17, 10, 28, 6, 9, 9, 29, 12, 13, 37, 16, 27, 12, 0, 5, 18, 3, 27, 28, 31
            |32, 19, 9, 19, 35, 16, 29, 17, 16, 28, 15, 20, 40, 31, 35, 21, 36, 11, 18, 23, 24, 21, 36, 23, 19, 14, 18, 24, 29, 20, 17, 31, 4, 26, 13, 12, 17, 9, 17, 10, 19, 18, 29, 16, 16, 18, 24, 36, 28, 8, 26, 12, 17, 22, 22, 30, 27, 14, 15, 26, 33, 21, 8, 33, 11, 4, 13, 24, 9, 16, 42, 21, 31, 15, 5, 0, 14, 5, 30, 23, 33
            |45, 27, 15, 24, 47, 30, 42, 12, 29, 40, 6, 35, 52, 45, 48, 20, 49, 23, 28, 14, 37, 33, 48, 34, 17, 9, 25, 38, 27, 25, 15, 45, 12, 33, 9, 2, 20, 21, 6, 22, 17, 6, 43, 22, 27, 28, 29, 50, 42, 9, 41, 25, 28, 30, 37, 41, 27, 28, 26, 35, 46, 35, 9, 46, 24, 10, 23, 16, 7, 31, 54, 33, 41, 22, 18, 14, 0, 20, 45, 16, 46
            |27, 19, 11, 21, 30, 10, 25, 21, 12, 23, 20, 15, 35, 26, 29, 23, 31, 10, 15, 28, 19, 17, 31, 21, 23, 18, 19, 19, 30, 21, 22, 26, 9, 24, 17, 18, 20, 7, 22, 7, 22, 24, 24, 17, 15, 17, 23, 31, 23, 12, 21, 9, 16, 20, 17, 26, 28, 9, 12, 24, 29, 16, 12, 29, 6, 9, 11, 28, 14, 11, 37, 17, 28, 15, 3, 5, 20, 0, 25, 28, 29
            |17, 30, 34, 35, 22, 16, 14, 45, 17, 21, 44, 10, 23, 4, 14, 45, 20, 26, 27, 51, 12, 17, 24, 22, 43, 43, 32, 7, 50, 35, 43, 6, 33, 35, 42, 43, 37, 27, 46, 26, 42, 48, 7, 32, 24, 26, 38, 17, 13, 37, 4, 21, 25, 32, 9, 26, 47, 16, 26, 33, 13, 12, 37, 22, 22, 35, 29, 50, 39, 14, 24, 23, 30, 34, 27, 30, 45, 25, 0, 49, 15
            |54, 22, 28, 17, 58, 37, 42, 28, 32, 51, 10, 40, 62, 48, 57, 36, 59, 24, 41, 4, 39, 34, 59, 31, 7, 25, 20, 44, 43, 18, 7, 48, 19, 47, 25, 16, 13, 32, 10, 33, 8, 10, 50, 18, 26, 25, 44, 59, 50, 23, 46, 28, 26, 44, 43, 53, 43, 34, 38, 48, 46, 43, 23, 56, 33, 20, 35, 1, 21, 36, 64, 44, 54, 36, 28, 23, 16, 28, 49, 0, 45
            |32, 23, 39, 28, 37, 24, 3, 50, 17, 35, 43, 18, 38, 11, 29, 52, 35, 23, 37, 48, 9, 12, 39, 14, 38, 47, 25, 19, 58, 28, 38, 9, 34, 46, 46, 44, 32, 34, 45, 33, 37, 47, 21, 26, 19, 19, 48, 32, 27, 40, 16, 21, 19, 43, 21, 39, 56, 20, 35, 44, 2, 22, 40, 36, 29, 36, 37, 46, 42, 20, 39, 34, 43, 41, 31, 33, 46, 29, 15, 45, 0|];