% n80w180.005    74.90 693
n = 81;
duration = [|0, 32, 14, 19, 10, 15, 26, 24, 27, 20, 11, 33, 37, 25, 25, 26, 6, 18, 35, 21, 21, 17, 33, 35, 15, 25, 17, 6, 31, 37, 35, 24, 13, 9, 32, 33, 31, 33, 25, 24, 15, 28, 26, 20, 18, 15, 23, 8, 25, 32, 16, 29, 5, 14, 17, 22, 14, 16, 28, 35, 18, 15, 17, 18, 28, 6, 14, 37, 11, 25, 26, 19, 9, 9, 19, 34, 11, 10, 28, 16, 26
            |32, 0, 28, 49, 22, 25, 11, 20, 36, 15, 21, 32, 41, 57, 21, 12, 34, 15, 7, 11, 12, 33, 11, 4, 38, 28, 40, 28, 41, 6, 7, 16, 44, 29, 12, 4, 21, 11, 16, 9, 37, 26, 20, 33, 14, 22, 41, 34, 15, 11, 21, 32, 36, 41, 49, 16, 40, 37, 33, 9, 50, 30, 44, 22, 13, 38, 18, 5, 43, 25, 31, 16, 23, 35, 51, 9, 29, 24, 6, 29, 19
            |14, 28, 0, 23, 11, 23, 27, 29, 38, 13, 13, 19, 24, 33, 31, 28, 20, 18, 28, 18, 22, 6, 33, 30, 10, 11, 13, 16, 42, 32, 34, 14, 26, 21, 33, 31, 19, 33, 15, 22, 28, 14, 31, 31, 14, 21, 36, 9, 16, 32, 7, 38, 19, 14, 29, 13, 28, 9, 38, 34, 27, 2, 17, 6, 30, 17, 15, 31, 21, 33, 13, 12, 14, 23, 29, 34, 3, 7, 26, 27, 31
            |19, 49, 23, 0, 27, 34, 45, 42, 43, 35, 29, 38, 37, 11, 44, 45, 21, 36, 51, 39, 40, 20, 52, 52, 14, 32, 13, 25, 45, 54, 54, 37, 17, 27, 51, 51, 41, 51, 38, 42, 28, 35, 45, 36, 35, 34, 35, 15, 39, 51, 29, 46, 19, 9, 16, 36, 25, 16, 45, 53, 9, 22, 7, 29, 47, 13, 32, 53, 11, 43, 31, 34, 28, 24, 11, 53, 21, 25, 45, 34, 45
            |10, 22, 11, 27, 0, 13, 18, 18, 28, 10, 2, 27, 34, 35, 20, 18, 14, 9, 25, 11, 13, 16, 25, 25, 18, 20, 21, 8, 33, 27, 26, 15, 23, 12, 24, 24, 23, 24, 16, 14, 21, 21, 20, 21, 8, 10, 27, 13, 16, 23, 8, 27, 15, 20, 27, 13, 22, 18, 27, 26, 28, 13, 23, 11, 20, 16, 5, 26, 21, 22, 22, 9, 4, 16, 29, 25, 10, 4, 18, 17, 20
            |15, 25, 23, 34, 13, 0, 15, 9, 16, 20, 11, 40, 47, 38, 11, 14, 13, 11, 30, 16, 12, 29, 21, 28, 29, 33, 32, 9, 20, 31, 25, 25, 23, 7, 20, 24, 34, 21, 26, 16, 13, 33, 11, 9, 16, 3, 17, 22, 26, 20, 21, 15, 15, 29, 27, 24, 17, 29, 14, 24, 30, 25, 32, 23, 16, 21, 10, 30, 24, 10, 35, 19, 9, 12, 31, 23, 22, 17, 19, 5, 12
            |26, 11, 27, 45, 18, 15, 0, 9, 25, 17, 16, 37, 46, 51, 9, 1, 27, 9, 18, 9, 5, 33, 7, 15, 36, 32, 39, 21, 30, 17, 10, 21, 37, 21, 6, 9, 28, 7, 21, 6, 28, 31, 9, 22, 13, 13, 31, 31, 20, 6, 21, 21, 28, 38, 41, 20, 31, 35, 22, 9, 43, 29, 41, 23, 3, 32, 13, 16, 36, 14, 34, 16, 17, 26, 44, 8, 27, 21, 5, 19, 8
            |24, 20, 29, 42, 18, 9, 9, 0, 16, 22, 16, 43, 51, 47, 2, 8, 22, 12, 27, 16, 10, 35, 14, 24, 36, 36, 39, 17, 21, 26, 18, 27, 32, 16, 12, 18, 35, 13, 28, 13, 21, 36, 2, 14, 18, 9, 22, 30, 27, 13, 25, 12, 24, 37, 36, 25, 25, 36, 13, 17, 39, 31, 40, 27, 8, 29, 14, 25, 33, 5, 39, 21, 16, 21, 39, 16, 28, 23, 14, 11, 3
            |27, 36, 38, 43, 28, 16, 25, 16, 0, 36, 26, 55, 62, 43, 16, 24, 23, 26, 43, 30, 25, 43, 29, 40, 42, 48, 45, 22, 5, 42, 34, 41, 28, 18, 27, 34, 49, 28, 42, 29, 15, 49, 17, 8, 31, 19, 10, 35, 41, 28, 36, 6, 25, 41, 31, 39, 19, 43, 4, 32, 37, 40, 44, 39, 24, 31, 26, 41, 32, 11, 50, 35, 25, 19, 36, 31, 37, 32, 30, 11, 18
            |20, 15, 13, 35, 10, 20, 17, 22, 36, 0, 11, 21, 30, 43, 24, 18, 24, 10, 16, 7, 13, 18, 22, 17, 22, 15, 25, 18, 40, 19, 21, 5, 33, 21, 22, 18, 13, 22, 6, 11, 30, 14, 23, 30, 4, 17, 36, 20, 6, 21, 6, 33, 25, 26, 37, 4, 32, 21, 33, 22, 37, 14, 29, 7, 20, 25, 10, 19, 30, 27, 18, 1, 13, 26, 38, 22, 14, 10, 14, 25, 22
            |11, 21, 13, 29, 2, 11, 16, 16, 26, 11, 0, 29, 36, 35, 18, 17, 14, 7, 25, 11, 11, 19, 23, 25, 20, 22, 23, 7, 31, 27, 25, 16, 23, 10, 22, 23, 24, 23, 17, 13, 19, 23, 18, 19, 8, 8, 26, 15, 17, 22, 10, 25, 14, 22, 27, 14, 21, 20, 25, 25, 28, 15, 25, 13, 19, 17, 4, 26, 21, 20, 24, 10, 2, 15, 29, 24, 12, 6, 17, 15, 18
            |33, 32, 19, 38, 27, 40, 37, 43, 55, 21, 29, 0, 10, 49, 44, 38, 39, 31, 28, 28, 33, 18, 41, 31, 24, 8, 25, 34, 60, 32, 39, 17, 45, 39, 42, 36, 11, 41, 16, 31, 47, 6, 44, 49, 25, 37, 54, 27, 17, 40, 19, 54, 38, 29, 47, 17, 47, 22, 54, 40, 44, 18, 31, 16, 40, 36, 30, 32, 39, 48, 7, 21, 31, 42, 46, 41, 22, 24, 33, 44, 43
            |37, 41, 24, 37, 34, 47, 46, 51, 62, 30, 36, 10, 0, 48, 53, 48, 43, 39, 38, 37, 42, 21, 51, 41, 25, 15, 25, 40, 66, 42, 49, 26, 48, 45, 51, 46, 21, 51, 26, 40, 52, 16, 52, 55, 34, 44, 60, 30, 27, 50, 27, 61, 42, 30, 49, 27, 52, 23, 61, 50, 45, 23, 30, 24, 49, 38, 37, 42, 41, 55, 12, 30, 38, 47, 47, 50, 26, 30, 43, 51, 52
            |25, 57, 33, 11, 35, 38, 51, 47, 43, 43, 35, 49, 48, 0, 48, 51, 24, 42, 59, 46, 46, 31, 58, 60, 25, 42, 24, 30, 44, 62, 60, 47, 16, 31, 57, 58, 51, 57, 47, 49, 29, 46, 49, 37, 43, 38, 34, 24, 48, 56, 38, 47, 22, 19, 12, 45, 24, 26, 46, 60, 7, 32, 18, 39, 52, 18, 39, 61, 14, 46, 42, 42, 34, 26, 7, 59, 30, 33, 52, 36, 49
            |25, 21, 31, 44, 20, 11, 9, 2, 16, 24, 18, 44, 53, 48, 0, 8, 24, 14, 27, 17, 11, 37, 13, 25, 38, 38, 41, 19, 21, 26, 18, 28, 33, 17, 11, 18, 36, 12, 29, 14, 22, 38, 1, 15, 19, 11, 23, 32, 28, 12, 26, 11, 26, 39, 37, 27, 26, 38, 12, 16, 41, 33, 42, 29, 8, 31, 16, 25, 35, 5, 41, 23, 18, 22, 41, 15, 30, 25, 15, 13, 2
            |26, 12, 28, 45, 18, 14, 1, 8, 24, 18, 17, 38, 48, 51, 8, 0, 27, 10, 19, 11, 6, 34, 7, 16, 36, 33, 39, 21, 29, 18, 11, 22, 37, 21, 6, 10, 29, 6, 22, 7, 27, 32, 7, 22, 14, 13, 30, 31, 22, 6, 22, 20, 28, 39, 41, 21, 31, 36, 20, 9, 44, 30, 42, 25, 2, 33, 13, 17, 37, 13, 36, 18, 17, 26, 44, 9, 28, 22, 7, 18, 6
            |6, 34, 20, 21, 14, 13, 27, 22, 23, 24, 14, 39, 43, 24, 24, 27, 0, 20, 39, 24, 23, 23, 34, 38, 20, 31, 22, 7, 25, 40, 37, 29, 10, 7, 33, 35, 36, 33, 30, 26, 9, 33, 25, 15, 22, 14, 17, 13, 30, 33, 21, 25, 2, 18, 14, 27, 9, 21, 24, 36, 17, 21, 21, 23, 28, 8, 17, 39, 10, 23, 32, 23, 12, 4, 17, 35, 17, 15, 29, 13, 25
            |18, 15, 18, 36, 9, 11, 9, 12, 26, 10, 7, 31, 39, 42, 14, 10, 20, 0, 19, 5, 4, 24, 16, 18, 26, 24, 29, 13, 31, 21, 18, 15, 30, 15, 16, 16, 23, 16, 16, 6, 23, 24, 13, 21, 6, 8, 28, 22, 15, 15, 13, 23, 21, 29, 34, 13, 26, 26, 24, 17, 35, 20, 32, 15, 12, 24, 4, 20, 28, 17, 27, 9, 8, 20, 36, 17, 18, 12, 10, 16, 13
            |35, 7, 28, 51, 25, 30, 18, 27, 43, 16, 25, 28, 38, 59, 27, 19, 39, 19, 0, 15, 18, 33, 17, 4, 38, 26, 41, 32, 48, 4, 13, 15, 48, 34, 19, 11, 17, 18, 14, 14, 43, 23, 26, 39, 17, 27, 47, 36, 13, 17, 22, 39, 39, 42, 52, 16, 45, 37, 39, 15, 53, 30, 45, 22, 20, 41, 22, 4, 46, 32, 29, 17, 27, 40, 54, 16, 30, 26, 12, 35, 25
            |21, 11, 18, 39, 11, 16, 9, 16, 30, 7, 11, 28, 37, 46, 17, 11, 24, 5, 15, 0, 6, 24, 15, 14, 28, 22, 31, 17, 35, 16, 15, 11, 34, 19, 15, 13, 19, 15, 12, 4, 28, 21, 16, 25, 4, 13, 33, 24, 11, 14, 12, 27, 25, 31, 38, 10, 31, 27, 28, 16, 39, 20, 34, 14, 13, 28, 8, 15, 32, 21, 25, 7, 13, 25, 40, 15, 19, 14, 7, 21, 16
            |21, 12, 22, 40, 13, 12, 5, 10, 25, 13, 11, 33, 42, 46, 11, 6, 23, 4, 18, 6, 0, 28, 12, 16, 31, 27, 34, 16, 30, 18, 14, 17, 33, 17, 11, 12, 25, 12, 18, 4, 25, 27, 11, 21, 9, 9, 29, 26, 17, 11, 16, 22, 24, 33, 37, 16, 28, 30, 22, 14, 39, 24, 36, 19, 8, 28, 8, 17, 32, 15, 30, 12, 12, 23, 40, 13, 22, 16, 7, 17, 10
            |17, 33, 6, 20, 16, 29, 33, 35, 43, 18, 19, 18, 21, 31, 37, 34, 23, 24, 33, 24, 28, 0, 39, 35, 6, 11, 8, 21, 47, 37, 39, 19, 27, 25, 39, 36, 21, 39, 19, 28, 32, 15, 37, 36, 20, 27, 40, 10, 20, 38, 12, 43, 22, 11, 29, 17, 31, 4, 43, 40, 26, 4, 13, 11, 36, 18, 21, 36, 21, 38, 11, 18, 19, 26, 28, 40, 7, 12, 32, 32, 36
            |33, 11, 33, 52, 25, 21, 7, 14, 29, 22, 23, 41, 51, 58, 13, 7, 34, 16, 17, 15, 12, 39, 0, 14, 42, 36, 45, 28, 34, 15, 5, 25, 44, 28, 2, 6, 31, 1, 25, 11, 34, 35, 12, 28, 19, 20, 36, 38, 24, 1, 27, 24, 35, 45, 48, 24, 38, 42, 25, 3, 51, 35, 48, 29, 6, 40, 20, 14, 44, 18, 39, 22, 24, 33, 51, 2, 34, 28, 8, 25, 11
            |35, 4, 30, 52, 25, 28, 15, 24, 40, 17, 25, 31, 41, 60, 25, 16, 38, 18, 4, 14, 16, 35, 14, 0, 40, 28, 42, 31, 45, 2, 9, 17, 48, 33, 15, 7, 20, 14, 16, 12, 41, 26, 24, 37, 17, 26, 45, 37, 16, 14, 23, 36, 39, 43, 52, 17, 44, 39, 37, 11, 53, 31, 46, 24, 17, 41, 21, 1, 46, 29, 31, 18, 26, 39, 54, 12, 31, 27, 10, 33, 23
            |15, 38, 10, 14, 18, 29, 36, 36, 42, 22, 20, 24, 25, 25, 38, 36, 20, 26, 38, 28, 31, 6, 42, 40, 0, 18, 3, 20, 45, 42, 43, 24, 22, 24, 42, 40, 27, 42, 25, 32, 29, 21, 38, 34, 24, 27, 37, 7, 25, 41, 17, 43, 18, 5, 24, 23, 28, 2, 42, 43, 20, 8, 7, 16, 38, 14, 23, 41, 16, 39, 17, 22, 20, 24, 22, 43, 9, 14, 35, 31, 38
            |25, 28, 11, 32, 20, 33, 32, 36, 48, 15, 22, 8, 15, 42, 38, 33, 31, 24, 26, 22, 27, 11, 36, 28, 18, 0, 19, 27, 52, 30, 35, 12, 37, 31, 37, 32, 11, 37, 12, 26, 39, 4, 38, 41, 19, 30, 47, 20, 13, 36, 12, 47, 30, 23, 40, 12, 40, 16, 47, 36, 37, 11, 25, 9, 35, 28, 23, 30, 32, 41, 3, 15, 23, 34, 39, 36, 14, 17, 28, 37, 37
            |17, 40, 13, 13, 21, 32, 39, 39, 45, 25, 23, 25, 25, 24, 41, 39, 22, 29, 41, 31, 34, 8, 45, 42, 3, 19, 0, 23, 48, 44, 46, 26, 24, 27, 45, 43, 29, 45, 27, 34, 32, 22, 41, 37, 27, 30, 39, 9, 28, 44, 19, 46, 21, 5, 25, 25, 30, 4, 45, 46, 20, 11, 6, 19, 41, 16, 26, 44, 17, 42, 18, 25, 23, 26, 23, 46, 11, 17, 38, 34, 41
            |6, 28, 16, 25, 8, 9, 21, 17, 22, 18, 7, 34, 40, 30, 19, 21, 7, 13, 32, 17, 16, 21, 28, 31, 20, 27, 23, 0, 26, 34, 30, 23, 17, 4, 27, 28, 31, 27, 24, 19, 13, 29, 20, 15, 15, 9, 20, 13, 24, 26, 16, 23, 8, 20, 21, 21, 14, 21, 22, 30, 23, 18, 23, 18, 22, 12, 10, 33, 16, 19, 29, 17, 5, 8, 23, 29, 14, 10, 23, 11, 20
            |31, 41, 42, 45, 33, 20, 30, 21, 5, 40, 31, 60, 66, 44, 21, 29, 25, 31, 48, 35, 30, 47, 34, 45, 45, 52, 48, 26, 0, 47, 39, 46, 29, 22, 32, 39, 54, 33, 47, 34, 17, 54, 22, 11, 36, 23, 10, 39, 46, 33, 41, 10, 27, 44, 32, 44, 20, 46, 9, 37, 38, 44, 46, 43, 29, 33, 31, 46, 34, 16, 54, 39, 29, 22, 37, 36, 40, 36, 36, 16, 23
            |37, 6, 32, 54, 27, 31, 17, 26, 42, 19, 27, 32, 42, 62, 26, 18, 40, 21, 4, 16, 18, 37, 15, 2, 42, 30, 44, 34, 47, 0, 10, 18, 50, 35, 17, 9, 21, 16, 18, 15, 43, 27, 25, 39, 19, 28, 47, 39, 17, 15, 25, 38, 41, 45, 54, 19, 46, 40, 38, 12, 55, 33, 48, 26, 18, 44, 24, 1, 48, 31, 33, 20, 29, 41, 56, 13, 33, 29, 12, 35, 24
            |35, 7, 34, 54, 26, 25, 10, 18, 34, 21, 25, 39, 49, 60, 18, 11, 37, 18, 13, 15, 14, 39, 5, 9, 43, 35, 46, 30, 39, 10, 0, 23, 47, 31, 7, 3, 28, 6, 23, 12, 38, 33, 17, 32, 19, 23, 41, 39, 22, 6, 27, 29, 38, 46, 51, 23, 42, 42, 30, 2, 53, 35, 49, 28, 10, 42, 21, 9, 46, 23, 38, 22, 26, 37, 54, 3, 35, 29, 8, 29, 16
            |24, 16, 14, 37, 15, 25, 21, 27, 41, 5, 16, 17, 26, 47, 28, 22, 29, 15, 15, 11, 17, 19, 25, 17, 24, 12, 26, 23, 46, 18, 23, 0, 38, 26, 25, 20, 8, 25, 1, 15, 36, 10, 28, 35, 9, 22, 42, 23, 1, 24, 9, 38, 29, 28, 41, 2, 37, 23, 39, 24, 40, 16, 31, 8, 24, 29, 15, 18, 34, 32, 15, 6, 18, 31, 42, 24, 17, 14, 17, 30, 27
            |13, 44, 26, 17, 23, 23, 37, 32, 28, 33, 23, 45, 48, 16, 33, 37, 10, 30, 48, 34, 33, 27, 44, 48, 22, 37, 24, 17, 29, 50, 47, 38, 0, 16, 42, 45, 44, 43, 39, 36, 13, 40, 34, 22, 31, 24, 19, 17, 39, 42, 29, 32, 9, 19, 4, 36, 9, 24, 31, 46, 9, 26, 20, 31, 38, 9, 26, 49, 6, 31, 38, 32, 21, 11, 8, 45, 23, 23, 39, 21, 34
            |9, 29, 21, 27, 12, 7, 21, 16, 18, 21, 10, 39, 45, 31, 17, 21, 7, 15, 34, 19, 17, 25, 28, 33, 24, 31, 27, 4, 22, 35, 31, 26, 16, 0, 26, 29, 34, 27, 27, 21, 9, 33, 18, 11, 18, 8, 16, 17, 27, 26, 20, 19, 9, 23, 21, 25, 11, 25, 19, 30, 24, 22, 26, 22, 22, 14, 12, 34, 17, 16, 33, 20, 8, 6, 24, 29, 18, 14, 24, 7, 18
            |32, 12, 33, 51, 24, 20, 6, 12, 27, 22, 22, 42, 51, 57, 11, 6, 33, 16, 19, 15, 11, 39, 2, 15, 42, 37, 45, 27, 32, 17, 7, 25, 42, 26, 0, 8, 32, 1, 26, 11, 32, 36, 10, 26, 19, 18, 34, 37, 25, 1, 27, 22, 34, 44, 47, 25, 36, 42, 23, 5, 49, 35, 47, 29, 4, 39, 19, 16, 42, 16, 40, 22, 23, 32, 50, 4, 34, 28, 9, 23, 9
            |33, 4, 31, 51, 24, 24, 9, 18, 34, 18, 23, 36, 46, 58, 18, 10, 35, 16, 11, 13, 12, 36, 6, 7, 40, 32, 43, 28, 39, 9, 3, 20, 45, 29, 8, 0, 25, 7, 20, 9, 37, 30, 17, 32, 17, 21, 40, 36, 19, 7, 24, 29, 36, 43, 49, 20, 40, 40, 30, 4, 51, 33, 47, 25, 10, 40, 19, 8, 44, 23, 35, 19, 24, 35, 52, 5, 32, 26, 6, 28, 16
            |31, 21, 19, 41, 23, 34, 28, 35, 49, 13, 24, 11, 21, 51, 36, 29, 36, 23, 17, 19, 25, 21, 31, 20, 27, 11, 29, 31, 54, 21, 28, 8, 44, 34, 32, 25, 0, 31, 7, 22, 43, 7, 35, 43, 17, 30, 50, 28, 8, 30, 15, 46, 36, 32, 47, 10, 44, 26, 47, 30, 46, 19, 34, 13, 31, 35, 23, 21, 40, 40, 13, 14, 26, 38, 47, 30, 22, 21, 23, 38, 35
            |33, 11, 33, 51, 24, 21, 7, 13, 28, 22, 23, 41, 51, 57, 12, 6, 33, 16, 18, 15, 12, 39, 1, 14, 42, 37, 45, 27, 33, 16, 6, 25, 43, 27, 1, 7, 31, 0, 25, 11, 33, 35, 11, 27, 19, 19, 35, 37, 24, 1, 27, 23, 35, 45, 47, 25, 37, 42, 24, 4, 50, 35, 48, 29, 5, 39, 19, 15, 43, 17, 40, 22, 24, 33, 50, 3, 34, 28, 8, 24, 10
            |25, 16, 15, 38, 16, 26, 21, 28, 42, 6, 17, 16, 26, 47, 29, 22, 30, 16, 14, 12, 18, 19, 25, 16, 25, 12, 27, 24, 47, 18, 23, 1, 39, 27, 26, 20, 7, 25, 0, 15, 36, 10, 28, 36, 10, 23, 43, 24, 1, 24, 9, 39, 30, 29, 42, 3, 38, 23, 39, 24, 41, 16, 32, 9, 24, 30, 16, 18, 35, 33, 15, 7, 19, 32, 43, 25, 17, 15, 17, 31, 28
            |24, 9, 22, 42, 14, 16, 6, 13, 29, 11, 13, 31, 40, 49, 14, 7, 26, 6, 14, 4, 4, 28, 11, 12, 32, 26, 34, 19, 34, 15, 12, 15, 36, 21, 11, 9, 22, 11, 15, 0, 29, 25, 14, 25, 8, 13, 33, 27, 14, 10, 16, 25, 27, 34, 40, 14, 32, 31, 26, 12, 42, 24, 38, 18, 9, 30, 10, 14, 35, 19, 29, 11, 15, 26, 43, 11, 23, 17, 4, 21, 13
            |15, 37, 28, 28, 21, 13, 28, 21, 15, 30, 19, 47, 52, 29, 22, 27, 9, 23, 43, 28, 25, 32, 34, 41, 29, 39, 32, 13, 17, 43, 38, 36, 13, 9, 32, 37, 43, 33, 36, 29, 0, 41, 23, 9, 27, 16, 8, 23, 36, 33, 28, 19, 11, 27, 17, 34, 4, 30, 17, 37, 22, 29, 30, 31, 28, 17, 21, 42, 17, 19, 41, 29, 17, 6, 21, 36, 26, 23, 32, 9, 23
            |28, 26, 14, 35, 21, 33, 31, 36, 49, 14, 23, 6, 16, 46, 38, 32, 33, 24, 23, 21, 27, 15, 35, 26, 21, 4, 22, 29, 54, 27, 33, 10, 40, 33, 36, 30, 7, 35, 10, 25, 41, 0, 37, 42, 19, 30, 48, 23, 11, 34, 13, 47, 33, 26, 43, 11, 42, 19, 47, 35, 40, 14, 28, 10, 34, 31, 23, 27, 35, 41, 6, 15, 25, 36, 42, 35, 17, 18, 27, 38, 37
            |26, 20, 31, 45, 20, 11, 9, 2, 17, 23, 18, 44, 52, 49, 1, 7, 25, 13, 26, 16, 11, 37, 12, 24, 38, 38, 41, 20, 22, 25, 17, 28, 34, 18, 10, 17, 35, 11, 28, 14, 23, 37, 0, 16, 19, 11, 24, 32, 28, 11, 26, 12, 26, 39, 38, 26, 27, 38, 13, 15, 42, 33, 42, 29, 7, 32, 16, 24, 35, 6, 40, 22, 18, 23, 42, 14, 30, 24, 14, 13, 1
            |20, 33, 31, 36, 21, 9, 22, 14, 8, 30, 19, 49, 55, 37, 15, 22, 15, 21, 39, 25, 21, 36, 28, 37, 34, 41, 37, 15, 11, 39, 32, 35, 22, 11, 26, 32, 43, 27, 36, 25, 9, 42, 16, 0, 26, 13, 8, 28, 35, 27, 29, 10, 17, 34, 25, 33, 13, 35, 9, 31, 30, 33, 36, 32, 22, 23, 20, 38, 25, 11, 43, 29, 18, 12, 30, 30, 29, 25, 27, 4, 17
            |18, 14, 14, 35, 8, 16, 13, 18, 31, 4, 8, 25, 34, 43, 19, 14, 22, 6, 17, 4, 9, 20, 19, 17, 24, 19, 27, 15, 36, 19, 19, 9, 31, 18, 19, 17, 17, 19, 10, 8, 27, 19, 19, 26, 0, 13, 33, 20, 10, 18, 8, 29, 22, 27, 35, 8, 29, 23, 29, 20, 36, 16, 30, 10, 16, 24, 6, 18, 29, 23, 22, 4, 10, 23, 37, 19, 15, 10, 11, 21, 18
            |15, 22, 21, 34, 10, 3, 13, 9, 19, 17, 8, 37, 44, 38, 11, 13, 14, 8, 27, 13, 9, 27, 20, 26, 27, 30, 30, 9, 23, 28, 23, 22, 24, 8, 18, 21, 30, 19, 23, 13, 16, 30, 11, 13, 13, 0, 20, 21, 23, 18, 18, 17, 16, 28, 28, 21, 19, 27, 17, 22, 31, 23, 31, 21, 14, 21, 7, 27, 24, 12, 32, 16, 7, 14, 31, 21, 20, 14, 16, 8, 11
            |23, 41, 36, 35, 27, 17, 31, 22, 10, 36, 26, 54, 60, 34, 23, 30, 17, 28, 47, 33, 29, 40, 36, 45, 37, 47, 39, 20, 10, 47, 41, 42, 19, 16, 34, 40, 50, 35, 43, 33, 8, 48, 24, 8, 33, 20, 0, 30, 42, 35, 35, 16, 19, 35, 22, 40, 10, 38, 14, 39, 28, 37, 37, 38, 30, 24, 27, 46, 24, 18, 48, 35, 24, 13, 27, 38, 33, 30, 35, 12, 25
            |8, 34, 9, 15, 13, 22, 31, 30, 35, 20, 15, 27, 30, 24, 32, 31, 13, 22, 36, 24, 26, 10, 38, 37, 7, 20, 9, 13, 39, 39, 39, 23, 17, 17, 37, 36, 28, 37, 24, 27, 23, 23, 32, 28, 20, 21, 30, 0, 24, 36, 14, 36, 12, 7, 20, 21, 21, 8, 36, 39, 18, 9, 10, 15, 33, 8, 18, 38, 12, 32, 20, 19, 14, 17, 19, 38, 6, 10, 31, 24, 32
            |25, 15, 16, 39, 16, 26, 20, 27, 41, 6, 17, 17, 27, 48, 28, 22, 30, 15, 13, 11, 17, 20, 24, 16, 25, 13, 28, 24, 46, 17, 22, 1, 39, 27, 25, 19, 8, 24, 1, 14, 36, 11, 28, 35, 10, 23, 42, 24, 0, 23, 10, 39, 30, 30, 42, 3, 38, 24, 39, 23, 42, 17, 33, 9, 23, 31, 16, 17, 35, 32, 16, 7, 19, 32, 43, 24, 18, 16, 16, 31, 27
            |32, 11, 32, 51, 23, 20, 6, 13, 28, 21, 22, 40, 50, 56, 12, 6, 33, 15, 17, 14, 11, 38, 1, 14, 41, 36, 44, 26, 33, 15, 6, 24, 42, 26, 1, 7, 30, 1, 24, 10, 33, 34, 11, 27, 18, 18, 35, 36, 23, 0, 26, 23, 34, 44, 47, 24, 37, 41, 24, 4, 49, 34, 47, 28, 4, 38, 18, 14, 42, 17, 39, 21, 23, 32, 50, 3, 33, 27, 7, 24, 10
            |16, 21, 7, 29, 8, 21, 21, 25, 36, 6, 10, 19, 27, 38, 26, 22, 21, 13, 22, 12, 16, 12, 27, 23, 17, 12, 19, 16, 41, 25, 27, 9, 29, 20, 27, 24, 15, 27, 9, 16, 28, 13, 26, 29, 8, 18, 35, 14, 10, 26, 0, 35, 21, 21, 33, 7, 29, 16, 35, 27, 32, 9, 23, 3, 24, 21, 11, 24, 25, 29, 14, 5, 12, 24, 33, 27, 8, 6, 19, 25, 26
            |29, 32, 38, 46, 27, 15, 21, 12, 6, 33, 25, 54, 61, 47, 11, 20, 25, 23, 39, 27, 22, 43, 24, 36, 43, 47, 46, 23, 10, 38, 29, 38, 32, 19, 22, 29, 46, 23, 39, 25, 19, 47, 12, 10, 29, 17, 16, 36, 39, 23, 35, 0, 27, 43, 35, 37, 23, 44, 1, 27, 41, 40, 46, 38, 19, 33, 24, 37, 35, 7, 49, 33, 24, 22, 40, 26, 37, 31, 26, 12, 13
            |5, 36, 19, 19, 15, 15, 28, 24, 25, 25, 14, 38, 42, 22, 26, 28, 2, 21, 39, 25, 24, 22, 35, 39, 18, 30, 21, 8, 27, 41, 38, 29, 9, 9, 34, 36, 36, 35, 30, 27, 11, 33, 26, 17, 22, 16, 19, 12, 30, 34, 21, 27, 0, 17, 13, 27, 9, 20, 26, 37, 15, 20, 19, 23, 30, 6, 17, 40, 9, 25, 31, 24, 13, 5, 16, 37, 16, 15, 31, 15, 27
            |14, 41, 14, 9, 20, 29, 38, 37, 41, 26, 22, 29, 30, 19, 39, 39, 18, 29, 42, 31, 33, 11, 45, 43, 5, 23, 5, 20, 44, 45, 46, 28, 19, 23, 44, 43, 32, 45, 29, 34, 27, 26, 39, 34, 27, 28, 35, 7, 30, 44, 21, 43, 17, 0, 20, 27, 25, 7, 42, 46, 15, 13, 3, 21, 41, 11, 25, 45, 12, 39, 22, 26, 21, 22, 17, 46, 12, 17, 38, 31, 39
            |17, 49, 29, 16, 27, 27, 41, 36, 31, 37, 27, 47, 49, 12, 37, 41, 14, 34, 52, 38, 37, 29, 48, 52, 24, 40, 25, 21, 32, 54, 51, 41, 4, 21, 47, 49, 47, 47, 42, 40, 17, 43, 38, 25, 35, 28, 22, 20, 42, 47, 33, 35, 13, 20, 0, 39, 12, 26, 34, 50, 7, 29, 20, 34, 42, 12, 31, 53, 8, 35, 40, 36, 26, 15, 5, 50, 26, 27, 44, 25, 39
            |22, 16, 13, 36, 13, 24, 20, 25, 39, 4, 14, 17, 27, 45, 27, 21, 27, 13, 16, 10, 16, 17, 24, 17, 23, 12, 25, 21, 44, 19, 23, 2, 36, 25, 25, 20, 10, 25, 3, 14, 34, 11, 26, 33, 8, 21, 40, 21, 3, 24, 7, 37, 27, 27, 39, 0, 35, 21, 37, 24, 38, 14, 30, 6, 23, 28, 13, 19, 32, 30, 15, 4, 16, 29, 40, 24, 15, 12, 16, 29, 26
            |14, 40, 28, 25, 22, 17, 31, 25, 19, 32, 21, 47, 52, 24, 26, 31, 9, 26, 45, 31, 28, 31, 38, 44, 28, 40, 30, 14, 20, 46, 42, 37, 9, 11, 36, 40, 44, 37, 38, 32, 4, 42, 27, 13, 29, 19, 10, 21, 38, 37, 29, 23, 9, 25, 12, 35, 0, 29, 22, 40, 18, 29, 27, 32, 32, 14, 23, 46, 14, 23, 41, 31, 19, 6, 17, 40, 25, 24, 35, 13, 28
            |16, 37, 9, 16, 18, 29, 35, 36, 43, 21, 20, 22, 23, 26, 38, 36, 21, 26, 37, 27, 30, 4, 42, 39, 2, 16, 4, 21, 46, 40, 42, 23, 24, 25, 42, 40, 26, 42, 23, 31, 30, 19, 38, 35, 23, 27, 38, 8, 24, 41, 16, 44, 20, 7, 26, 21, 29, 0, 43, 43, 22, 7, 9, 15, 38, 15, 23, 40, 18, 39, 15, 21, 20, 25, 24, 42, 8, 14, 34, 32, 38
            |28, 33, 38, 45, 27, 14, 22, 13, 4, 33, 25, 54, 61, 46, 12, 20, 24, 24, 39, 28, 22, 43, 25, 37, 42, 47, 45, 22, 9, 38, 30, 39, 31, 19, 23, 30, 47, 24, 39, 26, 17, 47, 13, 9, 29, 17, 14, 36, 39, 24, 35, 1, 26, 42, 34, 37, 22, 43, 0, 28, 39, 39, 45, 38, 20, 32, 24, 37, 34, 7, 49, 33, 24, 21, 39, 27, 36, 31, 27, 11, 14
            |35, 9, 34, 53, 26, 24, 9, 17, 32, 22, 25, 40, 50, 60, 16, 9, 36, 17, 15, 16, 14, 40, 3, 11, 43, 36, 46, 30, 37, 12, 2, 24, 46, 30, 5, 4, 30, 4, 24, 12, 37, 35, 15, 31, 20, 22, 39, 39, 23, 4, 27, 27, 37, 46, 50, 24, 40, 43, 28, 0, 52, 36, 49, 29, 9, 41, 21, 11, 45, 21, 39, 22, 26, 36, 53, 1, 35, 29, 8, 28, 14
            |18, 50, 27, 9, 28, 30, 43, 39, 37, 37, 28, 44, 45, 7, 41, 44, 17, 35, 53, 39, 39, 26, 51, 53, 20, 37, 20, 23, 38, 55, 53, 40, 9, 24, 49, 51, 46, 50, 41, 42, 22, 40, 42, 30, 36, 31, 28, 18, 42, 49, 32, 41, 15, 15, 7, 38, 18, 22, 39, 52, 0, 26, 15, 33, 45, 11, 32, 54, 7, 39, 37, 36, 27, 19, 2, 52, 24, 26, 45, 29, 42
            |15, 30, 2, 22, 13, 25, 29, 31, 40, 14, 15, 18, 23, 32, 33, 30, 21, 20, 30, 20, 24, 4, 35, 31, 8, 11, 11, 18, 44, 33, 35, 16, 26, 22, 35, 33, 19, 35, 16, 24, 29, 14, 33, 33, 16, 23, 37, 9, 17, 34, 9, 40, 20, 13, 29, 14, 29, 7, 39, 36, 26, 0, 16, 8, 32, 17, 17, 33, 21, 35, 12, 14, 16, 24, 28, 36, 4, 9, 28, 29, 33
            |17, 44, 17, 7, 23, 32, 41, 40, 44, 29, 25, 31, 30, 18, 42, 42, 21, 32, 45, 34, 36, 13, 48, 46, 7, 25, 6, 23, 46, 48, 49, 31, 20, 26, 47, 47, 34, 48, 32, 38, 30, 28, 42, 36, 30, 31, 37, 10, 33, 47, 23, 46, 19, 3, 20, 30, 27, 9, 45, 49, 15, 16, 0, 23, 44, 13, 28, 48, 13, 42, 24, 29, 25, 24, 17, 49, 15, 20, 41, 33, 42
            |18, 22, 6, 29, 11, 23, 23, 27, 39, 7, 13, 16, 24, 39, 29, 25, 23, 15, 22, 14, 19, 11, 29, 24, 16, 9, 19, 18, 43, 26, 28, 8, 31, 22, 29, 25, 13, 29, 9, 18, 31, 10, 29, 32, 10, 21, 38, 15, 9, 28, 3, 38, 23, 21, 34, 6, 32, 15, 38, 29, 33, 8, 23, 0, 26, 22, 14, 25, 27, 32, 12, 7, 14, 26, 34, 29, 9, 8, 21, 28, 28
            |28, 13, 30, 47, 20, 16, 3, 8, 24, 20, 19, 40, 49, 52, 8, 2, 28, 12, 20, 13, 8, 36, 6, 17, 38, 35, 41, 22, 29, 18, 10, 24, 38, 22, 4, 10, 31, 5, 24, 9, 28, 34, 7, 22, 16, 14, 30, 33, 23, 4, 24, 19, 30, 41, 42, 23, 32, 38, 20, 9, 45, 32, 44, 26, 0, 34, 15, 17, 38, 13, 38, 20, 19, 28, 46, 8, 30, 24, 8, 19, 6
            |6, 38, 17, 13, 16, 21, 32, 29, 31, 25, 17, 36, 38, 18, 31, 33, 8, 24, 41, 28, 28, 18, 40, 41, 14, 28, 16, 12, 33, 44, 42, 29, 9, 14, 39, 40, 35, 39, 30, 30, 17, 31, 32, 23, 24, 21, 24, 8, 31, 38, 21, 33, 6, 11, 12, 28, 14, 15, 32, 41, 11, 17, 13, 22, 34, 0, 21, 43, 4, 30, 29, 25, 16, 11, 13, 41, 14, 15, 34, 21, 32
            |14, 18, 15, 32, 5, 10, 13, 14, 26, 10, 4, 30, 37, 39, 16, 13, 17, 4, 22, 8, 8, 21, 20, 21, 23, 23, 26, 10, 31, 24, 21, 15, 26, 12, 19, 19, 23, 19, 16, 10, 21, 23, 16, 20, 6, 7, 27, 18, 16, 18, 11, 24, 17, 25, 31, 13, 23, 23, 24, 21, 32, 17, 28, 14, 15, 21, 0, 23, 25, 18, 25, 9, 5, 17, 33, 21, 15, 9, 13, 15, 15
            |37, 5, 31, 53, 26, 30, 16, 25, 41, 19, 26, 32, 42, 61, 25, 17, 39, 20, 4, 15, 17, 36, 14, 1, 41, 30, 44, 33, 46, 1, 9, 18, 49, 34, 16, 8, 21, 15, 18, 14, 42, 27, 24, 38, 18, 27, 46, 38, 17, 14, 24, 37, 40, 45, 53, 19, 46, 40, 37, 11, 54, 33, 48, 25, 17, 43, 23, 0, 47, 30, 33, 19, 28, 40, 55, 12, 33, 28, 11, 34, 23
            |11, 43, 21, 11, 21, 24, 36, 33, 32, 30, 21, 39, 41, 14, 35, 37, 10, 28, 46, 32, 32, 21, 44, 46, 16, 32, 17, 16, 34, 48, 46, 34, 6, 17, 42, 44, 40, 43, 35, 35, 17, 35, 35, 25, 29, 24, 24, 12, 35, 42, 25, 35, 9, 12, 8, 32, 14, 18, 34, 45, 7, 21, 13, 27, 38, 4, 25, 47, 0, 33, 32, 29, 20, 13, 8, 45, 18, 20, 38, 23, 35
            |25, 25, 33, 43, 22, 10, 14, 5, 11, 27, 20, 48, 55, 46, 5, 13, 23, 17, 32, 21, 15, 38, 18, 29, 39, 41, 42, 19, 16, 31, 23, 32, 31, 16, 16, 23, 40, 17, 33, 19, 19, 41, 6, 11, 23, 12, 18, 32, 32, 17, 29, 7, 25, 39, 35, 30, 23, 39, 7, 21, 39, 35, 42, 32, 13, 30, 18, 30, 33, 0, 43, 26, 19, 20, 39, 20, 32, 26, 20, 10, 7
            |26, 31, 13, 31, 22, 35, 34, 39, 50, 18, 24, 7, 12, 42, 41, 36, 32, 27, 29, 25, 30, 11, 39, 31, 17, 3, 18, 29, 54, 33, 38, 15, 38, 33, 40, 35, 13, 40, 15, 29, 41, 6, 40, 43, 22, 32, 48, 20, 16, 39, 14, 49, 31, 22, 40, 15, 41, 15, 49, 39, 37, 12, 24, 12, 38, 29, 25, 33, 32, 43, 0, 18, 25, 35, 39, 39, 15, 18, 31, 39, 40
            |19, 16, 12, 34, 9, 19, 16, 21, 35, 1, 10, 21, 30, 42, 23, 18, 23, 9, 17, 7, 12, 18, 22, 18, 22, 15, 25, 17, 39, 20, 22, 6, 32, 20, 22, 19, 14, 22, 7, 11, 29, 15, 22, 29, 4, 16, 35, 19, 7, 21, 5, 33, 24, 26, 36, 4, 31, 21, 33, 22, 36, 14, 29, 7, 20, 25, 9, 19, 29, 26, 18, 0, 12, 25, 37, 22, 14, 9, 14, 24, 22
            |9, 23, 14, 28, 4, 9, 17, 16, 25, 13, 2, 31, 38, 34, 18, 17, 12, 8, 27, 13, 12, 19, 24, 26, 20, 23, 23, 5, 29, 29, 26, 18, 21, 8, 23, 24, 26, 24, 19, 15, 17, 25, 18, 18, 10, 7, 24, 14, 19, 23, 12, 24, 13, 21, 26, 16, 19, 20, 24, 26, 27, 16, 25, 14, 19, 16, 5, 28, 20, 19, 25, 12, 0, 13, 28, 25, 13, 7, 18, 13, 18
            |9, 35, 23, 24, 16, 12, 26, 21, 19, 26, 15, 42, 47, 26, 22, 26, 4, 20, 40, 25, 23, 26, 33, 39, 24, 34, 26, 8, 22, 41, 37, 31, 11, 6, 32, 35, 38, 33, 32, 26, 6, 36, 23, 12, 23, 14, 13, 17, 32, 32, 24, 22, 5, 22, 15, 29, 6, 25, 21, 36, 19, 24, 24, 26, 28, 11, 17, 40, 13, 20, 35, 25, 13, 0, 19, 35, 20, 18, 30, 10, 24
            |19, 51, 29, 11, 29, 31, 44, 39, 36, 38, 29, 46, 47, 7, 41, 44, 17, 36, 54, 40, 40, 28, 51, 54, 22, 39, 23, 23, 37, 56, 54, 42, 8, 24, 50, 52, 47, 50, 43, 43, 21, 42, 42, 30, 37, 31, 27, 19, 43, 50, 33, 40, 16, 17, 5, 40, 17, 24, 39, 53, 2, 28, 17, 34, 46, 13, 33, 55, 8, 39, 39, 37, 28, 19, 0, 52, 26, 28, 46, 29, 42
            |34, 9, 34, 53, 25, 23, 8, 16, 31, 22, 24, 41, 50, 59, 15, 9, 35, 17, 16, 15, 13, 40, 2, 12, 43, 36, 46, 29, 36, 13, 3, 24, 45, 29, 4, 5, 30, 3, 25, 11, 36, 35, 14, 30, 19, 21, 38, 38, 24, 3, 27, 26, 37, 46, 50, 24, 40, 42, 27, 1, 52, 36, 49, 29, 8, 41, 21, 12, 45, 20, 39, 22, 25, 35, 52, 0, 34, 29, 8, 27, 13
            |11, 29, 3, 21, 10, 22, 27, 28, 37, 14, 12, 22, 26, 30, 30, 28, 17, 18, 30, 19, 22, 7, 34, 31, 9, 14, 11, 14, 40, 33, 35, 17, 23, 18, 34, 32, 22, 34, 17, 23, 26, 17, 30, 29, 15, 20, 33, 6, 18, 33, 8, 37, 16, 12, 26, 15, 25, 8, 36, 35, 24, 4, 15, 9, 30, 14, 15, 33, 18, 32, 15, 14, 13, 20, 26, 34, 0, 6, 27, 25, 30
            |10, 24, 7, 25, 4, 17, 21, 23, 32, 10, 6, 24, 30, 33, 25, 22, 15, 12, 26, 14, 16, 12, 28, 27, 14, 17, 17, 10, 36, 29, 29, 14, 23, 14, 28, 26, 21, 28, 15, 17, 23, 18, 24, 25, 10, 14, 30, 10, 16, 27, 6, 31, 15, 17, 27, 12, 24, 14, 31, 29, 26, 9, 20, 8, 24, 15, 9, 28, 20, 26, 18, 9, 7, 18, 28, 29, 6, 0, 21, 21, 24
            |28, 6, 26, 45, 18, 19, 5, 14, 30, 14, 17, 33, 43, 52, 15, 7, 29, 10, 12, 7, 7, 32, 8, 10, 35, 28, 38, 23, 36, 12, 8, 17, 39, 24, 9, 6, 23, 8, 17, 4, 32, 27, 14, 27, 11, 16, 35, 31, 16, 7, 19, 26, 31, 38, 44, 16, 35, 34, 27, 8, 45, 28, 41, 21, 8, 34, 13, 11, 38, 20, 31, 14, 18, 30, 46, 8, 27, 21, 0, 23, 13
            |16, 29, 27, 34, 17, 5, 19, 11, 11, 25, 15, 44, 51, 36, 13, 18, 13, 16, 35, 21, 17, 32, 25, 33, 31, 37, 34, 11, 16, 35, 29, 30, 21, 7, 23, 28, 38, 24, 31, 21, 9, 38, 13, 4, 21, 8, 12, 24, 31, 24, 25, 12, 15, 31, 25, 29, 13, 32, 11, 28, 29, 29, 33, 28, 19, 21, 15, 34, 23, 10, 39, 24, 13, 10, 29, 27, 25, 21, 23, 0, 14
            |26, 19, 31, 45, 20, 12, 8, 3, 18, 22, 18, 43, 52, 49, 2, 6, 25, 13, 25, 16, 10, 36, 11, 23, 38, 37, 41, 20, 23, 24, 16, 27, 34, 18, 9, 16, 35, 10, 28, 13, 23, 37, 1, 17, 18, 11, 25, 32, 27, 10, 26, 13, 27, 39, 39, 26, 28, 38, 14, 14, 42, 33, 42, 28, 6, 32, 15, 23, 35, 7, 40, 22, 18, 24, 42, 13, 30, 24, 13, 14, 0|];