% n80w140.005	   40.71 797
n = 81;
duration = [|0, 31, 20, 31, 10, 20, 19, 26, 23, 13, 16, 4, 23, 19, 11, 18, 23, 18, 24, 27, 5, 9, 17, 17, 16, 19, 10, 21, 17, 25, 26, 1, 26, 4, 25, 22, 13, 32, 24, 25, 28, 21, 24, 21, 28, 20, 8, 17, 40, 18, 5, 29, 32, 13, 29, 10, 20, 14, 37, 29, 32, 24, 7, 17, 12, 29, 30, 8, 30, 11, 25, 31, 14, 14, 26, 34, 18, 4, 20, 23, 19
            |31, 0, 22, 8, 41, 25, 47, 41, 14, 44, 22, 34, 20, 20, 20, 39, 8, 37, 54, 14, 35, 39, 47, 45, 46, 37, 31, 49, 47, 29, 42, 32, 28, 35, 46, 24, 26, 35, 27, 35, 48, 42, 55, 51, 22, 17, 25, 40, 12, 49, 28, 26, 15, 40, 29, 33, 20, 23, 12, 38, 41, 43, 35, 16, 19, 2, 41, 35, 5, 34, 9, 35, 36, 22, 57, 11, 49, 28, 37, 53, 48
            |20, 22, 0, 17, 27, 31, 29, 19, 8, 31, 5, 24, 30, 3, 14, 19, 18, 16, 43, 29, 25, 29, 32, 38, 36, 16, 27, 41, 38, 8, 20, 21, 7, 23, 25, 2, 26, 44, 35, 13, 26, 21, 41, 33, 7, 5, 13, 37, 25, 36, 22, 38, 14, 22, 39, 16, 27, 6, 21, 17, 19, 21, 19, 8, 17, 20, 19, 19, 18, 16, 22, 15, 16, 24, 45, 18, 37, 21, 15, 43, 39
            |31, 8, 17, 0, 40, 30, 45, 36, 9, 44, 19, 35, 26, 16, 20, 36, 11, 33, 55, 21, 36, 40, 46, 47, 47, 33, 33, 51, 48, 23, 37, 32, 21, 35, 42, 18, 29, 41, 33, 29, 43, 38, 54, 49, 16, 13, 24, 43, 8, 49, 30, 33, 7, 38, 35, 31, 25, 20, 6, 32, 35, 38, 33, 14, 21, 8, 35, 34, 3, 31, 14, 29, 32, 26, 57, 4, 50, 29, 33, 54, 49
            |10, 41, 27, 40, 0, 29, 10, 25, 32, 4, 23, 8, 33, 26, 21, 15, 34, 17, 16, 37, 9, 8, 6, 16, 11, 18, 17, 17, 13, 29, 24, 9, 31, 7, 21, 28, 22, 40, 33, 27, 23, 18, 14, 11, 34, 28, 16, 20, 49, 9, 15, 38, 40, 8, 37, 12, 30, 21, 46, 30, 32, 21, 8, 26, 22, 39, 29, 8, 39, 12, 35, 33, 14, 24, 18, 43, 10, 14, 20, 17, 14
            |20, 25, 31, 30, 29, 0, 39, 44, 28, 31, 27, 21, 6, 28, 17, 37, 19, 37, 35, 13, 20, 23, 35, 24, 28, 37, 12, 28, 28, 38, 44, 21, 38, 23, 45, 33, 7, 14, 4, 41, 48, 41, 39, 40, 36, 27, 21, 18, 37, 34, 15, 9, 35, 33, 9, 29, 5, 26, 36, 45, 48, 43, 27, 23, 14, 24, 47, 28, 27, 31, 16, 45, 33, 7, 38, 34, 33, 16, 38, 34, 29
            |19, 47, 29, 45, 10, 39, 0, 19, 36, 11, 26, 18, 42, 30, 28, 12, 40, 14, 22, 46, 19, 18, 8, 25, 19, 15, 28, 26, 22, 29, 18, 18, 31, 16, 13, 30, 32, 50, 43, 25, 15, 12, 16, 4, 35, 32, 23, 30, 53, 13, 24, 48, 44, 8, 47, 14, 39, 25, 50, 26, 28, 15, 13, 31, 30, 45, 25, 12, 45, 14, 43, 30, 13, 33, 22, 47, 16, 23, 17, 23, 22
            |26, 41, 19, 36, 25, 44, 19, 0, 27, 27, 20, 27, 45, 21, 28, 9, 36, 8, 40, 46, 30, 31, 26, 40, 36, 7, 36, 42, 38, 14, 1, 25, 16, 26, 8, 18, 37, 57, 48, 8, 8, 7, 35, 24, 22, 24, 23, 42, 43, 31, 30, 52, 32, 16, 53, 16, 42, 19, 39, 7, 8, 4, 19, 26, 31, 39, 5, 19, 37, 14, 40, 12, 12, 37, 41, 36, 34, 29, 6, 41, 39
            |23, 14, 8, 9, 32, 28, 36, 27, 0, 35, 9, 27, 25, 6, 13, 26, 11, 24, 47, 23, 28, 32, 38, 40, 39, 24, 27, 44, 41, 15, 28, 24, 13, 27, 32, 9, 25, 41, 32, 20, 34, 29, 46, 40, 9, 4, 16, 38, 17, 40, 23, 33, 9, 28, 35, 22, 23, 11, 14, 24, 27, 29, 24, 6, 15, 13, 27, 25, 10, 22, 16, 21, 23, 22, 49, 11, 41, 22, 23, 47, 42
            |13, 44, 31, 44, 4, 31, 11, 27, 35, 0, 26, 10, 35, 30, 25, 18, 37, 20, 13, 40, 11, 8, 4, 14, 9, 21, 19, 15, 11, 33, 26, 13, 34, 10, 22, 32, 24, 41, 34, 30, 25, 20, 11, 10, 38, 32, 20, 19, 52, 5, 17, 40, 44, 11, 38, 15, 32, 25, 49, 33, 35, 24, 12, 30, 25, 42, 32, 11, 43, 16, 38, 36, 17, 26, 15, 47, 7, 17, 23, 14, 12
            |16, 22, 5, 19, 23, 27, 26, 20, 9, 26, 0, 19, 26, 4, 9, 17, 16, 15, 38, 26, 21, 24, 28, 33, 31, 15, 22, 36, 33, 12, 21, 16, 12, 18, 24, 7, 22, 40, 31, 15, 26, 20, 37, 30, 12, 6, 8, 32, 27, 31, 17, 34, 18, 19, 35, 12, 23, 1, 24, 19, 22, 21, 15, 6, 12, 20, 21, 16, 19, 13, 20, 19, 14, 20, 41, 21, 33, 16, 15, 38, 34
            |4, 34, 24, 35, 8, 21, 18, 27, 27, 10, 19, 0, 25, 22, 15, 19, 27, 19, 20, 30, 2, 5, 14, 14, 13, 20, 10, 17, 14, 28, 27, 3, 29, 1, 25, 25, 14, 33, 25, 28, 28, 22, 20, 19, 31, 24, 11, 15, 43, 15, 7, 31, 36, 13, 29, 12, 22, 18, 41, 31, 34, 25, 8, 21, 15, 32, 31, 9, 33, 13, 28, 33, 16, 16, 23, 38, 15, 6, 22, 20, 15
            |23, 20, 30, 26, 33, 6, 42, 45, 25, 35, 26, 25, 0, 27, 17, 39, 15, 38, 40, 7, 24, 27, 39, 30, 33, 38, 16, 34, 33, 38, 45, 24, 37, 26, 47, 32, 11, 16, 7, 41, 49, 43, 43, 44, 34, 25, 22, 24, 32, 39, 18, 8, 32, 36, 9, 31, 3, 26, 32, 45, 48, 45, 30, 21, 14, 19, 47, 31, 23, 32, 12, 45, 35, 9, 43, 30, 37, 19, 39, 39, 34
            |19, 20, 3, 16, 26, 28, 30, 21, 6, 30, 4, 22, 27, 0, 11, 20, 15, 17, 42, 26, 24, 28, 32, 36, 35, 17, 25, 40, 36, 11, 22, 19, 10, 22, 26, 5, 24, 42, 32, 15, 28, 22, 41, 34, 9, 3, 11, 35, 24, 35, 20, 35, 14, 22, 36, 16, 24, 5, 20, 19, 22, 23, 18, 6, 14, 18, 22, 19, 16, 16, 19, 18, 17, 22, 44, 17, 36, 19, 17, 42, 38
            |11, 20, 14, 20, 21, 17, 28, 28, 13, 25, 9, 15, 17, 11, 0, 23, 12, 21, 35, 18, 16, 20, 28, 27, 27, 22, 14, 31, 28, 21, 28, 12, 21, 15, 30, 16, 12, 31, 21, 24, 33, 26, 35, 31, 20, 11, 6, 25, 28, 29, 10, 25, 22, 21, 25, 15, 14, 9, 26, 28, 31, 28, 15, 7, 3, 17, 30, 16, 18, 16, 14, 28, 18, 10, 37, 23, 30, 9, 22, 34, 29
            |18, 39, 19, 36, 15, 37, 12, 9, 26, 18, 17, 19, 39, 20, 23, 0, 33, 3, 31, 41, 21, 22, 17, 31, 26, 4, 28, 33, 29, 17, 9, 17, 19, 17, 8, 19, 30, 50, 41, 13, 10, 4, 27, 16, 24, 23, 17, 34, 43, 22, 23, 46, 33, 7, 46, 8, 36, 16, 40, 15, 17, 6, 11, 23, 25, 37, 14, 10, 36, 7, 36, 19, 4, 30, 32, 37, 25, 21, 5, 32, 29
            |23, 8, 18, 11, 34, 19, 40, 36, 11, 37, 16, 27, 15, 15, 12, 33, 0, 31, 46, 11, 27, 31, 40, 37, 38, 31, 23, 41, 39, 26, 37, 24, 24, 27, 40, 20, 19, 31, 22, 30, 42, 36, 47, 43, 21, 13, 18, 33, 18, 41, 21, 22, 16, 33, 25, 26, 14, 17, 17, 34, 37, 37, 27, 10, 11, 6, 37, 28, 8, 27, 4, 32, 29, 15, 49, 15, 41, 21, 31, 45, 40
            |18, 37, 16, 33, 17, 37, 14, 8, 24, 20, 15, 19, 38, 17, 21, 3, 31, 0, 33, 40, 21, 23, 20, 32, 28, 1, 28, 34, 30, 14, 8, 17, 16, 18, 9, 16, 30, 50, 41, 10, 11, 5, 29, 19, 21, 20, 16, 34, 41, 24, 23, 45, 30, 9, 45, 8, 35, 14, 37, 13, 15, 7, 11, 21, 24, 35, 12, 11, 34, 6, 34, 16, 4, 30, 35, 35, 27, 21, 3, 34, 31
            |24, 54, 43, 55, 16, 35, 22, 40, 47, 13, 38, 20, 40, 42, 35, 31, 46, 33, 0, 47, 19, 15, 14, 11, 8, 34, 24, 8, 8, 46, 39, 23, 47, 20, 35, 44, 30, 41, 37, 43, 37, 33, 7, 18, 50, 44, 31, 18, 63, 9, 25, 43, 56, 24, 41, 28, 38, 37, 61, 46, 48, 36, 24, 41, 35, 52, 45, 24, 53, 29, 46, 49, 30, 33, 3, 58, 6, 25, 36, 2, 6
            |27, 14, 29, 21, 37, 13, 46, 46, 23, 40, 26, 30, 7, 26, 18, 41, 11, 40, 47, 0, 29, 33, 44, 36, 39, 40, 22, 40, 39, 36, 46, 28, 35, 30, 49, 31, 17, 21, 14, 41, 51, 44, 49, 48, 32, 23, 24, 30, 26, 44, 23, 12, 27, 39, 15, 33, 9, 26, 26, 45, 48, 46, 33, 20, 16, 13, 47, 34, 18, 35, 7, 43, 37, 14, 50, 25, 43, 23, 40, 45, 40
            |5, 35, 25, 36, 9, 20, 19, 30, 28, 11, 21, 2, 24, 24, 16, 21, 27, 21, 19, 29, 0, 4, 15, 12, 11, 22, 8, 16, 13, 30, 29, 5, 31, 4, 28, 27, 13, 31, 24, 30, 30, 24, 20, 20, 33, 25, 13, 13, 44, 15, 7, 29, 37, 15, 28, 14, 21, 19, 42, 34, 36, 27, 10, 22, 16, 33, 34, 11, 34, 15, 28, 36, 18, 15, 22, 39, 14, 6, 24, 19, 14
            |9, 39, 29, 40, 8, 23, 18, 31, 32, 8, 24, 5, 27, 28, 20, 22, 31, 23, 15, 33, 4, 0, 12, 9, 7, 24, 11, 12, 9, 33, 30, 9, 34, 6, 28, 31, 16, 33, 26, 32, 31, 25, 16, 18, 36, 29, 17, 12, 48, 11, 11, 32, 41, 15, 30, 16, 25, 23, 46, 36, 38, 28, 12, 26, 20, 37, 35, 12, 38, 17, 32, 38, 20, 19, 18, 43, 10, 11, 26, 14, 10
            |17, 47, 32, 46, 6, 35, 8, 26, 38, 4, 28, 14, 39, 32, 28, 17, 40, 20, 14, 44, 15, 12, 0, 18, 12, 21, 23, 18, 14, 33, 25, 16, 35, 13, 20, 33, 28, 45, 38, 30, 23, 19, 9, 6, 39, 34, 22, 23, 55, 5, 21, 44, 46, 11, 43, 16, 36, 27, 52, 32, 34, 22, 13, 32, 29, 45, 31, 13, 45, 17, 41, 36, 17, 30, 15, 49, 9, 20, 23, 16, 14
            |17, 45, 38, 47, 16, 24, 25, 40, 40, 14, 33, 14, 30, 36, 27, 31, 37, 32, 11, 36, 12, 9, 18, 0, 6, 33, 14, 4, 4, 42, 39, 17, 43, 15, 36, 39, 19, 30, 26, 41, 39, 34, 16, 23, 45, 37, 25, 7, 55, 14, 17, 32, 49, 24, 29, 25, 27, 32, 53, 45, 47, 37, 21, 34, 26, 43, 44, 21, 45, 26, 37, 47, 29, 23, 14, 50, 11, 17, 35, 9, 5
            |16, 46, 36, 47, 11, 28, 19, 36, 39, 9, 31, 13, 33, 35, 27, 26, 38, 28, 8, 39, 11, 7, 12, 6, 0, 29, 17, 6, 2, 39, 35, 16, 41, 13, 31, 38, 22, 35, 30, 38, 34, 29, 11, 18, 43, 36, 24, 12, 55, 8, 18, 36, 48, 19, 34, 22, 30, 30, 53, 41, 43, 32, 18, 33, 27, 44, 40, 18, 45, 23, 39, 44, 25, 25, 11, 50, 5, 18, 31, 7, 3
            |19, 37, 16, 33, 18, 37, 15, 7, 24, 21, 15, 20, 38, 17, 22, 4, 31, 1, 34, 40, 22, 24, 21, 33, 29, 0, 28, 35, 31, 13, 7, 18, 16, 19, 9, 16, 30, 50, 41, 9, 11, 5, 30, 20, 21, 20, 16, 35, 40, 25, 23, 46, 30, 10, 46, 9, 35, 14, 37, 12, 14, 6, 12, 21, 24, 35, 11, 12, 33, 7, 35, 16, 4, 30, 36, 34, 28, 22, 2, 35, 32
            |10, 31, 27, 33, 17, 12, 28, 36, 27, 19, 22, 10, 16, 25, 14, 28, 23, 28, 24, 22, 8, 11, 23, 14, 17, 28, 0, 18, 17, 33, 35, 11, 34, 11, 35, 29, 5, 23, 15, 34, 38, 31, 27, 28, 34, 25, 15, 10, 41, 22, 5, 21, 36, 22, 20, 20, 14, 21, 39, 38, 41, 34, 17, 21, 13, 29, 39, 18, 31, 21, 23, 40, 24, 9, 27, 37, 21, 7, 30, 23, 18
            |21, 49, 41, 51, 17, 28, 26, 42, 44, 15, 36, 17, 34, 40, 31, 33, 41, 34, 8, 40, 16, 12, 18, 4, 6, 35, 18, 0, 4, 45, 41, 21, 46, 18, 38, 43, 23, 33, 30, 44, 40, 35, 14, 23, 49, 41, 28, 10, 59, 13, 21, 36, 53, 26, 33, 28, 32, 35, 57, 47, 49, 39, 24, 38, 30, 47, 47, 24, 49, 29, 41, 50, 31, 27, 11, 54, 10, 21, 37, 6, 4
            |17, 47, 38, 48, 13, 28, 22, 38, 41, 11, 33, 14, 33, 36, 28, 29, 39, 30, 8, 39, 13, 9, 14, 4, 2, 31, 17, 4, 0, 41, 37, 17, 43, 15, 34, 39, 22, 34, 30, 40, 36, 31, 12, 20, 45, 38, 25, 11, 56, 10, 18, 36, 50, 22, 33, 24, 30, 32, 54, 43, 45, 34, 20, 34, 28, 45, 43, 20, 46, 25, 39, 46, 27, 25, 11, 51, 7, 19, 33, 6, 1
            |25, 29, 8, 23, 29, 38, 29, 14, 15, 33, 12, 28, 38, 11, 21, 17, 26, 14, 46, 36, 30, 33, 33, 42, 39, 13, 33, 45, 41, 0, 15, 25, 2, 27, 21, 6, 33, 52, 42, 6, 22, 18, 43, 33, 8, 13, 19, 42, 29, 37, 28, 45, 18, 22, 46, 17, 35, 12, 25, 9, 12, 17, 21, 16, 24, 28, 12, 22, 25, 17, 30, 7, 16, 31, 47, 23, 40, 27, 12, 46, 42
            |26, 42, 20, 37, 24, 44, 18, 1, 28, 26, 21, 27, 45, 22, 28, 9, 37, 8, 39, 46, 29, 30, 25, 39, 35, 7, 35, 41, 37, 15, 0, 25, 17, 26, 6, 19, 38, 57, 48, 9, 7, 6, 34, 23, 23, 25, 23, 42, 44, 30, 30, 53, 33, 16, 53, 16, 42, 20, 40, 9, 9, 3, 19, 27, 31, 40, 6, 18, 38, 14, 41, 13, 11, 37, 40, 38, 33, 29, 6, 40, 38
            |1, 32, 21, 32, 9, 21, 18, 25, 24, 13, 16, 3, 24, 19, 12, 17, 24, 17, 23, 28, 5, 9, 16, 17, 16, 18, 11, 21, 17, 25, 25, 0, 26, 3, 24, 22, 14, 33, 25, 25, 27, 21, 23, 20, 28, 21, 8, 18, 40, 17, 6, 30, 33, 12, 30, 9, 21, 15, 38, 29, 31, 23, 6, 18, 13, 30, 29, 7, 30, 11, 26, 31, 14, 15, 26, 35, 18, 5, 20, 23, 18
            |26, 28, 7, 21, 31, 38, 31, 16, 13, 34, 12, 29, 37, 10, 21, 19, 24, 16, 47, 35, 31, 34, 35, 43, 41, 16, 34, 46, 43, 2, 17, 26, 0, 28, 23, 5, 33, 52, 42, 8, 24, 20, 44, 35, 6, 12, 19, 43, 27, 39, 28, 45, 16, 24, 46, 19, 34, 12, 23, 11, 13, 19, 23, 16, 24, 26, 14, 23, 23, 18, 29, 8, 17, 31, 49, 21, 41, 27, 14, 48, 44
            |4, 35, 23, 35, 7, 23, 16, 26, 27, 10, 18, 1, 26, 22, 15, 17, 27, 18, 20, 30, 4, 6, 13, 15, 13, 19, 11, 18, 15, 27, 26, 3, 28, 0, 24, 25, 15, 34, 26, 26, 27, 21, 20, 18, 30, 23, 11, 17, 43, 14, 8, 32, 36, 11, 31, 10, 23, 17, 40, 30, 33, 24, 7, 21, 16, 32, 30, 7, 33, 12, 28, 32, 14, 17, 23, 38, 15, 7, 21, 20, 16
            |25, 46, 25, 42, 21, 45, 13, 8, 32, 22, 24, 25, 47, 26, 30, 8, 40, 9, 35, 49, 28, 28, 20, 36, 31, 9, 35, 38, 34, 21, 6, 24, 23, 24, 0, 24, 38, 57, 49, 15, 3, 4, 29, 17, 29, 29, 24, 40, 49, 25, 30, 54, 38, 13, 53, 16, 43, 23, 45, 15, 16, 4, 18, 30, 33, 44, 13, 17, 42, 14, 43, 20, 12, 38, 35, 43, 29, 29, 9, 36, 34
            |22, 24, 2, 18, 28, 33, 30, 18, 9, 32, 7, 25, 32, 5, 16, 19, 20, 16, 44, 31, 27, 31, 33, 39, 38, 16, 29, 43, 39, 6, 19, 22, 5, 25, 24, 0, 28, 47, 37, 11, 25, 21, 42, 34, 6, 7, 15, 39, 25, 37, 24, 40, 14, 23, 41, 17, 29, 8, 21, 15, 17, 21, 20, 11, 19, 22, 17, 21, 19, 16, 24, 13, 16, 26, 47, 19, 38, 23, 15, 45, 41
            |13, 26, 26, 29, 22, 7, 32, 37, 25, 24, 22, 14, 11, 24, 12, 30, 19, 30, 30, 17, 13, 16, 28, 19, 22, 30, 5, 23, 22, 33, 38, 14, 33, 15, 38, 28, 0, 20, 11, 35, 40, 34, 32, 33, 33, 23, 15, 14, 37, 27, 8, 16, 33, 26, 16, 22, 9, 21, 36, 39, 42, 36, 20, 19, 10, 24, 40, 21, 27, 24, 18, 40, 26, 4, 33, 33, 26, 9, 32, 28, 23
            |32, 35, 44, 41, 40, 14, 50, 57, 41, 41, 40, 33, 16, 42, 31, 50, 31, 50, 41, 21, 31, 33, 45, 30, 35, 50, 23, 33, 34, 52, 57, 33, 52, 34, 57, 47, 20, 0, 9, 55, 60, 54, 46, 51, 50, 40, 35, 23, 47, 43, 27, 9, 47, 45, 6, 42, 17, 40, 47, 59, 62, 56, 40, 36, 28, 34, 60, 40, 38, 43, 27, 59, 46, 21, 44, 45, 40, 29, 52, 39, 35
            |24, 27, 35, 33, 33, 4, 43, 48, 32, 34, 31, 25, 7, 32, 21, 41, 22, 41, 37, 14, 24, 26, 38, 26, 30, 41, 15, 30, 30, 42, 48, 25, 42, 26, 49, 37, 11, 9, 0, 45, 52, 45, 41, 44, 40, 31, 25, 19, 39, 37, 19, 6, 38, 37, 4, 33, 8, 31, 39, 50, 52, 47, 31, 27, 19, 26, 51, 32, 30, 35, 19, 49, 37, 11, 40, 37, 35, 20, 43, 35, 31
            |25, 35, 13, 29, 27, 41, 25, 8, 20, 30, 15, 28, 41, 15, 24, 13, 30, 10, 43, 41, 30, 32, 30, 41, 38, 9, 34, 44, 40, 6, 9, 25, 8, 26, 15, 11, 35, 55, 45, 0, 16, 13, 40, 29, 14, 18, 20, 43, 35, 35, 29, 49, 24, 19, 50, 16, 38, 15, 31, 4, 7, 11, 20, 21, 27, 33, 6, 20, 30, 15, 34, 6, 13, 34, 45, 29, 37, 28, 8, 44, 41
            |28, 48, 26, 43, 23, 48, 15, 8, 34, 25, 26, 28, 49, 28, 33, 10, 42, 11, 37, 51, 30, 31, 23, 39, 34, 11, 38, 40, 36, 22, 7, 27, 24, 27, 3, 25, 40, 60, 52, 16, 0, 7, 31, 19, 30, 31, 27, 43, 50, 28, 33, 56, 40, 16, 56, 18, 46, 25, 47, 15, 15, 5, 21, 32, 35, 46, 12, 20, 44, 17, 46, 20, 14, 41, 37, 44, 31, 32, 11, 38, 37
            |21, 42, 21, 38, 18, 41, 12, 7, 29, 20, 20, 22, 43, 22, 26, 4, 36, 5, 33, 44, 24, 25, 19, 34, 29, 5, 31, 35, 31, 18, 6, 21, 20, 21, 4, 21, 34, 54, 45, 13, 7, 0, 28, 17, 26, 25, 20, 37, 46, 24, 26, 50, 35, 10, 49, 12, 39, 19, 42, 14, 15, 3, 14, 26, 28, 40, 12, 13, 38, 10, 39, 18, 8, 34, 34, 39, 27, 25, 6, 34, 32
            |24, 55, 41, 54, 14, 39, 16, 35, 46, 11, 37, 20, 43, 41, 35, 27, 47, 29, 7, 49, 20, 16, 9, 16, 11, 30, 27, 14, 12, 43, 34, 23, 44, 20, 29, 42, 32, 46, 41, 40, 31, 28, 0, 12, 48, 43, 30, 23, 63, 6, 27, 47, 55, 20, 45, 26, 41, 36, 60, 42, 43, 31, 22, 40, 36, 52, 40, 22, 53, 26, 48, 46, 27, 35, 6, 57, 6, 26, 32, 9, 11
            |21, 51, 33, 49, 11, 40, 4, 24, 40, 10, 30, 19, 44, 34, 31, 16, 43, 19, 18, 48, 20, 18, 6, 23, 18, 20, 28, 23, 20, 33, 23, 20, 35, 18, 17, 34, 33, 51, 44, 29, 19, 17, 12, 0, 40, 36, 26, 29, 57, 10, 26, 49, 48, 11, 48, 18, 41, 29, 54, 31, 32, 19, 16, 35, 33, 48, 29, 15, 48, 18, 45, 35, 18, 35, 18, 51, 14, 25, 21, 20, 20
            |28, 22, 7, 16, 34, 36, 35, 22, 9, 38, 12, 31, 34, 9, 20, 24, 21, 21, 50, 32, 33, 36, 39, 45, 43, 21, 34, 49, 45, 8, 23, 28, 6, 30, 29, 6, 33, 50, 40, 14, 30, 26, 48, 40, 0, 9, 20, 44, 21, 43, 29, 42, 10, 28, 44, 22, 32, 13, 17, 17, 19, 25, 26, 14, 23, 21, 20, 26, 17, 22, 25, 13, 22, 30, 52, 15, 44, 28, 20, 50, 46
            |20, 17, 5, 13, 28, 27, 32, 24, 4, 32, 6, 24, 25, 3, 11, 23, 13, 20, 44, 23, 25, 29, 34, 37, 36, 20, 25, 41, 38, 13, 25, 21, 12, 23, 29, 7, 23, 40, 31, 18, 31, 25, 43, 36, 9, 0, 13, 35, 21, 37, 20, 33, 12, 25, 34, 18, 23, 7, 18, 22, 25, 26, 21, 4, 13, 15, 24, 21, 13, 18, 17, 20, 19, 21, 46, 15, 38, 20, 20, 43, 39
            |8, 25, 13, 24, 16, 21, 23, 23, 16, 20, 8, 11, 22, 11, 6, 17, 18, 16, 31, 24, 13, 17, 22, 25, 24, 16, 15, 28, 25, 19, 23, 8, 19, 11, 24, 15, 15, 35, 25, 20, 27, 20, 30, 26, 20, 13, 0, 24, 33, 25, 9, 30, 25, 15, 30, 9, 19, 7, 30, 24, 27, 22, 9, 10, 8, 23, 25, 10, 23, 10, 20, 25, 13, 14, 34, 27, 26, 8, 17, 31, 26
            |17, 40, 37, 43, 20, 18, 30, 42, 38, 19, 32, 15, 24, 35, 25, 34, 33, 34, 18, 30, 13, 12, 23, 7, 12, 35, 10, 10, 11, 42, 42, 18, 43, 17, 40, 39, 14, 23, 19, 43, 43, 37, 23, 29, 44, 35, 24, 0, 51, 20, 15, 25, 47, 27, 23, 27, 22, 31, 50, 46, 49, 40, 23, 32, 23, 39, 47, 24, 41, 28, 32, 48, 31, 18, 21, 47, 17, 16, 37, 16, 12
            |40, 12, 25, 8, 49, 37, 53, 43, 17, 52, 27, 43, 32, 24, 28, 43, 18, 41, 63, 26, 44, 48, 55, 55, 55, 40, 41, 59, 56, 29, 44, 40, 27, 43, 49, 25, 37, 47, 39, 35, 50, 46, 63, 57, 21, 21, 33, 51, 0, 57, 38, 38, 11, 46, 41, 39, 32, 28, 4, 38, 40, 46, 41, 23, 29, 13, 41, 42, 10, 39, 20, 34, 40, 34, 66, 6, 58, 38, 40, 63, 58
            |18, 49, 36, 49, 9, 34, 13, 31, 40, 5, 31, 15, 39, 35, 29, 22, 41, 24, 9, 44, 15, 11, 5, 14, 8, 25, 22, 13, 10, 37, 30, 17, 39, 14, 25, 37, 27, 43, 37, 35, 28, 24, 6, 10, 43, 37, 25, 20, 57, 0, 22, 43, 49, 15, 41, 20, 36, 30, 54, 37, 39, 27, 17, 35, 30, 47, 36, 16, 48, 21, 42, 41, 22, 30, 10, 52, 4, 21, 27, 10, 10
            |5, 28, 22, 30, 15, 15, 24, 30, 23, 17, 17, 7, 18, 20, 10, 23, 21, 23, 25, 23, 7, 11, 21, 17, 18, 23, 5, 21, 18, 28, 30, 6, 28, 8, 30, 24, 8, 27, 19, 29, 33, 26, 27, 26, 29, 20, 9, 15, 38, 22, 0, 24, 32, 18, 23, 15, 15, 16, 36, 33, 36, 29, 13, 17, 9, 26, 34, 13, 28, 16, 21, 34, 19, 9, 28, 33, 21, 1, 25, 25, 20
            |29, 26, 38, 33, 38, 9, 48, 52, 33, 40, 34, 31, 8, 35, 25, 46, 22, 45, 43, 12, 29, 32, 44, 32, 36, 46, 21, 36, 36, 45, 53, 30, 45, 32, 54, 40, 16, 9, 6, 49, 56, 50, 47, 49, 42, 33, 30, 25, 38, 43, 24, 0, 39, 42, 4, 38, 11, 34, 38, 53, 56, 52, 36, 29, 22, 25, 55, 37, 30, 39, 19, 52, 42, 16, 46, 37, 41, 25, 47, 41, 37
            |32, 15, 14, 7, 40, 35, 44, 32, 9, 44, 18, 36, 32, 14, 22, 33, 16, 30, 56, 27, 37, 41, 46, 49, 48, 30, 36, 53, 50, 18, 33, 33, 16, 36, 38, 14, 33, 47, 38, 24, 40, 35, 55, 48, 10, 12, 25, 47, 11, 49, 32, 39, 0, 36, 41, 30, 30, 19, 7, 27, 29, 35, 33, 15, 24, 14, 30, 33, 10, 30, 20, 23, 30, 30, 58, 5, 50, 31, 29, 56, 51
            |13, 40, 22, 38, 8, 33, 8, 16, 28, 11, 19, 13, 36, 22, 21, 7, 33, 9, 24, 39, 15, 15, 11, 24, 19, 10, 22, 26, 22, 22, 16, 12, 24, 11, 13, 23, 26, 45, 37, 19, 16, 10, 20, 11, 28, 25, 15, 27, 46, 15, 18, 42, 36, 0, 42, 7, 33, 17, 42, 22, 24, 13, 6, 24, 23, 38, 21, 5, 37, 6, 35, 25, 7, 27, 25, 40, 18, 17, 12, 25, 22
            |29, 29, 39, 35, 37, 9, 47, 53, 35, 38, 35, 29, 9, 36, 25, 46, 25, 45, 41, 15, 28, 30, 43, 29, 34, 46, 20, 33, 33, 46, 53, 30, 46, 31, 53, 41, 16, 6, 4, 50, 56, 49, 45, 48, 44, 34, 30, 23, 41, 41, 23, 4, 41, 42, 0, 38, 12, 35, 41, 54, 57, 52, 36, 31, 23, 28, 55, 37, 32, 39, 21, 53, 42, 16, 44, 39, 39, 25, 47, 39, 34
            |10, 33, 16, 31, 12, 29, 14, 16, 22, 15, 12, 12, 31, 16, 15, 8, 26, 8, 28, 33, 14, 16, 16, 25, 22, 9, 20, 28, 24, 17, 16, 9, 19, 10, 16, 17, 22, 42, 33, 16, 18, 12, 26, 18, 22, 18, 9, 27, 39, 20, 15, 38, 30, 7, 38, 0, 28, 11, 36, 20, 22, 14, 4, 17, 17, 31, 20, 4, 30, 1, 29, 22, 4, 22, 30, 33, 22, 13, 10, 29, 25
            |20, 20, 27, 25, 30, 5, 39, 42, 23, 32, 23, 22, 3, 24, 14, 36, 14, 35, 38, 9, 21, 25, 36, 27, 30, 35, 14, 32, 30, 35, 42, 21, 34, 23, 43, 29, 9, 17, 8, 38, 46, 39, 41, 41, 32, 23, 19, 22, 32, 36, 15, 11, 30, 33, 12, 28, 0, 23, 31, 42, 45, 42, 27, 19, 11, 18, 44, 28, 22, 29, 11, 42, 32, 6, 41, 29, 35, 16, 36, 37, 32
            |14, 23, 6, 20, 21, 26, 25, 19, 11, 25, 1, 18, 26, 5, 9, 16, 17, 14, 37, 26, 19, 23, 27, 32, 30, 14, 21, 35, 32, 12, 20, 15, 12, 17, 23, 8, 21, 40, 31, 15, 25, 19, 36, 29, 13, 7, 7, 31, 28, 30, 16, 34, 19, 17, 35, 11, 23, 0, 25, 19, 22, 20, 13, 7, 12, 21, 21, 14, 20, 11, 21, 19, 12, 19, 39, 22, 31, 15, 14, 37, 33
            |37, 12, 21, 6, 46, 36, 50, 39, 14, 49, 24, 41, 32, 20, 26, 40, 17, 37, 61, 26, 42, 46, 52, 53, 53, 37, 39, 57, 54, 25, 40, 38, 23, 40, 45, 21, 36, 47, 39, 31, 47, 42, 60, 54, 17, 18, 30, 50, 4, 54, 36, 38, 7, 42, 41, 36, 31, 25, 0, 34, 36, 42, 38, 20, 27, 13, 37, 39, 9, 36, 20, 30, 37, 32, 63, 3, 55, 36, 36, 60, 55
            |29, 38, 17, 32, 30, 45, 26, 7, 24, 33, 19, 31, 45, 19, 28, 15, 34, 13, 46, 45, 34, 36, 32, 45, 41, 12, 38, 47, 43, 9, 9, 29, 11, 30, 15, 15, 39, 59, 50, 4, 15, 14, 42, 31, 17, 22, 24, 46, 38, 37, 33, 53, 27, 22, 54, 20, 42, 19, 34, 0, 3, 12, 24, 25, 31, 37, 3, 23, 34, 18, 38, 5, 16, 38, 47, 32, 40, 32, 10, 47, 44
            |32, 41, 19, 35, 32, 48, 28, 8, 27, 35, 22, 34, 48, 22, 31, 17, 37, 15, 48, 48, 36, 38, 34, 47, 43, 14, 41, 49, 45, 12, 9, 31, 13, 33, 16, 17, 42, 62, 52, 7, 15, 15, 43, 32, 19, 25, 27, 49, 40, 39, 36, 56, 29, 24, 57, 22, 45, 22, 36, 3, 0, 13, 26, 27, 34, 39, 3, 26, 36, 21, 41, 6, 18, 41, 49, 34, 42, 34, 12, 49, 46
            |24, 43, 21, 38, 21, 43, 15, 4, 29, 24, 21, 25, 45, 23, 28, 6, 37, 7, 36, 46, 27, 28, 22, 37, 32, 6, 34, 39, 34, 17, 3, 23, 19, 24, 4, 21, 36, 56, 47, 11, 5, 3, 31, 19, 25, 26, 22, 40, 46, 27, 29, 52, 35, 13, 52, 14, 42, 20, 42, 12, 13, 0, 17, 27, 30, 41, 9, 16, 39, 13, 41, 16, 10, 36, 37, 39, 30, 28, 6, 37, 35
            |7, 35, 19, 33, 8, 27, 13, 19, 24, 12, 15, 8, 30, 18, 15, 11, 27, 11, 24, 33, 10, 12, 13, 21, 18, 12, 17, 24, 20, 21, 19, 6, 23, 7, 18, 20, 20, 40, 31, 20, 21, 14, 22, 16, 26, 21, 9, 23, 41, 17, 13, 36, 33, 6, 36, 4, 27, 13, 38, 24, 26, 17, 0, 19, 17, 32, 23, 1, 32, 5, 29, 26, 8, 21, 26, 35, 18, 11, 14, 25, 21
            |17, 16, 8, 14, 26, 23, 31, 26, 6, 30, 6, 21, 21, 6, 7, 23, 10, 21, 41, 20, 22, 26, 32, 34, 33, 21, 21, 38, 34, 16, 27, 18, 16, 21, 30, 11, 19, 36, 27, 21, 32, 26, 40, 35, 14, 4, 10, 32, 23, 35, 17, 29, 15, 24, 31, 17, 19, 7, 20, 25, 27, 27, 19, 0, 9, 14, 27, 20, 13, 18, 14, 23, 19, 16, 43, 17, 35, 16, 21, 40, 36
            |12, 19, 17, 21, 22, 14, 30, 31, 15, 25, 12, 15, 14, 14, 3, 25, 11, 24, 35, 16, 16, 20, 29, 26, 27, 24, 13, 30, 28, 24, 31, 13, 24, 16, 33, 19, 10, 28, 19, 27, 35, 28, 36, 33, 23, 13, 8, 23, 29, 30, 9, 22, 24, 23, 23, 17, 11, 12, 27, 31, 34, 30, 17, 9, 0, 17, 33, 18, 19, 18, 13, 31, 21, 8, 38, 24, 30, 9, 25, 34, 29
            |29, 2, 20, 8, 39, 24, 45, 39, 13, 42, 20, 32, 19, 18, 17, 37, 6, 35, 52, 13, 33, 37, 45, 43, 44, 35, 29, 47, 45, 28, 40, 30, 26, 32, 44, 22, 24, 34, 26, 33, 46, 40, 52, 48, 21, 15, 23, 39, 13, 47, 26, 25, 14, 38, 28, 31, 18, 21, 13, 37, 39, 41, 32, 14, 17, 0, 39, 33, 4, 32, 7, 34, 33, 21, 55, 11, 47, 26, 35, 51, 46
            |30, 41, 19, 35, 29, 47, 25, 5, 27, 32, 21, 31, 47, 22, 30, 14, 37, 12, 45, 47, 34, 35, 31, 44, 40, 11, 39, 47, 43, 12, 6, 29, 14, 30, 13, 17, 40, 60, 51, 6, 12, 12, 40, 29, 20, 24, 25, 47, 41, 36, 34, 55, 30, 21, 55, 20, 44, 21, 37, 3, 3, 9, 23, 27, 33, 39, 0, 23, 36, 18, 41, 8, 16, 40, 46, 35, 39, 32, 9, 46, 43
            |8, 35, 19, 34, 8, 28, 12, 19, 25, 11, 16, 9, 31, 19, 16, 10, 28, 11, 24, 34, 11, 12, 13, 21, 18, 12, 18, 24, 20, 22, 18, 7, 23, 7, 17, 21, 21, 40, 32, 20, 20, 13, 22, 15, 26, 21, 10, 24, 42, 16, 13, 37, 33, 5, 37, 4, 28, 14, 39, 23, 26, 16, 1, 20, 18, 33, 23, 0, 33, 5, 30, 26, 7, 22, 26, 36, 18, 12, 14, 25, 21
            |30, 5, 18, 3, 39, 27, 45, 37, 10, 43, 19, 33, 23, 16, 18, 36, 8, 34, 53, 18, 34, 38, 45, 45, 45, 33, 31, 49, 46, 25, 38, 30, 23, 33, 42, 19, 27, 38, 30, 30, 44, 38, 53, 48, 17, 13, 23, 41, 10, 48, 28, 30, 10, 37, 32, 30, 22, 20, 9, 34, 36, 39, 32, 13, 19, 4, 36, 33, 0, 31, 11, 31, 32, 23, 56, 7, 48, 28, 33, 52, 48
            |11, 34, 16, 31, 12, 31, 14, 14, 22, 16, 13, 13, 32, 16, 16, 7, 27, 6, 29, 35, 15, 17, 17, 26, 23, 7, 21, 29, 25, 17, 14, 11, 18, 12, 14, 16, 24, 43, 35, 15, 17, 10, 26, 18, 22, 18, 10, 28, 39, 21, 16, 39, 30, 6, 39, 1, 29, 11, 36, 18, 21, 13, 5, 18, 18, 32, 18, 5, 31, 0, 30, 21, 3, 24, 31, 33, 23, 15, 9, 29, 26
            |25, 9, 22, 14, 35, 16, 43, 40, 16, 38, 20, 28, 12, 19, 14, 36, 4, 34, 46, 7, 28, 32, 41, 37, 39, 35, 23, 41, 39, 30, 41, 26, 29, 28, 43, 24, 18, 27, 19, 34, 46, 39, 48, 45, 25, 17, 20, 32, 20, 42, 21, 19, 20, 35, 21, 29, 11, 21, 20, 38, 41, 41, 29, 14, 13, 7, 41, 30, 11, 30, 0, 37, 32, 14, 49, 18, 42, 21, 35, 45, 40
            |31, 35, 15, 29, 33, 45, 30, 12, 21, 36, 19, 33, 45, 18, 28, 19, 32, 16, 49, 43, 36, 38, 36, 47, 44, 16, 40, 50, 46, 7, 13, 31, 8, 32, 20, 13, 40, 59, 49, 6, 20, 18, 46, 35, 13, 20, 25, 48, 34, 41, 34, 52, 23, 25, 53, 22, 42, 19, 30, 5, 6, 16, 26, 23, 31, 34, 8, 26, 31, 21, 37, 0, 19, 38, 51, 28, 43, 33, 14, 50, 47
            |14, 36, 16, 32, 14, 33, 13, 12, 23, 17, 14, 16, 35, 17, 18, 4, 29, 4, 30, 37, 18, 20, 17, 29, 25, 4, 24, 31, 27, 16, 11, 14, 17, 14, 12, 16, 26, 46, 37, 13, 14, 8, 27, 18, 22, 19, 13, 31, 40, 22, 19, 42, 30, 7, 42, 4, 32, 12, 37, 16, 18, 10, 8, 19, 21, 33, 16, 7, 32, 3, 32, 19, 0, 26, 32, 34, 24, 18, 6, 31, 28
            |14, 22, 24, 26, 24, 7, 33, 37, 22, 26, 20, 16, 9, 22, 10, 30, 15, 30, 33, 14, 15, 19, 30, 23, 25, 30, 9, 27, 25, 31, 37, 15, 31, 17, 38, 26, 4, 21, 11, 34, 41, 34, 35, 35, 30, 21, 14, 18, 34, 30, 9, 16, 30, 27, 16, 22, 6, 19, 32, 38, 41, 36, 21, 16, 8, 21, 40, 22, 23, 24, 14, 38, 26, 0, 36, 30, 29, 10, 31, 32, 27
            |26, 57, 45, 57, 18, 38, 22, 41, 49, 15, 41, 23, 43, 44, 37, 32, 49, 35, 3, 50, 22, 18, 15, 14, 11, 36, 27, 11, 11, 47, 40, 26, 49, 23, 35, 47, 33, 44, 40, 45, 37, 34, 6, 18, 52, 46, 34, 21, 66, 10, 28, 46, 58, 25, 44, 30, 41, 39, 63, 47, 49, 37, 26, 43, 38, 55, 46, 26, 56, 31, 49, 51, 32, 36, 0, 60, 8, 28, 37, 5, 9
            |34, 11, 18, 4, 43, 34, 47, 36, 11, 47, 21, 38, 30, 17, 23, 37, 15, 35, 58, 25, 39, 43, 49, 50, 50, 34, 37, 54, 51, 23, 38, 35, 21, 38, 43, 19, 33, 45, 37, 29, 44, 39, 57, 51, 15, 15, 27, 47, 6, 52, 33, 37, 5, 40, 39, 33, 29, 22, 3, 32, 34, 39, 35, 17, 24, 11, 35, 36, 7, 33, 18, 28, 34, 30, 60, 0, 52, 33, 34, 57, 53
            |18, 49, 37, 50, 10, 33, 16, 34, 41, 7, 33, 15, 37, 36, 30, 25, 41, 27, 6, 43, 14, 10, 9, 11, 5, 28, 21, 10, 7, 40, 33, 18, 41, 15, 29, 38, 26, 40, 35, 37, 31, 27, 6, 14, 44, 38, 26, 17, 58, 4, 21, 41, 50, 18, 39, 22, 35, 31, 55, 40, 42, 30, 18, 35, 30, 47, 39, 18, 48, 23, 42, 43, 24, 29, 8, 52, 0, 21, 30, 7, 6
            |4, 28, 21, 29, 14, 16, 23, 29, 22, 17, 16, 6, 19, 19, 9, 21, 21, 21, 25, 23, 6, 11, 20, 17, 18, 22, 7, 21, 19, 27, 29, 5, 27, 7, 29, 23, 9, 29, 20, 28, 32, 25, 26, 25, 28, 20, 8, 16, 38, 21, 1, 25, 31, 17, 25, 13, 16, 15, 36, 32, 34, 28, 11, 16, 9, 26, 32, 12, 28, 15, 21, 33, 18, 10, 28, 33, 21, 0, 23, 25, 20
            |20, 37, 15, 33, 20, 38, 17, 6, 23, 23, 15, 22, 39, 17, 22, 5, 31, 3, 36, 40, 24, 26, 23, 35, 31, 2, 30, 37, 33, 12, 6, 20, 14, 21, 9, 15, 32, 52, 43, 8, 11, 6, 32, 21, 20, 20, 17, 37, 40, 27, 25, 47, 29, 12, 47, 10, 36, 14, 36, 10, 12, 6, 14, 21, 25, 35, 9, 14, 33, 9, 35, 14, 6, 31, 37, 34, 30, 23, 0, 37, 34
            |23, 53, 43, 54, 17, 34, 23, 41, 47, 14, 38, 20, 39, 42, 34, 32, 45, 34, 2, 45, 19, 14, 16, 9, 7, 35, 23, 6, 6, 46, 40, 23, 48, 20, 36, 45, 28, 39, 35, 44, 38, 34, 9, 20, 50, 43, 31, 16, 63, 10, 25, 41, 56, 25, 39, 29, 37, 37, 60, 47, 49, 37, 25, 40, 34, 51, 46, 25, 52, 29, 45, 50, 31, 32, 5, 57, 7, 25, 37, 0, 5
            |19, 48, 39, 49, 14, 29, 22, 39, 42, 12, 34, 15, 34, 38, 29, 29, 40, 31, 6, 40, 14, 10, 14, 5, 3, 32, 18, 4, 1, 42, 38, 18, 44, 16, 34, 41, 23, 35, 31, 41, 37, 32, 11, 20, 46, 39, 26, 12, 58, 10, 20, 37, 51, 22, 34, 25, 32, 33, 55, 44, 46, 35, 21, 36, 29, 46, 43, 21, 48, 26, 40, 47, 28, 27, 9, 53, 6, 20, 34, 5, 0|];