% n80w160.005	   60.44 718
n = 81;
duration = [|0, 29, 39, 9, 35, 36, 36, 37, 14, 13, 35, 36, 11, 10, 14, 21, 1, 38, 33, 20, 13, 31, 23, 30, 28, 41, 10, 33, 18, 34, 33, 26, 33, 36, 12, 15, 17, 18, 35, 13, 36, 30, 10, 5, 35, 29, 17, 31, 35, 10, 28, 29, 3, 18, 21, 25, 19, 34, 21, 37, 33, 49, 36, 10, 8, 35, 19, 38, 10, 33, 14, 39, 14, 43, 16, 11, 5, 28, 24, 16, 11
            |29, 0, 13, 38, 9, 17, 49, 14, 23, 33, 41, 17, 36, 22, 42, 36, 28, 20, 7, 22, 35, 15, 20, 11, 36, 20, 39, 3, 14, 5, 4, 9, 32, 43, 35, 15, 20, 19, 6, 31, 14, 12, 20, 34, 43, 14, 18, 15, 9, 27, 4, 37, 33, 24, 17, 21, 17, 23, 40, 50, 41, 31, 46, 35, 34, 10, 43, 28, 28, 15, 15, 21, 43, 32, 16, 37, 25, 34, 6, 14, 40
            |39, 13, 0, 48, 4, 27, 50, 5, 35, 45, 40, 10, 48, 34, 50, 39, 38, 11, 17, 25, 47, 12, 22, 23, 37, 10, 48, 11, 27, 12, 13, 14, 29, 42, 42, 26, 25, 24, 7, 37, 7, 24, 31, 44, 42, 13, 31, 27, 18, 35, 12, 37, 43, 37, 21, 34, 22, 19, 44, 51, 41, 20, 46, 47, 45, 19, 49, 23, 40, 11, 26, 12, 54, 24, 24, 49, 35, 34, 18, 26, 50
            |9, 38, 48, 0, 44, 43, 38, 46, 20, 13, 39, 44, 8, 17, 9, 25, 10, 46, 41, 28, 12, 39, 30, 37, 32, 49, 5, 41, 26, 43, 41, 34, 39, 40, 13, 23, 25, 26, 44, 17, 44, 37, 18, 4, 38, 37, 23, 38, 43, 16, 37, 33, 5, 23, 29, 31, 27, 42, 22, 38, 37, 57, 38, 9, 6, 43, 18, 45, 14, 41, 23, 47, 6, 50, 24, 8, 13, 33, 32, 24, 3
            |35, 9, 4, 44, 0, 24, 48, 6, 31, 41, 39, 10, 44, 29, 47, 37, 34, 13, 14, 22, 43, 11, 20, 19, 35, 12, 44, 7, 23, 9, 10, 10, 28, 41, 39, 22, 22, 21, 4, 34, 7, 20, 26, 40, 41, 11, 27, 23, 15, 31, 8, 36, 39, 33, 18, 30, 19, 18, 41, 49, 39, 23, 45, 43, 41, 16, 46, 23, 36, 10, 21, 14, 50, 25, 20, 44, 31, 33, 14, 22, 46
            |36, 17, 27, 43, 24, 0, 64, 30, 23, 33, 57, 34, 38, 26, 50, 49, 35, 36, 10, 36, 35, 32, 35, 7, 51, 36, 46, 17, 17, 15, 14, 25, 48, 59, 45, 22, 33, 33, 20, 42, 30, 6, 26, 41, 58, 31, 19, 5, 9, 38, 20, 52, 38, 21, 32, 13, 31, 40, 52, 64, 56, 47, 61, 37, 37, 8, 53, 45, 29, 32, 24, 37, 47, 48, 29, 39, 33, 49, 16, 21, 43
            |36, 49, 50, 38, 48, 64, 0, 45, 49, 49, 11, 40, 45, 43, 30, 16, 36, 40, 56, 28, 49, 38, 29, 57, 13, 43, 33, 51, 48, 54, 54, 40, 21, 9, 25, 42, 30, 30, 51, 24, 43, 57, 40, 35, 8, 37, 49, 60, 58, 28, 46, 13, 37, 53, 32, 58, 33, 32, 16, 1, 9, 43, 4, 46, 43, 59, 21, 30, 46, 39, 40, 40, 41, 33, 35, 45, 35, 16, 47, 44, 41
            |37, 14, 5, 46, 6, 30, 45, 0, 35, 45, 35, 5, 46, 33, 47, 35, 36, 7, 20, 21, 46, 8, 18, 25, 32, 6, 45, 13, 27, 15, 16, 11, 24, 37, 39, 25, 22, 21, 10, 34, 2, 26, 29, 42, 38, 9, 31, 29, 21, 31, 12, 33, 40, 37, 17, 35, 19, 14, 40, 46, 36, 17, 41, 45, 44, 22, 45, 18, 39, 6, 24, 8, 51, 19, 21, 47, 32, 29, 19, 26, 48
            |14, 23, 35, 20, 31, 23, 49, 35, 0, 11, 45, 35, 15, 5, 28, 33, 14, 38, 23, 26, 13, 31, 27, 18, 38, 40, 24, 26, 9, 26, 25, 24, 40, 47, 25, 11, 22, 23, 29, 25, 34, 18, 9, 18, 46, 30, 4, 18, 25, 21, 23, 39, 16, 4, 24, 11, 22, 37, 34, 49, 44, 50, 47, 14, 14, 25, 33, 42, 6, 33, 12, 39, 24, 47, 18, 16, 14, 38, 17, 9, 20
            |13, 33, 45, 13, 41, 33, 49, 45, 11, 0, 48, 44, 6, 12, 23, 34, 14, 47, 34, 32, 2, 39, 34, 29, 41, 49, 19, 36, 19, 37, 36, 33, 45, 49, 24, 20, 28, 29, 40, 26, 43, 29, 16, 14, 48, 38, 15, 28, 36, 23, 33, 42, 13, 12, 31, 20, 29, 45, 33, 49, 46, 59, 49, 5, 7, 35, 30, 49, 6, 41, 21, 48, 16, 54, 25, 7, 16, 41, 27, 19, 12
            |35, 41, 40, 39, 39, 57, 11, 35, 45, 48, 0, 30, 45, 40, 33, 15, 34, 30, 48, 21, 48, 28, 21, 50, 7, 33, 35, 42, 43, 45, 45, 32, 11, 2, 26, 37, 24, 24, 42, 22, 33, 50, 36, 36, 3, 28, 44, 53, 50, 25, 37, 6, 36, 49, 24, 53, 26, 22, 18, 12, 3, 32, 7, 45, 42, 51, 25, 19, 44, 29, 35, 29, 43, 22, 29, 45, 32, 8, 40, 39, 42
            |36, 17, 10, 44, 10, 34, 40, 5, 35, 44, 30, 0, 45, 32, 44, 31, 34, 3, 24, 18, 45, 5, 15, 28, 28, 5, 43, 16, 28, 19, 20, 11, 19, 32, 36, 25, 19, 18, 14, 30, 4, 29, 28, 40, 33, 6, 32, 32, 25, 29, 14, 28, 39, 38, 15, 37, 17, 9, 36, 41, 31, 15, 36, 45, 42, 26, 42, 13, 39, 3, 24, 4, 50, 15, 20, 46, 31, 25, 20, 26, 46
            |11, 36, 48, 8, 44, 38, 45, 46, 15, 6, 45, 45, 0, 14, 17, 31, 12, 48, 38, 31, 4, 40, 33, 33, 38, 50, 13, 39, 23, 40, 39, 35, 44, 46, 20, 22, 27, 29, 42, 23, 45, 33, 17, 10, 45, 39, 19, 33, 40, 21, 36, 39, 9, 17, 31, 25, 29, 45, 29, 46, 43, 59, 45, 1, 3, 40, 26, 48, 9, 42, 22, 49, 10, 53, 25, 1, 15, 39, 30, 22, 6
            |10, 22, 34, 17, 29, 26, 43, 33, 5, 12, 40, 32, 14, 0, 24, 28, 9, 35, 24, 21, 13, 27, 23, 20, 33, 37, 20, 25, 9, 26, 25, 21, 35, 41, 21, 8, 17, 18, 28, 20, 31, 20, 4, 15, 41, 26, 7, 21, 26, 16, 22, 34, 12, 10, 20, 16, 18, 33, 29, 44, 38, 47, 42, 13, 12, 26, 28, 38, 6, 29, 9, 36, 22, 42, 14, 15, 9, 32, 16, 8, 18
            |14, 42, 50, 9, 47, 50, 30, 47, 28, 23, 33, 44, 17, 24, 0, 19, 15, 47, 46, 27, 22, 40, 30, 43, 27, 49, 4, 45, 32, 47, 46, 37, 35, 33, 9, 28, 25, 27, 47, 14, 45, 44, 24, 9, 32, 38, 30, 45, 49, 16, 40, 28, 12, 32, 30, 39, 28, 40, 15, 30, 30, 55, 31, 18, 16, 49, 9, 43, 23, 42, 27, 47, 11, 48, 26, 17, 17, 29, 37, 30, 12
            |21, 36, 39, 25, 37, 49, 16, 35, 33, 34, 15, 31, 31, 28, 19, 0, 20, 32, 42, 15, 34, 27, 17, 42, 8, 35, 20, 38, 33, 41, 40, 28, 17, 15, 11, 27, 16, 17, 39, 8, 33, 43, 25, 21, 14, 26, 33, 45, 44, 12, 33, 9, 22, 38, 19, 42, 19, 25, 5, 16, 12, 39, 14, 31, 28, 45, 12, 25, 31, 29, 25, 32, 29, 30, 20, 31, 19, 10, 33, 29, 28
            |1, 28, 38, 10, 34, 35, 36, 36, 14, 14, 34, 34, 12, 9, 15, 20, 0, 37, 32, 19, 14, 29, 21, 29, 27, 39, 11, 31, 18, 33, 32, 25, 32, 35, 11, 14, 16, 17, 34, 12, 34, 29, 9, 6, 34, 28, 16, 30, 34, 9, 27, 28, 4, 18, 20, 25, 18, 33, 20, 36, 32, 47, 35, 12, 9, 34, 19, 36, 11, 31, 13, 38, 16, 41, 14, 13, 4, 27, 23, 15, 12
            |38, 20, 11, 46, 13, 36, 40, 7, 38, 47, 30, 3, 48, 35, 47, 32, 37, 0, 26, 20, 48, 8, 17, 31, 28, 3, 45, 19, 31, 22, 22, 14, 19, 32, 38, 28, 22, 20, 17, 32, 6, 32, 31, 42, 33, 9, 35, 35, 28, 31, 17, 28, 41, 41, 17, 40, 19, 8, 37, 41, 31, 12, 36, 47, 45, 29, 43, 11, 42, 6, 27, 1, 52, 13, 23, 49, 33, 25, 24, 29, 49
            |33, 7, 17, 41, 14, 10, 56, 20, 23, 34, 48, 24, 38, 24, 46, 42, 32, 26, 0, 28, 36, 22, 27, 6, 43, 26, 43, 7, 15, 5, 4, 16, 39, 50, 41, 18, 26, 26, 10, 37, 20, 7, 23, 38, 50, 21, 19, 10, 2, 33, 11, 44, 36, 23, 24, 18, 24, 30, 46, 57, 48, 37, 53, 37, 36, 3, 48, 35, 29, 22, 19, 27, 46, 38, 22, 39, 29, 41, 9, 17, 42
            |20, 22, 25, 28, 22, 36, 28, 21, 26, 32, 21, 18, 31, 21, 27, 15, 19, 20, 28, 0, 32, 13, 3, 29, 15, 22, 26, 24, 22, 26, 26, 13, 14, 22, 18, 16, 4, 3, 24, 13, 19, 30, 17, 23, 22, 12, 24, 32, 31, 11, 18, 16, 23, 30, 4, 33, 5, 14, 19, 28, 20, 29, 25, 30, 28, 31, 24, 17, 27, 15, 14, 20, 33, 22, 8, 31, 16, 13, 20, 19, 30
            |13, 35, 47, 12, 43, 35, 49, 46, 13, 2, 48, 45, 4, 13, 22, 34, 14, 48, 36, 32, 0, 41, 34, 31, 41, 50, 17, 38, 21, 39, 38, 35, 46, 49, 24, 21, 29, 30, 41, 26, 45, 31, 17, 14, 48, 39, 17, 30, 38, 23, 35, 42, 12, 14, 32, 22, 30, 46, 33, 49, 46, 60, 48, 4, 6, 37, 30, 50, 7, 43, 22, 49, 14, 55, 26, 5, 17, 41, 29, 21, 11
            |31, 15, 12, 39, 11, 32, 38, 8, 31, 39, 28, 5, 40, 27, 40, 27, 29, 8, 22, 13, 41, 0, 10, 25, 25, 10, 38, 15, 24, 18, 18, 7, 18, 30, 31, 20, 14, 13, 14, 26, 6, 26, 24, 35, 31, 1, 28, 29, 24, 24, 11, 25, 34, 34, 10, 33, 12, 9, 32, 38, 29, 19, 34, 40, 37, 25, 37, 14, 34, 2, 19, 9, 45, 17, 15, 41, 26, 22, 17, 22, 41
            |23, 20, 22, 30, 20, 35, 29, 18, 27, 34, 21, 15, 33, 23, 30, 17, 21, 17, 27, 3, 34, 10, 0, 28, 16, 19, 29, 22, 22, 24, 24, 11, 13, 23, 22, 17, 6, 4, 22, 16, 16, 29, 18, 26, 23, 9, 25, 32, 29, 14, 16, 17, 25, 31, 3, 33, 5, 11, 22, 30, 21, 26, 26, 33, 30, 30, 27, 15, 28, 12, 15, 17, 36, 20, 9, 34, 18, 14, 19, 19, 33
            |30, 11, 23, 37, 19, 7, 57, 25, 18, 29, 50, 28, 33, 20, 43, 42, 29, 31, 6, 29, 31, 25, 28, 0, 44, 31, 40, 12, 11, 11, 10, 19, 41, 52, 38, 16, 26, 26, 16, 36, 25, 1, 20, 35, 51, 25, 14, 4, 7, 31, 14, 45, 32, 17, 25, 11, 24, 34, 45, 57, 49, 42, 54, 32, 32, 7, 47, 39, 24, 26, 17, 32, 42, 42, 22, 34, 27, 42, 9, 14, 38
            |28, 36, 37, 32, 35, 51, 13, 32, 38, 41, 7, 28, 38, 33, 27, 8, 27, 28, 43, 15, 41, 25, 16, 44, 0, 31, 28, 38, 36, 41, 41, 27, 10, 8, 19, 30, 18, 18, 38, 15, 30, 45, 29, 29, 8, 24, 38, 47, 45, 18, 33, 1, 29, 43, 19, 47, 20, 20, 13, 14, 5, 33, 10, 38, 35, 46, 20, 19, 37, 26, 28, 28, 37, 23, 22, 38, 25, 3, 35, 33, 35
            |41, 20, 10, 49, 12, 36, 43, 6, 40, 49, 33, 5, 50, 37, 49, 35, 39, 3, 26, 22, 50, 10, 19, 31, 31, 0, 48, 19, 32, 21, 22, 16, 22, 35, 41, 29, 24, 23, 16, 35, 6, 32, 33, 45, 35, 11, 36, 35, 27, 34, 18, 31, 44, 42, 20, 41, 22, 11, 40, 44, 34, 11, 39, 49, 47, 28, 46, 14, 43, 8, 28, 3, 55, 14, 25, 51, 36, 28, 24, 31, 51
            |10, 39, 48, 5, 44, 46, 33, 45, 24, 19, 35, 43, 13, 20, 4, 20, 11, 45, 43, 26, 17, 38, 29, 40, 28, 48, 0, 42, 29, 44, 43, 34, 36, 35, 9, 25, 24, 25, 45, 14, 43, 40, 20, 5, 34, 37, 27, 41, 45, 14, 37, 29, 8, 27, 28, 35, 26, 40, 17, 33, 32, 55, 33, 14, 11, 45, 12, 42, 19, 40, 24, 46, 9, 47, 24, 13, 14, 30, 34, 26, 8
            |33, 3, 11, 41, 7, 17, 51, 13, 26, 36, 42, 16, 39, 25, 45, 38, 31, 19, 7, 24, 38, 15, 22, 12, 38, 19, 42, 0, 17, 3, 3, 11, 33, 45, 38, 18, 22, 22, 4, 34, 13, 13, 23, 37, 45, 15, 21, 16, 9, 30, 5, 39, 36, 27, 19, 23, 19, 24, 42, 52, 43, 30, 48, 38, 37, 9, 46, 29, 31, 15, 18, 20, 47, 31, 19, 40, 28, 36, 9, 17, 43
            |18, 14, 27, 26, 23, 17, 48, 27, 9, 19, 43, 28, 23, 9, 32, 33, 18, 31, 15, 22, 21, 24, 22, 11, 36, 32, 29, 17, 0, 18, 17, 17, 36, 44, 28, 6, 18, 19, 21, 25, 26, 11, 9, 23, 44, 23, 4, 13, 17, 21, 15, 37, 21, 10, 19, 10, 17, 31, 35, 49, 42, 43, 46, 22, 21, 17, 36, 36, 14, 25, 8, 32, 31, 40, 14, 24, 16, 35, 8, 4, 27
            |34, 5, 12, 43, 9, 15, 54, 15, 26, 37, 45, 19, 40, 26, 47, 41, 33, 22, 5, 26, 39, 18, 24, 11, 41, 21, 44, 3, 18, 0, 1, 14, 35, 47, 40, 19, 25, 24, 5, 36, 16, 12, 24, 39, 48, 18, 22, 15, 6, 33, 8, 41, 37, 27, 22, 22, 22, 26, 45, 55, 45, 32, 51, 40, 39, 7, 48, 31, 32, 18, 20, 23, 48, 34, 22, 41, 30, 38, 10, 19, 44
            |33, 4, 13, 41, 10, 14, 54, 16, 25, 36, 45, 20, 39, 25, 46, 40, 32, 22, 4, 26, 38, 18, 24, 10, 41, 22, 43, 3, 17, 1, 0, 13, 36, 47, 40, 18, 24, 24, 6, 35, 16, 11, 23, 38, 47, 18, 21, 14, 5, 32, 8, 41, 36, 26, 22, 21, 21, 27, 44, 54, 45, 33, 50, 38, 37, 6, 47, 32, 30, 18, 19, 23, 47, 34, 21, 40, 29, 38, 9, 17, 43
            |26, 9, 14, 34, 10, 25, 40, 11, 24, 33, 32, 11, 35, 21, 37, 28, 25, 14, 16, 13, 35, 7, 11, 19, 27, 16, 34, 11, 17, 14, 13, 0, 22, 34, 29, 14, 12, 11, 11, 24, 10, 20, 18, 30, 34, 6, 21, 23, 18, 21, 6, 28, 29, 27, 9, 26, 9, 15, 32, 41, 32, 26, 37, 34, 32, 19, 36, 20, 28, 9, 13, 15, 40, 24, 10, 36, 21, 25, 10, 15, 37
            |33, 32, 29, 39, 28, 48, 21, 24, 40, 45, 11, 19, 44, 35, 35, 17, 32, 19, 39, 14, 46, 18, 13, 41, 10, 22, 36, 33, 36, 35, 36, 22, 0, 13, 27, 30, 18, 17, 32, 22, 22, 42, 31, 35, 14, 18, 38, 45, 41, 23, 28, 10, 35, 44, 16, 46, 18, 11, 22, 22, 12, 23, 17, 43, 40, 42, 29, 9, 40, 19, 28, 19, 44, 13, 22, 44, 29, 8, 32, 32, 42
            |36, 43, 42, 40, 41, 59, 9, 37, 47, 49, 2, 32, 46, 41, 33, 15, 35, 32, 50, 22, 49, 30, 23, 52, 8, 35, 35, 45, 44, 47, 47, 34, 13, 0, 26, 38, 26, 26, 44, 23, 35, 52, 38, 36, 1, 30, 46, 55, 52, 26, 40, 7, 37, 51, 26, 55, 27, 24, 18, 10, 3, 34, 5, 46, 43, 53, 25, 21, 45, 31, 36, 32, 44, 24, 30, 46, 33, 9, 42, 41, 43
            |12, 35, 42, 13, 39, 45, 25, 39, 25, 24, 26, 36, 20, 21, 9, 11, 11, 38, 41, 18, 24, 31, 22, 38, 19, 41, 9, 38, 28, 40, 40, 29, 27, 26, 0, 23, 17, 18, 40, 6, 37, 39, 19, 10, 25, 30, 27, 40, 43, 8, 33, 20, 11, 30, 22, 36, 20, 32, 9, 25, 24, 47, 25, 20, 17, 43, 8, 34, 22, 34, 21, 38, 17, 39, 19, 20, 12, 21, 31, 25, 16
            |15, 15, 26, 23, 22, 22, 42, 25, 11, 20, 37, 25, 22, 8, 28, 27, 14, 28, 18, 16, 21, 20, 17, 16, 30, 29, 25, 18, 6, 19, 18, 14, 30, 38, 23, 0, 13, 13, 21, 20, 23, 16, 5, 20, 38, 19, 8, 18, 20, 16, 14, 31, 18, 14, 14, 16, 12, 27, 29, 43, 36, 39, 40, 21, 20, 20, 31, 31, 14, 22, 2, 29, 29, 36, 8, 23, 11, 29, 9, 2, 25
            |17, 20, 25, 25, 22, 33, 30, 22, 22, 28, 24, 19, 27, 17, 25, 16, 16, 22, 26, 4, 29, 14, 6, 26, 18, 24, 24, 22, 18, 25, 24, 12, 18, 26, 17, 13, 0, 1, 23, 12, 20, 27, 13, 21, 26, 13, 20, 29, 28, 9, 17, 19, 20, 26, 4, 29, 3, 17, 20, 31, 23, 32, 28, 27, 24, 29, 24, 21, 23, 17, 10, 22, 31, 26, 4, 28, 12, 17, 17, 15, 28
            |18, 19, 24, 26, 21, 33, 30, 21, 23, 29, 24, 18, 29, 18, 27, 17, 17, 20, 26, 3, 30, 13, 4, 26, 18, 23, 25, 22, 19, 24, 24, 11, 17, 26, 18, 13, 1, 0, 23, 13, 19, 27, 14, 22, 25, 12, 21, 29, 28, 11, 16, 19, 21, 27, 3, 29, 2, 16, 21, 31, 23, 30, 28, 28, 26, 29, 25, 20, 24, 15, 11, 21, 32, 25, 5, 29, 14, 16, 17, 16, 29
            |35, 6, 7, 44, 4, 20, 51, 10, 29, 40, 42, 14, 42, 28, 47, 39, 34, 17, 10, 24, 41, 14, 22, 16, 38, 16, 45, 4, 21, 5, 6, 11, 32, 44, 40, 21, 23, 23, 0, 35, 11, 17, 26, 40, 44, 14, 25, 20, 11, 32, 7, 39, 38, 30, 20, 26, 20, 22, 43, 52, 42, 27, 48, 42, 40, 12, 47, 27, 34, 14, 21, 18, 49, 29, 21, 43, 31, 36, 12, 21, 46
            |13, 31, 37, 17, 34, 42, 24, 34, 25, 26, 22, 30, 23, 20, 14, 8, 12, 32, 37, 13, 26, 26, 16, 36, 15, 35, 14, 34, 25, 36, 35, 24, 22, 23, 6, 20, 12, 13, 35, 0, 32, 36, 17, 14, 22, 25, 26, 38, 39, 4, 28, 16, 14, 30, 16, 35, 15, 26, 9, 24, 20, 41, 23, 23, 20, 39, 12, 28, 23, 28, 18, 33, 22, 33, 15, 23, 11, 16, 27, 22, 21
            |36, 14, 7, 44, 7, 30, 43, 2, 34, 43, 33, 4, 45, 31, 45, 33, 34, 6, 20, 19, 45, 6, 16, 25, 30, 6, 43, 13, 26, 16, 16, 10, 22, 35, 37, 23, 20, 19, 11, 32, 0, 26, 28, 40, 36, 7, 30, 29, 22, 29, 11, 31, 39, 36, 16, 34, 17, 12, 38, 44, 34, 17, 39, 44, 42, 23, 43, 16, 38, 4, 23, 7, 50, 18, 20, 45, 31, 28, 18, 24, 46
            |30, 12, 24, 37, 20, 6, 57, 26, 18, 29, 50, 29, 33, 20, 44, 43, 29, 32, 7, 30, 31, 26, 29, 1, 45, 32, 40, 13, 11, 12, 11, 20, 42, 52, 39, 16, 27, 27, 17, 36, 26, 0, 20, 35, 52, 26, 14, 3, 8, 32, 15, 46, 33, 17, 26, 11, 25, 35, 45, 58, 50, 43, 55, 32, 32, 7, 47, 40, 24, 27, 18, 33, 42, 43, 23, 34, 27, 43, 10, 14, 38
            |10, 20, 31, 18, 26, 26, 40, 29, 9, 16, 36, 28, 17, 4, 24, 25, 9, 31, 23, 17, 17, 24, 18, 20, 29, 33, 20, 23, 9, 24, 23, 18, 31, 38, 19, 5, 13, 14, 26, 17, 28, 20, 0, 15, 37, 22, 9, 21, 25, 13, 19, 30, 13, 13, 16, 18, 14, 29, 26, 41, 35, 43, 38, 16, 15, 25, 27, 34, 10, 26, 5, 32, 24, 38, 9, 18, 7, 29, 14, 6, 20
            |5, 34, 44, 4, 40, 41, 35, 42, 18, 14, 36, 40, 10, 15, 9, 21, 6, 42, 38, 23, 14, 35, 26, 35, 29, 45, 5, 37, 23, 39, 38, 30, 35, 36, 10, 20, 21, 22, 40, 14, 40, 35, 15, 0, 35, 33, 21, 35, 40, 12, 33, 30, 2, 22, 25, 30, 23, 37, 19, 36, 33, 52, 35, 10, 7, 40, 16, 41, 13, 37, 19, 43, 10, 46, 20, 10, 9, 29, 29, 21, 7
            |35, 43, 42, 38, 41, 58, 8, 38, 46, 48, 3, 33, 45, 41, 32, 14, 34, 33, 50, 22, 48, 31, 23, 51, 8, 35, 34, 45, 44, 48, 47, 34, 14, 1, 25, 38, 26, 25, 44, 22, 36, 52, 37, 35, 0, 30, 45, 55, 52, 25, 40, 7, 36, 50, 26, 54, 27, 24, 17, 9, 2, 35, 4, 45, 42, 53, 24, 22, 45, 32, 36, 32, 42, 25, 30, 45, 33, 9, 42, 40, 42
            |29, 14, 13, 37, 11, 31, 37, 9, 30, 38, 28, 6, 39, 26, 38, 26, 28, 9, 21, 12, 39, 1, 9, 25, 24, 11, 37, 15, 23, 18, 18, 6, 18, 30, 30, 19, 13, 12, 14, 25, 7, 26, 22, 33, 30, 0, 26, 29, 23, 22, 11, 25, 32, 33, 9, 32, 10, 9, 31, 38, 28, 21, 34, 38, 36, 24, 36, 14, 32, 4, 17, 10, 43, 18, 13, 40, 24, 21, 16, 20, 40
            |17, 18, 31, 23, 27, 19, 49, 31, 4, 15, 44, 32, 19, 7, 30, 33, 16, 35, 19, 24, 17, 28, 25, 14, 38, 36, 27, 21, 4, 22, 21, 21, 38, 46, 27, 8, 20, 21, 25, 26, 30, 14, 9, 21, 45, 26, 0, 14, 21, 21, 19, 39, 19, 6, 22, 9, 20, 35, 35, 49, 43, 47, 47, 18, 18, 20, 35, 39, 10, 29, 10, 36, 28, 44, 16, 20, 15, 37, 13, 6, 24
            |31, 15, 27, 38, 23, 5, 60, 29, 18, 28, 53, 32, 33, 21, 45, 45, 30, 35, 10, 32, 30, 29, 32, 4, 47, 35, 41, 16, 13, 15, 14, 23, 45, 55, 40, 18, 29, 29, 20, 38, 29, 3, 21, 35, 55, 29, 14, 0, 10, 34, 18, 48, 33, 16, 29, 9, 27, 38, 47, 60, 52, 46, 57, 32, 32, 9, 48, 43, 24, 30, 20, 36, 42, 46, 25, 34, 28, 45, 13, 16, 38
            |35, 9, 18, 43, 15, 9, 58, 21, 25, 36, 50, 25, 40, 26, 49, 44, 34, 28, 2, 31, 38, 24, 29, 7, 45, 27, 45, 9, 17, 6, 5, 18, 41, 52, 43, 20, 28, 28, 11, 39, 22, 8, 25, 40, 52, 23, 21, 10, 0, 35, 13, 46, 38, 25, 26, 18, 26, 32, 48, 59, 50, 38, 55, 39, 38, 1, 51, 37, 31, 24, 22, 29, 48, 40, 25, 41, 31, 43, 12, 19, 44
            |10, 27, 35, 16, 31, 38, 28, 31, 21, 23, 25, 29, 21, 16, 16, 12, 9, 31, 33, 11, 23, 24, 14, 31, 18, 34, 14, 30, 21, 33, 32, 21, 23, 26, 8, 16, 9, 11, 32, 4, 29, 32, 13, 12, 25, 22, 21, 34, 35, 0, 25, 19, 12, 25, 14, 31, 12, 25, 13, 28, 23, 40, 26, 21, 18, 35, 16, 28, 19, 26, 14, 31, 22, 33, 11, 21, 7, 18, 23, 18, 19
            |28, 4, 12, 37, 8, 20, 46, 12, 23, 33, 37, 14, 36, 22, 40, 33, 27, 17, 11, 18, 35, 11, 16, 14, 33, 18, 37, 5, 15, 8, 8, 6, 28, 40, 33, 14, 17, 16, 7, 28, 11, 15, 19, 33, 40, 11, 19, 18, 13, 25, 0, 33, 31, 25, 14, 23, 14, 20, 37, 47, 38, 29, 43, 35, 34, 14, 40, 25, 28, 12, 14, 18, 42, 28, 14, 37, 24, 30, 7, 14, 39
            |29, 37, 37, 33, 36, 52, 13, 33, 39, 42, 6, 28, 39, 34, 28, 9, 28, 28, 44, 16, 42, 25, 17, 45, 1, 31, 29, 39, 37, 41, 41, 28, 10, 7, 20, 31, 19, 19, 39, 16, 31, 46, 30, 30, 7, 25, 39, 48, 46, 19, 33, 0, 30, 44, 20, 47, 21, 20, 13, 13, 4, 33, 9, 39, 36, 47, 21, 19, 38, 27, 29, 28, 38, 23, 23, 39, 26, 3, 35, 34, 36
            |3, 33, 43, 5, 39, 38, 37, 40, 16, 13, 36, 39, 9, 12, 12, 22, 4, 41, 36, 23, 12, 34, 25, 32, 29, 44, 8, 36, 21, 37, 36, 29, 35, 37, 11, 18, 20, 21, 38, 14, 39, 33, 13, 2, 36, 32, 19, 33, 38, 12, 31, 30, 0, 20, 24, 27, 22, 37, 21, 37, 34, 52, 36, 9, 6, 38, 18, 40, 11, 36, 17, 42, 11, 45, 19, 9, 8, 30, 27, 19, 8
            |18, 24, 37, 23, 33, 21, 53, 37, 4, 12, 49, 38, 17, 10, 32, 38, 18, 41, 23, 30, 14, 34, 31, 17, 43, 42, 27, 27, 10, 27, 26, 27, 44, 51, 30, 14, 26, 27, 30, 30, 36, 17, 13, 22, 50, 33, 6, 16, 25, 25, 25, 44, 20, 0, 28, 8, 26, 41, 38, 54, 48, 53, 52, 16, 17, 24, 37, 46, 9, 35, 16, 42, 27, 50, 22, 18, 18, 42, 19, 12, 23
            |21, 17, 21, 29, 18, 32, 32, 17, 24, 31, 24, 15, 31, 20, 30, 19, 20, 17, 24, 4, 32, 10, 3, 25, 19, 20, 28, 19, 19, 22, 22, 9, 16, 26, 22, 14, 4, 3, 20, 16, 16, 26, 16, 25, 26, 9, 22, 29, 26, 14, 14, 20, 24, 28, 0, 30, 2, 13, 23, 33, 24, 28, 29, 31, 28, 27, 28, 18, 26, 12, 12, 18, 35, 22, 6, 32, 16, 17, 16, 16, 32
            |25, 21, 34, 31, 30, 13, 58, 35, 11, 20, 53, 37, 25, 16, 39, 42, 25, 40, 18, 33, 22, 33, 33, 11, 47, 41, 35, 23, 10, 22, 21, 26, 46, 55, 36, 16, 29, 29, 26, 35, 34, 11, 18, 30, 54, 32, 9, 9, 18, 31, 23, 47, 27, 8, 30, 0, 28, 41, 44, 59, 52, 51, 56, 24, 25, 18, 44, 46, 17, 34, 18, 41, 35, 50, 24, 26, 24, 45, 16, 14, 31
            |19, 17, 22, 27, 19, 31, 33, 19, 22, 29, 26, 17, 29, 18, 28, 19, 18, 19, 24, 5, 30, 12, 5, 24, 20, 22, 26, 19, 17, 22, 21, 9, 18, 27, 20, 12, 3, 2, 20, 15, 17, 25, 14, 23, 27, 10, 20, 27, 26, 12, 14, 21, 22, 26, 2, 28, 0, 16, 23, 33, 25, 30, 30, 29, 26, 26, 27, 20, 24, 14, 10, 20, 33, 25, 4, 30, 14, 18, 15, 14, 30
            |34, 23, 19, 42, 18, 40, 32, 14, 37, 45, 22, 9, 45, 33, 40, 25, 33, 8, 30, 14, 46, 9, 11, 34, 20, 11, 40, 24, 31, 26, 27, 15, 11, 24, 32, 27, 17, 16, 22, 26, 12, 35, 29, 37, 24, 9, 35, 38, 32, 25, 20, 20, 37, 41, 13, 41, 16, 0, 30, 33, 23, 15, 28, 44, 42, 33, 36, 5, 39, 9, 25, 8, 47, 9, 20, 45, 29, 17, 25, 28, 45
            |21, 40, 44, 22, 41, 52, 16, 40, 34, 33, 18, 36, 29, 29, 15, 5, 20, 37, 46, 19, 33, 32, 22, 45, 13, 40, 17, 42, 35, 45, 44, 32, 22, 18, 9, 29, 20, 21, 43, 9, 38, 45, 26, 19, 17, 31, 35, 47, 48, 13, 37, 13, 21, 38, 23, 44, 23, 30, 0, 16, 16, 44, 16, 29, 26, 48, 7, 31, 31, 34, 27, 38, 25, 35, 23, 29, 20, 15, 36, 31, 25
            |37, 50, 51, 38, 49, 64, 1, 46, 49, 49, 12, 41, 46, 44, 30, 16, 36, 41, 57, 28, 49, 38, 30, 57, 14, 44, 33, 52, 49, 55, 54, 41, 22, 10, 25, 43, 31, 31, 52, 24, 44, 58, 41, 36, 9, 38, 49, 60, 59, 28, 47, 13, 37, 54, 33, 59, 33, 33, 16, 0, 10, 44, 5, 46, 43, 60, 21, 31, 47, 40, 41, 41, 41, 34, 35, 45, 35, 17, 48, 45, 41
            |33, 41, 41, 37, 39, 56, 9, 36, 44, 46, 3, 31, 43, 38, 30, 12, 32, 31, 48, 20, 46, 29, 21, 49, 5, 34, 32, 43, 42, 45, 45, 32, 12, 3, 24, 36, 23, 23, 42, 20, 34, 50, 35, 33, 2, 28, 43, 52, 50, 23, 38, 4, 34, 48, 24, 52, 25, 23, 16, 10, 0, 34, 5, 43, 40, 51, 22, 21, 42, 30, 34, 31, 41, 24, 28, 43, 30, 7, 40, 38, 40
            |49, 31, 20, 57, 23, 47, 43, 17, 50, 59, 32, 15, 59, 47, 55, 39, 47, 12, 37, 29, 60, 19, 26, 42, 33, 11, 55, 30, 43, 32, 33, 26, 23, 34, 47, 39, 32, 30, 27, 41, 17, 43, 43, 52, 35, 21, 47, 46, 38, 40, 29, 33, 52, 53, 28, 51, 30, 15, 44, 44, 34, 0, 39, 58, 56, 39, 51, 14, 53, 17, 38, 11, 62, 10, 34, 60, 44, 30, 35, 41, 59
            |36, 46, 46, 38, 45, 61, 4, 41, 47, 49, 7, 36, 45, 42, 31, 14, 35, 36, 53, 25, 48, 34, 26, 54, 10, 39, 33, 48, 46, 51, 50, 37, 17, 5, 25, 40, 28, 28, 48, 23, 39, 55, 38, 35, 4, 34, 47, 57, 55, 26, 43, 9, 36, 52, 29, 56, 30, 28, 16, 5, 5, 39, 0, 45, 42, 56, 22, 26, 45, 35, 38, 36, 42, 29, 32, 45, 34, 12, 45, 42, 41
            |10, 35, 47, 9, 43, 37, 46, 45, 14, 5, 45, 45, 1, 13, 18, 31, 12, 47, 37, 30, 4, 40, 33, 32, 38, 49, 14, 38, 22, 40, 38, 34, 43, 46, 20, 21, 27, 28, 42, 23, 44, 32, 16, 10, 45, 38, 18, 32, 39, 21, 35, 39, 9, 16, 31, 24, 29, 44, 29, 46, 43, 58, 45, 0, 3, 39, 26, 48, 8, 42, 21, 48, 11, 53, 25, 2, 15, 39, 30, 21, 7
            |8, 34, 45, 6, 41, 37, 43, 44, 14, 7, 42, 42, 3, 12, 16, 28, 9, 45, 36, 28, 6, 37, 30, 32, 35, 47, 11, 37, 21, 39, 37, 32, 40, 43, 17, 20, 24, 26, 40, 20, 42, 32, 15, 7, 42, 36, 18, 32, 38, 18, 34, 36, 6, 17, 28, 25, 26, 42, 26, 43, 40, 56, 42, 3, 0, 38, 23, 45, 8, 40, 20, 46, 10, 50, 23, 4, 12, 36, 28, 20, 6
            |35, 10, 19, 43, 16, 8, 59, 22, 25, 35, 51, 26, 40, 26, 49, 45, 34, 29, 3, 31, 37, 25, 30, 7, 46, 28, 45, 9, 17, 7, 6, 19, 42, 53, 43, 20, 29, 29, 12, 39, 23, 7, 25, 40, 53, 24, 20, 9, 1, 35, 14, 47, 38, 24, 27, 18, 26, 33, 48, 60, 51, 39, 56, 39, 38, 0, 51, 38, 31, 25, 22, 30, 48, 41, 25, 41, 32, 44, 12, 19, 44
            |19, 43, 49, 18, 46, 53, 21, 45, 33, 30, 25, 42, 26, 28, 9, 12, 19, 43, 48, 24, 30, 37, 27, 47, 20, 46, 12, 46, 36, 48, 47, 36, 29, 25, 8, 31, 24, 25, 47, 12, 43, 47, 27, 16, 24, 36, 35, 48, 51, 16, 40, 21, 18, 37, 28, 44, 27, 36, 7, 21, 22, 51, 22, 26, 23, 51, 0, 38, 29, 39, 29, 44, 20, 42, 26, 25, 20, 22, 39, 33, 20
            |38, 28, 23, 45, 23, 45, 30, 18, 42, 49, 19, 13, 48, 38, 43, 25, 36, 11, 35, 17, 50, 14, 15, 39, 19, 14, 42, 29, 36, 31, 32, 20, 9, 21, 34, 31, 21, 20, 27, 28, 16, 40, 34, 41, 22, 14, 39, 43, 37, 28, 25, 19, 40, 46, 18, 46, 20, 5, 31, 31, 21, 14, 26, 48, 45, 38, 38, 0, 44, 13, 30, 11, 50, 5, 24, 49, 33, 16, 30, 33, 48
            |10, 28, 40, 14, 36, 29, 46, 39, 6, 6, 44, 39, 9, 6, 23, 31, 11, 42, 29, 27, 7, 34, 28, 24, 37, 43, 19, 31, 14, 32, 30, 28, 40, 45, 22, 14, 23, 24, 34, 23, 38, 24, 10, 13, 45, 32, 10, 24, 31, 19, 28, 38, 11, 9, 26, 17, 24, 39, 31, 47, 42, 53, 45, 8, 8, 31, 29, 44, 0, 36, 15, 42, 18, 48, 20, 10, 12, 37, 22, 14, 14
            |33, 15, 11, 41, 10, 32, 39, 6, 33, 41, 29, 3, 42, 29, 42, 29, 31, 6, 22, 15, 43, 2, 12, 26, 26, 8, 40, 15, 25, 18, 18, 9, 19, 31, 34, 22, 17, 15, 14, 28, 4, 27, 26, 37, 32, 4, 29, 30, 24, 26, 12, 27, 36, 35, 12, 34, 14, 9, 34, 40, 30, 17, 35, 42, 40, 25, 39, 13, 36, 0, 21, 7, 47, 16, 17, 43, 28, 23, 18, 23, 44
            |14, 15, 26, 23, 21, 24, 40, 24, 12, 21, 35, 24, 22, 9, 27, 25, 13, 27, 19, 14, 22, 19, 15, 17, 28, 28, 24, 18, 8, 20, 19, 13, 28, 36, 21, 2, 10, 11, 21, 18, 23, 18, 5, 19, 36, 17, 10, 20, 22, 14, 14, 29, 17, 16, 12, 18, 10, 25, 27, 41, 34, 38, 38, 21, 20, 22, 29, 30, 15, 21, 0, 27, 28, 34, 6, 23, 10, 27, 10, 4, 25
            |39, 21, 12, 47, 14, 37, 40, 8, 39, 48, 29, 4, 49, 36, 47, 32, 38, 1, 27, 20, 49, 9, 17, 32, 28, 3, 46, 20, 32, 23, 23, 15, 19, 32, 38, 29, 22, 21, 18, 33, 7, 33, 32, 43, 32, 10, 36, 36, 29, 31, 18, 28, 42, 42, 18, 41, 20, 8, 38, 41, 31, 11, 36, 48, 46, 30, 44, 11, 42, 7, 27, 0, 53, 12, 23, 50, 34, 25, 25, 30, 50
            |14, 43, 54, 6, 50, 47, 41, 51, 24, 16, 43, 50, 10, 22, 11, 29, 16, 52, 46, 33, 14, 45, 36, 42, 37, 55, 9, 47, 31, 48, 47, 40, 44, 44, 17, 29, 31, 32, 49, 22, 50, 42, 24, 10, 42, 43, 28, 42, 48, 22, 42, 38, 11, 27, 35, 35, 33, 47, 25, 41, 41, 62, 42, 11, 10, 48, 20, 50, 18, 47, 28, 53, 0, 55, 30, 9, 19, 38, 38, 29, 4
            |43, 32, 24, 50, 25, 48, 33, 19, 47, 54, 22, 15, 53, 42, 48, 30, 41, 13, 38, 22, 55, 17, 20, 42, 23, 14, 47, 31, 40, 34, 34, 24, 13, 24, 39, 36, 26, 25, 29, 33, 18, 43, 38, 46, 25, 18, 44, 46, 40, 33, 28, 23, 45, 50, 22, 50, 25, 9, 35, 34, 24, 10, 29, 53, 50, 41, 42, 5, 48, 16, 34, 12, 55, 0, 29, 54, 38, 21, 34, 38, 53
            |16, 16, 24, 24, 20, 29, 35, 21, 18, 25, 29, 20, 25, 14, 26, 20, 14, 23, 22, 8, 26, 15, 9, 22, 22, 25, 24, 19, 14, 22, 21, 10, 22, 30, 19, 8, 4, 5, 21, 15, 20, 23, 9, 20, 30, 13, 16, 25, 25, 11, 14, 23, 19, 22, 6, 24, 4, 20, 23, 35, 28, 34, 32, 25, 23, 25, 26, 24, 20, 17, 6, 23, 30, 29, 0, 26, 11, 21, 13, 10, 27
            |11, 37, 49, 8, 44, 39, 45, 47, 16, 7, 45, 46, 1, 15, 17, 31, 13, 49, 39, 31, 5, 41, 34, 34, 38, 51, 13, 40, 24, 41, 40, 36, 44, 46, 20, 23, 28, 29, 43, 23, 45, 34, 18, 10, 45, 40, 20, 34, 41, 21, 37, 39, 9, 18, 32, 26, 30, 45, 29, 45, 43, 60, 45, 2, 4, 41, 25, 49, 10, 43, 23, 50, 9, 54, 26, 0, 16, 39, 31, 23, 6
            |5, 25, 35, 13, 31, 33, 35, 32, 14, 16, 32, 31, 15, 9, 17, 19, 4, 33, 29, 16, 17, 26, 18, 27, 25, 36, 14, 28, 16, 30, 29, 21, 29, 33, 12, 11, 12, 14, 31, 11, 31, 27, 7, 9, 33, 24, 15, 28, 31, 7, 24, 26, 8, 18, 16, 24, 14, 29, 20, 35, 30, 44, 34, 15, 12, 32, 20, 33, 12, 28, 10, 34, 19, 38, 11, 16, 0, 25, 20, 13, 16
            |28, 34, 34, 33, 33, 49, 16, 29, 38, 41, 8, 25, 39, 32, 29, 10, 27, 25, 41, 13, 41, 22, 14, 42, 3, 28, 30, 36, 35, 38, 38, 25, 8, 9, 21, 29, 17, 16, 36, 16, 28, 43, 29, 29, 9, 21, 37, 45, 43, 18, 30, 3, 30, 42, 17, 45, 18, 17, 15, 17, 7, 30, 12, 39, 36, 44, 22, 16, 37, 23, 27, 25, 38, 21, 21, 39, 25, 0, 33, 31, 36
            |24, 6, 18, 32, 14, 16, 47, 19, 17, 27, 40, 20, 30, 16, 37, 33, 23, 24, 9, 20, 29, 17, 19, 9, 35, 24, 34, 9, 8, 10, 9, 10, 32, 42, 31, 9, 17, 17, 12, 27, 18, 10, 14, 29, 42, 16, 13, 13, 12, 23, 7, 35, 27, 19, 16, 16, 15, 25, 36, 48, 40, 35, 45, 30, 28, 12, 39, 30, 22, 18, 10, 25, 38, 34, 13, 31, 20, 33, 0, 9, 34
            |16, 14, 26, 24, 22, 21, 44, 26, 9, 19, 39, 26, 22, 8, 30, 29, 15, 29, 17, 19, 21, 22, 19, 14, 33, 31, 26, 17, 4, 19, 17, 15, 32, 41, 25, 2, 15, 16, 21, 22, 24, 14, 6, 21, 40, 20, 6, 16, 19, 18, 14, 34, 19, 12, 16, 14, 14, 28, 31, 45, 38, 41, 42, 21, 20, 19, 33, 33, 14, 23, 4, 30, 29, 38, 10, 23, 13, 31, 9, 0, 25
            |11, 40, 50, 3, 46, 43, 41, 48, 20, 12, 42, 46, 6, 18, 12, 28, 12, 49, 42, 30, 11, 41, 33, 38, 35, 51, 8, 43, 27, 44, 43, 37, 42, 43, 16, 25, 28, 29, 46, 21, 46, 38, 20, 7, 42, 40, 24, 38, 44, 19, 39, 36, 8, 23, 32, 31, 30, 45, 25, 41, 40, 59, 41, 7, 6, 44, 20, 48, 14, 44, 25, 50, 4, 53, 27, 6, 16, 36, 34, 25, 0|];