% n80w140.002	   40.00 704
n = 81;
duration = [|0, 22, 40, 7, 34, 35, 37, 23, 35, 27, 9, 34, 13, 44, 24, 41, 50, 25, 28, 15, 9, 27, 24, 18, 9, 28, 5, 31, 46, 27, 25, 34, 25, 33, 38, 16, 12, 34, 18, 10, 48, 3, 18, 13, 8, 32, 5, 30, 32, 5, 42, 36, 9, 26, 30, 25, 28, 44, 40, 18, 20, 29, 13, 22, 4, 1, 15, 10, 52, 28, 42, 20, 20, 39, 7, 38, 30, 40, 9, 13, 27
            |22, 0, 40, 23, 15, 28, 52, 27, 16, 39, 20, 27, 31, 38, 20, 43, 47, 37, 23, 11, 30, 37, 27, 36, 31, 40, 18, 40, 43, 43, 4, 23, 39, 48, 44, 10, 19, 38, 23, 33, 45, 19, 22, 9, 26, 23, 17, 24, 19, 17, 31, 15, 14, 13, 39, 27, 32, 38, 49, 24, 24, 40, 12, 37, 19, 22, 9, 24, 50, 32, 46, 38, 34, 46, 15, 28, 46, 40, 13, 26, 30
            |40, 40, 0, 33, 35, 14, 31, 16, 35, 21, 47, 15, 32, 10, 20, 4, 10, 23, 17, 31, 36, 18, 16, 32, 40, 21, 41, 17, 8, 28, 37, 21, 24, 29, 11, 32, 29, 8, 22, 43, 9, 38, 22, 37, 47, 18, 38, 16, 23, 38, 18, 39, 36, 27, 16, 14, 11, 10, 17, 21, 20, 20, 43, 27, 36, 38, 42, 49, 13, 11, 9, 32, 25, 13, 39, 17, 29, 1, 39, 52, 13
            |7, 23, 33, 0, 32, 29, 32, 16, 33, 20, 16, 28, 9, 37, 18, 34, 43, 18, 22, 13, 8, 20, 17, 14, 10, 21, 10, 24, 39, 22, 24, 29, 19, 28, 31, 14, 6, 27, 11, 13, 41, 7, 11, 14, 15, 26, 8, 24, 27, 8, 36, 34, 9, 22, 23, 19, 21, 37, 33, 11, 13, 22, 16, 16, 5, 6, 17, 17, 45, 21, 35, 16, 14, 32, 10, 32, 25, 33, 12, 20, 20
            |34, 15, 35, 32, 0, 21, 56, 28, 1, 42, 34, 20, 39, 30, 19, 39, 39, 41, 19, 20, 40, 39, 28, 44, 42, 43, 31, 42, 35, 47, 10, 14, 43, 52, 43, 18, 26, 36, 27, 44, 37, 31, 26, 22, 40, 16, 29, 19, 11, 29, 21, 4, 25, 11, 40, 27, 31, 30, 48, 28, 26, 43, 26, 43, 31, 34, 24, 38, 42, 31, 43, 45, 39, 45, 28, 19, 50, 36, 26, 40, 30
            |35, 28, 14, 29, 21, 0, 40, 15, 21, 27, 40, 1, 32, 10, 11, 18, 19, 27, 7, 23, 35, 24, 14, 34, 38, 27, 34, 25, 15, 34, 25, 7, 29, 37, 23, 23, 23, 17, 18, 41, 17, 33, 18, 28, 43, 5, 32, 5, 10, 32, 8, 25, 28, 15, 23, 12, 14, 10, 29, 18, 16, 27, 35, 31, 31, 34, 33, 43, 22, 14, 22, 35, 27, 25, 32, 4, 36, 15, 31, 46, 14
            |37, 52, 31, 32, 56, 40, 0, 28, 57, 14, 46, 40, 24, 41, 37, 28, 39, 15, 38, 41, 28, 17, 28, 19, 30, 13, 41, 15, 39, 10, 52, 46, 13, 4, 20, 42, 34, 24, 30, 33, 39, 38, 31, 45, 42, 42, 40, 38, 46, 40, 47, 60, 41, 45, 17, 30, 26, 41, 15, 29, 30, 13, 48, 16, 37, 36, 49, 46, 40, 26, 25, 17, 18, 19, 42, 44, 7, 30, 43, 48, 27
            |23, 27, 16, 16, 28, 15, 28, 0, 29, 13, 31, 15, 17, 22, 9, 18, 26, 13, 10, 17, 21, 11, 1, 19, 24, 14, 25, 13, 23, 20, 26, 19, 15, 24, 17, 18, 13, 11, 6, 28, 25, 22, 6, 22, 31, 15, 22, 12, 19, 22, 23, 32, 20, 18, 12, 3, 5, 22, 21, 5, 4, 14, 28, 16, 20, 22, 27, 33, 29, 5, 20, 20, 12, 19, 23, 19, 22, 16, 23, 36, 4
            |35, 16, 35, 33, 1, 21, 57, 29, 0, 42, 35, 20, 40, 30, 20, 39, 39, 42, 20, 21, 40, 40, 28, 44, 43, 43, 32, 42, 35, 48, 11, 14, 44, 53, 43, 19, 27, 37, 28, 45, 37, 32, 26, 23, 41, 17, 30, 20, 12, 30, 20, 4, 26, 11, 41, 27, 32, 30, 49, 28, 27, 43, 27, 43, 32, 35, 25, 39, 42, 32, 43, 46, 40, 45, 29, 19, 51, 36, 27, 41, 30
            |27, 39, 21, 20, 42, 27, 14, 13, 42, 0, 36, 27, 15, 30, 23, 20, 31, 2, 24, 28, 19, 3, 14, 12, 22, 1, 30, 5, 29, 7, 38, 32, 3, 11, 14, 29, 20, 13, 16, 26, 31, 27, 17, 32, 33, 28, 28, 25, 32, 28, 35, 45, 28, 31, 5, 16, 13, 30, 13, 15, 16, 2, 36, 6, 25, 25, 36, 36, 33, 13, 19, 12, 6, 14, 30, 31, 9, 20, 31, 39, 13
            |9, 20, 47, 16, 34, 40, 46, 31, 35, 36, 0, 39, 22, 50, 29, 49, 56, 33, 33, 17, 18, 35, 31, 27, 17, 36, 6, 39, 52, 36, 24, 38, 34, 42, 46, 18, 18, 42, 25, 17, 55, 9, 24, 13, 7, 36, 9, 35, 34, 9, 46, 35, 11, 28, 39, 32, 36, 50, 49, 26, 27, 38, 8, 31, 11, 10, 11, 4, 59, 36, 50, 29, 29, 48, 8, 42, 39, 47, 9, 6, 34
            |34, 27, 15, 28, 20, 1, 40, 15, 20, 27, 39, 0, 32, 11, 10, 19, 20, 28, 7, 22, 35, 24, 14, 34, 38, 28, 34, 25, 16, 34, 24, 6, 30, 38, 24, 22, 23, 18, 18, 41, 18, 32, 17, 28, 42, 4, 31, 4, 9, 31, 8, 24, 28, 14, 24, 12, 15, 11, 30, 18, 16, 27, 34, 31, 30, 33, 32, 42, 23, 15, 23, 35, 27, 26, 31, 4, 36, 16, 30, 45, 14
            |13, 31, 32, 9, 39, 32, 24, 17, 40, 15, 22, 32, 0, 39, 23, 33, 43, 13, 26, 21, 4, 16, 18, 5, 8, 16, 17, 19, 40, 14, 33, 34, 13, 20, 28, 22, 13, 25, 14, 11, 42, 15, 15, 22, 19, 31, 16, 28, 33, 16, 40, 42, 18, 29, 19, 20, 21, 39, 28, 14, 16, 17, 25, 9, 13, 12, 26, 22, 45, 21, 33, 8, 9, 29, 18, 36, 17, 32, 20, 25, 20
            |44, 38, 10, 37, 30, 10, 41, 22, 30, 30, 50, 11, 39, 0, 21, 14, 9, 31, 17, 33, 42, 27, 21, 40, 46, 30, 44, 26, 5, 37, 35, 16, 33, 39, 21, 33, 32, 17, 26, 49, 7, 42, 26, 38, 52, 15, 41, 15, 20, 41, 10, 34, 38, 25, 25, 19, 18, 0, 27, 26, 24, 29, 45, 35, 40, 42, 43, 52, 12, 18, 18, 40, 32, 23, 42, 11, 38, 11, 41, 55, 19
            |24, 20, 20, 18, 19, 11, 37, 9, 20, 23, 29, 10, 23, 21, 0, 23, 28, 22, 4, 12, 25, 20, 9, 26, 28, 23, 24, 22, 24, 29, 18, 11, 24, 33, 25, 13, 13, 18, 9, 31, 26, 22, 8, 18, 32, 8, 21, 6, 10, 21, 18, 23, 18, 9, 21, 8, 13, 21, 30, 9, 8, 23, 24, 24, 20, 23, 23, 32, 31, 13, 26, 28, 21, 27, 21, 14, 31, 20, 21, 35, 11
            |41, 43, 4, 34, 39, 18, 28, 18, 39, 20, 49, 19, 33, 14, 23, 0, 11, 22, 21, 34, 37, 18, 18, 32, 40, 20, 43, 16, 10, 27, 41, 25, 23, 27, 8, 35, 31, 8, 24, 44, 11, 40, 25, 40, 49, 23, 40, 20, 28, 40, 23, 43, 38, 31, 15, 17, 13, 14, 14, 23, 22, 19, 46, 26, 38, 40, 45, 51, 13, 13, 4, 32, 25, 9, 42, 21, 27, 3, 42, 54, 15
            |50, 47, 10, 43, 39, 19, 39, 26, 39, 31, 56, 20, 43, 9, 28, 11, 0, 33, 25, 40, 46, 28, 25, 42, 50, 31, 50, 26, 4, 38, 44, 25, 34, 38, 19, 40, 38, 18, 32, 54, 2, 48, 32, 46, 57, 24, 48, 23, 28, 48, 19, 43, 45, 34, 26, 24, 22, 9, 24, 31, 30, 30, 52, 37, 46, 48, 51, 59, 3, 22, 14, 42, 35, 20, 48, 20, 38, 11, 48, 62, 23
            |25, 37, 23, 18, 41, 27, 15, 13, 42, 2, 33, 28, 13, 31, 22, 22, 33, 0, 23, 26, 17, 4, 14, 10, 20, 3, 28, 7, 31, 7, 37, 32, 2, 11, 16, 27, 19, 15, 14, 24, 32, 25, 16, 30, 31, 28, 26, 25, 32, 26, 35, 45, 26, 30, 7, 16, 13, 31, 16, 14, 15, 4, 34, 4, 23, 23, 35, 34, 35, 13, 21, 10, 4, 16, 28, 32, 9, 22, 29, 37, 14
            |28, 23, 17, 22, 19, 7, 38, 10, 20, 24, 33, 7, 26, 17, 4, 21, 25, 23, 0, 16, 28, 21, 9, 29, 31, 24, 27, 23, 21, 30, 20, 9, 26, 34, 23, 16, 16, 17, 12, 35, 23, 26, 11, 21, 35, 5, 24, 2, 8, 24, 14, 23, 21, 10, 21, 8, 12, 17, 29, 12, 10, 24, 28, 26, 24, 26, 26, 36, 28, 12, 24, 30, 22, 26, 25, 10, 32, 18, 24, 39, 11
            |15, 11, 31, 13, 20, 23, 41, 17, 21, 28, 17, 22, 21, 33, 12, 34, 40, 26, 16, 0, 20, 26, 17, 25, 22, 28, 13, 29, 36, 31, 12, 20, 28, 37, 34, 1, 8, 28, 12, 25, 38, 12, 11, 6, 22, 19, 10, 18, 17, 10, 28, 22, 6, 11, 28, 17, 22, 33, 38, 13, 13, 29, 12, 26, 11, 14, 11, 21, 43, 22, 37, 28, 23, 36, 10, 24, 34, 32, 9, 24, 20
            |9, 30, 36, 8, 40, 35, 28, 21, 40, 19, 18, 35, 4, 42, 25, 37, 46, 17, 28, 20, 0, 20, 22, 9, 4, 20, 14, 24, 43, 18, 32, 36, 17, 24, 32, 21, 13, 29, 16, 7, 45, 12, 17, 21, 14, 33, 14, 30, 34, 14, 42, 42, 16, 30, 24, 23, 25, 42, 33, 16, 18, 21, 22, 14, 11, 9, 24, 18, 49, 25, 37, 11, 13, 33, 16, 38, 21, 36, 18, 20, 24
            |27, 37, 18, 20, 39, 24, 17, 11, 40, 3, 35, 24, 16, 27, 20, 18, 28, 4, 21, 26, 20, 0, 11, 14, 23, 4, 30, 4, 26, 10, 36, 29, 6, 14, 12, 27, 19, 10, 14, 27, 28, 27, 15, 30, 34, 25, 27, 22, 29, 27, 32, 43, 27, 29, 4, 13, 9, 27, 13, 13, 13, 4, 35, 9, 25, 25, 35, 36, 30, 9, 17, 14, 7, 13, 29, 28, 12, 18, 30, 39, 10
            |24, 27, 16, 17, 28, 14, 28, 1, 28, 14, 31, 14, 18, 21, 9, 18, 25, 14, 9, 17, 22, 11, 0, 20, 25, 15, 25, 14, 22, 21, 26, 18, 16, 25, 17, 18, 13, 11, 6, 29, 24, 23, 7, 23, 32, 14, 22, 11, 18, 22, 22, 32, 21, 17, 13, 2, 5, 21, 22, 6, 4, 15, 28, 17, 21, 23, 28, 33, 28, 5, 20, 21, 13, 19, 24, 18, 23, 16, 24, 36, 3
            |18, 36, 32, 14, 44, 34, 19, 19, 44, 12, 27, 34, 5, 40, 26, 32, 42, 10, 29, 25, 9, 14, 20, 0, 11, 13, 23, 17, 40, 9, 37, 37, 9, 15, 26, 27, 18, 24, 17, 14, 41, 20, 18, 27, 23, 34, 22, 30, 36, 22, 42, 47, 23, 33, 17, 22, 21, 40, 25, 17, 19, 14, 30, 6, 18, 17, 31, 27, 44, 21, 31, 2, 7, 26, 24, 38, 12, 31, 25, 29, 21
            |9, 31, 40, 10, 42, 38, 30, 24, 43, 22, 17, 38, 8, 46, 28, 40, 50, 20, 31, 22, 4, 23, 25, 11, 0, 23, 14, 27, 47, 21, 34, 39, 20, 26, 35, 23, 16, 33, 20, 4, 49, 12, 20, 22, 12, 36, 14, 34, 37, 14, 46, 44, 17, 32, 27, 27, 28, 46, 36, 20, 22, 25, 22, 17, 12, 9, 24, 16, 52, 28, 40, 13, 16, 36, 16, 42, 23, 39, 18, 18, 27
            |28, 40, 21, 21, 43, 27, 13, 14, 43, 1, 36, 28, 16, 30, 23, 20, 31, 3, 24, 28, 20, 4, 15, 13, 23, 0, 31, 4, 29, 7, 39, 32, 4, 10, 13, 30, 21, 13, 17, 27, 30, 28, 18, 33, 34, 29, 29, 25, 33, 29, 35, 46, 29, 32, 5, 16, 13, 30, 13, 16, 17, 1, 37, 7, 26, 26, 37, 37, 33, 13, 18, 12, 7, 13, 31, 32, 9, 20, 32, 40, 14
            |5, 18, 41, 10, 31, 34, 41, 25, 32, 30, 6, 34, 17, 44, 24, 43, 50, 28, 27, 13, 14, 30, 25, 23, 14, 31, 0, 34, 47, 31, 21, 33, 29, 37, 40, 13, 12, 36, 19, 15, 49, 3, 19, 9, 9, 31, 3, 29, 30, 3, 41, 32, 6, 24, 33, 26, 30, 44, 43, 20, 21, 32, 8, 26, 5, 5, 10, 9, 53, 30, 44, 25, 24, 42, 3, 37, 34, 41, 5, 11, 28
            |31, 40, 17, 24, 42, 25, 15, 13, 42, 5, 39, 25, 19, 26, 22, 16, 26, 7, 23, 29, 24, 4, 14, 17, 27, 4, 34, 0, 25, 11, 40, 30, 8, 13, 9, 31, 23, 9, 17, 31, 26, 31, 18, 34, 38, 27, 31, 23, 31, 31, 32, 45, 31, 31, 1, 15, 11, 26, 9, 16, 17, 3, 39, 11, 29, 29, 39, 40, 28, 11, 14, 17, 11, 9, 33, 29, 12, 16, 34, 43, 12
            |46, 43, 8, 39, 35, 15, 39, 23, 35, 29, 52, 16, 40, 5, 24, 10, 4, 31, 21, 36, 43, 26, 22, 40, 47, 29, 47, 25, 0, 36, 40, 21, 32, 37, 18, 36, 35, 16, 28, 51, 2, 45, 28, 42, 54, 20, 44, 19, 24, 44, 16, 39, 41, 29, 24, 21, 19, 5, 24, 28, 26, 28, 48, 35, 42, 45, 47, 55, 7, 19, 14, 40, 33, 20, 45, 16, 37, 9, 44, 58, 20
            |27, 43, 28, 22, 47, 34, 10, 20, 48, 7, 36, 34, 14, 37, 29, 27, 38, 7, 30, 31, 18, 10, 21, 9, 21, 7, 31, 11, 36, 0, 43, 38, 4, 6, 19, 33, 24, 20, 21, 23, 37, 28, 22, 35, 32, 35, 30, 31, 38, 30, 42, 51, 31, 37, 12, 22, 20, 37, 17, 20, 21, 8, 38, 5, 26, 26, 39, 36, 39, 20, 25, 8, 9, 19, 32, 38, 3, 27, 33, 38, 20
            |25, 4, 37, 24, 10, 25, 52, 26, 11, 38, 24, 24, 33, 35, 18, 41, 44, 37, 20, 12, 32, 36, 26, 37, 34, 39, 21, 40, 40, 43, 0, 19, 39, 49, 43, 11, 20, 36, 23, 35, 42, 22, 21, 12, 30, 20, 20, 21, 16, 20, 27, 11, 16, 10, 38, 25, 31, 35, 48, 24, 23, 40, 16, 38, 22, 25, 13, 28, 47, 31, 44, 40, 34, 45, 18, 25, 46, 38, 16, 30, 29
            |34, 23, 21, 29, 14, 7, 46, 19, 14, 32, 38, 6, 34, 16, 11, 25, 25, 32, 9, 20, 36, 29, 18, 37, 39, 32, 33, 30, 21, 38, 19, 0, 34, 42, 30, 20, 23, 24, 20, 42, 23, 32, 19, 25, 41, 4, 30, 7, 4, 30, 8, 18, 26, 10, 29, 16, 20, 16, 36, 20, 18, 32, 31, 35, 30, 33, 29, 41, 28, 20, 29, 39, 31, 32, 30, 5, 41, 22, 29, 44, 19
            |25, 39, 24, 19, 43, 29, 13, 15, 44, 3, 34, 30, 13, 33, 24, 23, 34, 2, 26, 28, 17, 6, 16, 9, 20, 4, 29, 8, 32, 4, 39, 34, 0, 9, 17, 29, 20, 16, 16, 23, 34, 26, 18, 31, 31, 30, 27, 27, 34, 27, 37, 47, 28, 33, 9, 18, 15, 33, 16, 16, 17, 5, 35, 4, 24, 24, 36, 35, 36, 15, 22, 9, 5, 17, 29, 34, 7, 24, 30, 37, 16
            |33, 48, 29, 28, 52, 37, 4, 24, 53, 11, 42, 38, 20, 39, 33, 27, 38, 11, 34, 37, 24, 14, 25, 15, 26, 10, 37, 13, 37, 6, 49, 42, 9, 0, 19, 38, 30, 22, 26, 29, 38, 34, 27, 40, 38, 39, 36, 35, 43, 36, 45, 56, 37, 42, 14, 26, 23, 39, 15, 25, 26, 10, 44, 11, 33, 32, 45, 42, 39, 23, 24, 13, 14, 18, 38, 42, 3, 28, 39, 44, 24
            |38, 44, 11, 31, 43, 23, 20, 17, 43, 14, 46, 24, 28, 21, 25, 8, 19, 16, 23, 34, 32, 12, 17, 26, 35, 13, 40, 9, 18, 19, 43, 30, 17, 19, 0, 35, 29, 6, 22, 39, 19, 38, 23, 39, 45, 26, 38, 23, 31, 38, 29, 47, 37, 33, 8, 17, 12, 21, 6, 21, 21, 12, 45, 20, 35, 37, 44, 48, 20, 12, 5, 25, 19, 2, 40, 27, 19, 10, 40, 51, 14
            |16, 10, 32, 14, 18, 23, 42, 18, 19, 29, 18, 22, 22, 33, 13, 35, 40, 27, 16, 1, 21, 27, 18, 27, 23, 30, 13, 31, 36, 33, 11, 20, 29, 38, 35, 0, 9, 29, 13, 26, 39, 13, 12, 6, 22, 18, 11, 18, 17, 11, 28, 21, 7, 10, 29, 18, 23, 33, 39, 14, 14, 30, 12, 27, 12, 15, 10, 22, 43, 23, 37, 29, 24, 37, 10, 24, 36, 33, 9, 24, 21
            |12, 19, 29, 6, 26, 23, 34, 13, 27, 20, 18, 23, 13, 32, 13, 31, 38, 19, 16, 8, 13, 19, 13, 18, 16, 21, 12, 23, 35, 24, 20, 23, 20, 30, 29, 9, 0, 24, 7, 19, 37, 10, 6, 11, 19, 21, 9, 18, 21, 9, 30, 29, 8, 16, 22, 14, 18, 32, 32, 8, 9, 22, 16, 18, 8, 10, 16, 21, 41, 18, 32, 20, 15, 31, 11, 26, 27, 29, 11, 23, 16
            |34, 38, 8, 27, 36, 17, 24, 11, 37, 13, 42, 18, 25, 17, 18, 8, 18, 15, 17, 28, 29, 10, 11, 24, 33, 13, 36, 9, 16, 20, 36, 24, 16, 22, 6, 29, 24, 0, 17, 36, 17, 33, 18, 34, 41, 20, 33, 17, 25, 33, 24, 40, 32, 27, 8, 11, 6, 17, 12, 16, 16, 12, 40, 19, 31, 32, 39, 44, 20, 6, 9, 24, 17, 9, 35, 21, 21, 7, 35, 46, 8
            |18, 23, 22, 11, 27, 18, 30, 6, 28, 16, 25, 18, 14, 26, 9, 24, 32, 14, 12, 12, 16, 14, 6, 17, 20, 17, 19, 17, 28, 21, 23, 20, 16, 26, 22, 13, 7, 17, 0, 23, 30, 16, 1, 17, 25, 17, 16, 14, 19, 16, 26, 30, 15, 16, 16, 8, 11, 26, 26, 1, 2, 17, 23, 16, 14, 16, 22, 27, 35, 11, 26, 19, 12, 24, 17, 22, 23, 22, 18, 30, 9
            |10, 33, 43, 13, 44, 41, 33, 28, 45, 26, 17, 41, 11, 49, 31, 44, 54, 24, 35, 25, 7, 27, 29, 14, 4, 27, 15, 31, 51, 23, 35, 42, 23, 29, 39, 26, 19, 36, 23, 0, 52, 13, 24, 23, 10, 39, 16, 37, 40, 16, 49, 46, 19, 35, 30, 30, 32, 49, 39, 23, 25, 28, 23, 20, 14, 11, 25, 15, 56, 32, 44, 16, 20, 40, 17, 45, 26, 43, 20, 16, 31
            |48, 45, 9, 41, 37, 17, 39, 25, 37, 31, 55, 18, 42, 7, 26, 11, 2, 32, 23, 38, 45, 28, 24, 41, 49, 30, 49, 26, 2, 37, 42, 23, 34, 38, 19, 39, 37, 17, 30, 52, 0, 47, 30, 44, 56, 22, 46, 21, 26, 46, 17, 41, 43, 32, 25, 23, 21, 7, 25, 30, 28, 29, 50, 36, 45, 47, 49, 57, 5, 21, 15, 42, 34, 20, 47, 18, 38, 10, 46, 60, 22
            |3, 19, 38, 7, 31, 33, 38, 22, 32, 27, 9, 32, 15, 42, 22, 40, 48, 25, 26, 12, 12, 27, 23, 20, 12, 28, 3, 31, 45, 28, 22, 32, 26, 34, 38, 13, 10, 33, 16, 13, 47, 0, 16, 10, 10, 30, 2, 28, 29, 2, 39, 33, 6, 23, 30, 24, 27, 42, 40, 17, 18, 29, 10, 23, 2, 3, 12, 11, 51, 27, 42, 22, 21, 39, 4, 35, 31, 39, 6, 13, 26
            |18, 22, 22, 11, 26, 18, 31, 6, 26, 17, 24, 17, 15, 26, 8, 25, 32, 16, 11, 11, 17, 15, 7, 18, 20, 18, 19, 18, 28, 22, 21, 19, 18, 27, 23, 12, 6, 18, 1, 24, 30, 16, 0, 16, 26, 16, 16, 13, 18, 16, 25, 29, 14, 15, 17, 8, 12, 26, 27, 2, 2, 18, 22, 17, 14, 16, 21, 27, 35, 12, 26, 20, 13, 25, 17, 21, 25, 22, 17, 30, 10
            |13, 9, 37, 14, 22, 28, 45, 22, 23, 32, 13, 28, 22, 38, 18, 40, 46, 30, 21, 6, 21, 30, 23, 27, 22, 33, 9, 34, 42, 35, 12, 25, 31, 40, 39, 6, 11, 34, 17, 23, 44, 10, 16, 0, 18, 24, 8, 23, 22, 8, 34, 23, 4, 16, 33, 23, 28, 38, 43, 18, 18, 33, 6, 29, 10, 13, 5, 16, 49, 28, 42, 30, 26, 41, 6, 30, 38, 38, 4, 19, 26
            |8, 26, 47, 15, 40, 43, 42, 31, 41, 33, 7, 42, 19, 52, 32, 49, 57, 31, 35, 22, 14, 34, 32, 23, 12, 34, 9, 38, 54, 32, 30, 41, 31, 38, 45, 22, 19, 41, 25, 10, 56, 10, 26, 18, 0, 39, 11, 38, 39, 11, 49, 41, 15, 33, 37, 33, 36, 52, 47, 26, 28, 35, 15, 28, 12, 9, 18, 4, 60, 36, 50, 25, 27, 47, 12, 45, 35, 47, 14, 6, 35
            |32, 23, 18, 26, 16, 5, 42, 15, 17, 28, 36, 4, 31, 15, 8, 23, 24, 28, 5, 19, 33, 25, 14, 34, 36, 29, 31, 27, 20, 35, 20, 4, 30, 39, 26, 18, 21, 20, 17, 39, 22, 30, 16, 24, 39, 0, 28, 4, 5, 28, 10, 21, 25, 10, 25, 13, 16, 15, 32, 17, 15, 29, 30, 31, 28, 31, 28, 39, 27, 16, 26, 35, 28, 29, 28, 6, 37, 19, 27, 42, 15
            |5, 17, 38, 8, 29, 32, 40, 22, 30, 28, 9, 31, 16, 41, 21, 40, 48, 26, 24, 10, 14, 27, 22, 22, 14, 29, 3, 31, 44, 30, 20, 30, 27, 36, 38, 11, 9, 33, 16, 16, 46, 2, 16, 8, 11, 28, 0, 27, 27, 0, 38, 31, 4, 21, 31, 24, 27, 41, 41, 17, 18, 30, 9, 24, 3, 5, 10, 11, 50, 27, 42, 24, 22, 40, 2, 34, 33, 38, 4, 14, 26
            |30, 24, 16, 24, 19, 5, 38, 12, 20, 25, 35, 4, 28, 15, 6, 20, 23, 25, 2, 18, 30, 22, 11, 30, 34, 25, 29, 23, 19, 31, 21, 7, 27, 35, 23, 18, 18, 17, 14, 37, 21, 28, 13, 23, 38, 4, 27, 0, 8, 27, 12, 23, 23, 11, 22, 9, 13, 15, 29, 14, 12, 25, 30, 28, 26, 29, 28, 38, 26, 13, 24, 32, 24, 25, 27, 8, 34, 17, 26, 41, 11
            |32, 19, 23, 27, 11, 10, 46, 19, 12, 32, 34, 9, 33, 20, 10, 28, 28, 32, 8, 17, 34, 29, 18, 36, 37, 33, 30, 31, 24, 38, 16, 4, 34, 43, 31, 17, 21, 25, 19, 40, 26, 29, 18, 22, 39, 5, 27, 8, 0, 27, 12, 16, 23, 6, 30, 16, 21, 20, 37, 19, 17, 33, 28, 34, 27, 30, 26, 38, 32, 21, 31, 38, 30, 34, 27, 9, 41, 25, 25, 41, 19
            |5, 17, 38, 8, 29, 32, 40, 22, 30, 28, 9, 31, 16, 41, 21, 40, 48, 26, 24, 10, 14, 27, 22, 22, 14, 29, 3, 31, 44, 30, 20, 30, 27, 36, 38, 11, 9, 33, 16, 16, 46, 2, 16, 8, 11, 28, 0, 27, 27, 0, 38, 31, 4, 21, 31, 24, 27, 41, 41, 17, 18, 30, 9, 24, 3, 5, 10, 11, 50, 27, 42, 24, 22, 40, 2, 34, 33, 38, 4, 14, 26
            |42, 31, 18, 36, 21, 8, 47, 23, 20, 35, 46, 8, 40, 10, 18, 23, 19, 35, 14, 28, 42, 32, 22, 42, 46, 35, 41, 32, 16, 42, 27, 8, 37, 45, 29, 28, 30, 24, 26, 49, 17, 39, 25, 34, 49, 10, 38, 12, 12, 38, 0, 24, 34, 18, 31, 20, 22, 10, 35, 26, 24, 35, 40, 39, 38, 40, 38, 49, 22, 22, 27, 43, 35, 31, 38, 4, 44, 20, 37, 52, 22
            |36, 15, 39, 34, 4, 25, 60, 32, 4, 45, 35, 24, 42, 34, 23, 43, 43, 45, 23, 22, 42, 43, 32, 47, 44, 46, 32, 45, 39, 51, 11, 18, 47, 56, 47, 21, 29, 40, 30, 46, 41, 33, 29, 23, 41, 21, 31, 23, 16, 31, 24, 0, 27, 14, 44, 31, 35, 34, 52, 31, 30, 46, 27, 46, 33, 35, 24, 39, 46, 35, 47, 49, 42, 49, 29, 23, 54, 40, 27, 41, 34
            |9, 14, 36, 9, 25, 28, 41, 20, 26, 28, 11, 28, 18, 38, 18, 38, 45, 26, 21, 6, 16, 27, 21, 23, 17, 29, 6, 31, 41, 31, 16, 26, 28, 37, 37, 7, 8, 32, 15, 19, 43, 6, 14, 4, 15, 25, 4, 23, 23, 4, 34, 27, 0, 17, 30, 21, 26, 38, 40, 16, 16, 30, 8, 25, 6, 9, 8, 15, 48, 26, 40, 26, 23, 39, 4, 31, 34, 36, 3, 17, 24
            |26, 13, 27, 22, 11, 15, 45, 18, 11, 31, 28, 14, 29, 25, 9, 31, 34, 30, 10, 11, 30, 29, 17, 33, 32, 32, 24, 31, 29, 37, 10, 10, 33, 42, 33, 10, 16, 27, 16, 35, 32, 23, 15, 16, 33, 10, 21, 11, 6, 21, 18, 14, 17, 0, 30, 17, 22, 25, 39, 17, 16, 32, 22, 32, 22, 25, 19, 32, 37, 22, 34, 35, 28, 35, 21, 15, 40, 28, 19, 35, 20
            |30, 39, 16, 23, 40, 23, 17, 12, 41, 5, 39, 24, 19, 25, 21, 15, 26, 7, 21, 28, 24, 4, 13, 17, 27, 5, 33, 1, 24, 12, 38, 29, 9, 14, 8, 29, 22, 8, 16, 30, 25, 30, 17, 33, 37, 25, 31, 22, 30, 31, 31, 44, 30, 30, 0, 14, 9, 25, 10, 15, 16, 4, 38, 12, 28, 29, 38, 40, 28, 9, 14, 17, 11, 9, 32, 28, 13, 15, 33, 43, 11
            |25, 27, 14, 19, 27, 12, 30, 3, 27, 16, 32, 12, 20, 19, 8, 17, 24, 16, 8, 17, 23, 13, 2, 22, 27, 16, 26, 15, 21, 22, 25, 16, 18, 26, 17, 18, 14, 11, 8, 30, 23, 24, 8, 23, 33, 13, 24, 9, 16, 24, 20, 31, 21, 17, 14, 0, 5, 19, 22, 7, 6, 16, 29, 19, 22, 24, 28, 35, 27, 5, 19, 23, 15, 19, 25, 16, 25, 15, 25, 38, 3
            |28, 32, 11, 21, 31, 14, 26, 5, 32, 13, 36, 15, 21, 18, 13, 13, 22, 13, 12, 22, 25, 9, 5, 21, 28, 13, 30, 11, 19, 20, 31, 20, 15, 23, 12, 23, 18, 6, 11, 32, 21, 27, 12, 28, 36, 16, 27, 13, 21, 27, 22, 35, 26, 22, 9, 5, 0, 18, 17, 10, 9, 13, 34, 17, 25, 27, 33, 38, 24, 0, 15, 22, 14, 14, 29, 19, 22, 11, 29, 41, 2
            |44, 38, 10, 37, 30, 10, 41, 22, 30, 30, 50, 11, 39, 0, 21, 14, 9, 31, 17, 33, 42, 27, 21, 40, 46, 30, 44, 26, 5, 37, 35, 16, 33, 39, 21, 33, 32, 17, 26, 49, 7, 42, 26, 38, 52, 15, 41, 15, 20, 41, 10, 34, 38, 25, 25, 19, 18, 0, 27, 26, 24, 29, 45, 35, 40, 42, 43, 52, 12, 18, 18, 40, 32, 23, 42, 11, 38, 11, 41, 55, 19
            |40, 49, 17, 33, 48, 29, 15, 21, 49, 13, 49, 30, 28, 27, 30, 14, 24, 16, 29, 38, 33, 13, 22, 25, 36, 13, 43, 9, 24, 17, 48, 36, 16, 15, 6, 39, 32, 12, 26, 39, 25, 40, 27, 43, 47, 32, 41, 29, 37, 41, 35, 52, 40, 39, 10, 22, 17, 27, 0, 25, 25, 11, 48, 19, 38, 39, 48, 50, 25, 17, 10, 24, 20, 4, 42, 33, 16, 16, 43, 52, 19
            |18, 24, 21, 11, 28, 18, 29, 5, 28, 15, 26, 18, 14, 26, 9, 23, 31, 14, 12, 13, 16, 13, 6, 17, 20, 16, 20, 16, 28, 20, 24, 20, 16, 25, 21, 14, 8, 16, 1, 23, 30, 17, 2, 18, 26, 17, 17, 14, 19, 17, 26, 31, 16, 17, 15, 7, 10, 26, 25, 0, 2, 16, 24, 15, 15, 17, 23, 28, 34, 10, 25, 18, 11, 23, 18, 22, 23, 21, 19, 31, 9
            |20, 24, 20, 13, 26, 16, 30, 4, 27, 16, 27, 16, 16, 24, 8, 22, 30, 15, 10, 13, 18, 13, 4, 19, 22, 17, 21, 17, 26, 21, 23, 18, 17, 26, 21, 14, 9, 16, 2, 25, 28, 18, 2, 18, 28, 15, 18, 12, 17, 18, 24, 30, 16, 16, 16, 6, 9, 24, 25, 2, 0, 17, 24, 17, 16, 18, 23, 29, 33, 9, 24, 20, 13, 23, 19, 20, 24, 20, 19, 32, 8
            |29, 40, 20, 22, 43, 27, 13, 14, 43, 2, 38, 27, 17, 29, 23, 19, 30, 4, 24, 29, 21, 4, 15, 14, 25, 1, 32, 3, 28, 8, 40, 32, 5, 10, 12, 30, 22, 12, 17, 28, 29, 29, 18, 33, 35, 29, 30, 25, 33, 30, 35, 46, 30, 32, 4, 16, 13, 29, 11, 16, 17, 0, 38, 8, 27, 28, 38, 39, 31, 13, 17, 14, 9, 12, 32, 31, 9, 19, 33, 41, 14
            |13, 12, 43, 16, 26, 35, 48, 28, 27, 36, 8, 34, 25, 45, 24, 46, 52, 34, 28, 12, 22, 35, 28, 30, 22, 37, 8, 39, 48, 38, 16, 31, 35, 44, 45, 12, 16, 40, 23, 23, 50, 10, 22, 6, 15, 30, 9, 30, 28, 9, 40, 27, 8, 22, 38, 29, 34, 45, 48, 24, 24, 38, 0, 33, 12, 13, 3, 12, 55, 34, 48, 32, 30, 47, 6, 36, 41, 44, 5, 14, 32
            |22, 37, 27, 16, 43, 31, 16, 16, 43, 6, 31, 31, 9, 35, 24, 26, 37, 4, 26, 26, 14, 9, 17, 6, 17, 7, 26, 11, 35, 5, 38, 35, 4, 11, 20, 27, 18, 19, 16, 20, 36, 23, 17, 29, 28, 31, 24, 28, 34, 24, 39, 46, 25, 32, 12, 19, 17, 35, 19, 15, 17, 8, 33, 0, 21, 21, 34, 31, 39, 17, 25, 5, 4, 21, 26, 35, 9, 26, 28, 34, 17
            |4, 19, 36, 5, 31, 31, 37, 20, 32, 25, 11, 30, 13, 40, 20, 38, 46, 23, 24, 11, 11, 25, 21, 18, 12, 26, 5, 29, 42, 26, 22, 30, 24, 33, 35, 12, 8, 31, 14, 14, 45, 2, 14, 10, 12, 28, 3, 26, 27, 3, 38, 33, 6, 22, 28, 22, 25, 40, 38, 15, 16, 27, 12, 21, 0, 3, 13, 13, 49, 25, 39, 21, 19, 37, 5, 34, 30, 36, 7, 16, 24
            |1, 22, 38, 6, 34, 34, 36, 22, 35, 25, 10, 33, 12, 42, 23, 40, 48, 23, 26, 14, 9, 25, 23, 17, 9, 26, 5, 29, 45, 26, 25, 33, 24, 32, 37, 15, 10, 32, 16, 11, 47, 3, 16, 13, 9, 31, 5, 29, 30, 5, 40, 35, 9, 25, 29, 24, 27, 42, 39, 17, 18, 28, 13, 21, 3, 0, 15, 11, 51, 27, 41, 20, 19, 38, 7, 36, 29, 38, 9, 14, 25
            |15, 9, 42, 17, 24, 33, 49, 27, 25, 36, 11, 32, 26, 43, 23, 45, 51, 35, 26, 11, 24, 35, 28, 31, 24, 37, 10, 39, 47, 39, 13, 29, 36, 45, 44, 10, 16, 39, 22, 25, 49, 12, 21, 5, 18, 28, 10, 28, 26, 10, 38, 24, 8, 19, 38, 28, 33, 43, 48, 23, 23, 38, 3, 34, 13, 15, 0, 15, 54, 33, 47, 34, 31, 46, 8, 34, 42, 43, 6, 17, 31
            |10, 24, 49, 17, 38, 43, 46, 33, 39, 36, 4, 42, 22, 52, 32, 51, 59, 34, 36, 21, 18, 36, 33, 27, 16, 37, 9, 40, 55, 36, 28, 41, 35, 42, 48, 22, 21, 44, 27, 15, 57, 11, 27, 16, 4, 39, 11, 38, 38, 11, 49, 39, 15, 32, 40, 35, 38, 52, 50, 28, 29, 39, 12, 31, 13, 11, 15, 0, 62, 38, 52, 29, 30, 49, 11, 45, 39, 49, 13, 3, 36
            |52, 50, 13, 45, 42, 22, 40, 29, 42, 33, 59, 23, 45, 12, 31, 13, 3, 35, 28, 43, 49, 30, 28, 44, 52, 33, 53, 28, 7, 39, 47, 28, 36, 39, 20, 43, 41, 20, 35, 56, 5, 51, 35, 49, 60, 27, 50, 26, 32, 50, 22, 46, 48, 37, 28, 27, 24, 12, 25, 34, 33, 31, 55, 39, 49, 51, 54, 62, 0, 24, 15, 44, 37, 21, 51, 23, 40, 13, 51, 64, 25
            |28, 32, 11, 21, 31, 14, 26, 5, 32, 13, 36, 15, 21, 18, 13, 13, 22, 13, 12, 22, 25, 9, 5, 21, 28, 13, 30, 11, 19, 20, 31, 20, 15, 23, 12, 23, 18, 6, 11, 32, 21, 27, 12, 28, 36, 16, 27, 13, 21, 27, 22, 35, 26, 22, 9, 5, 0, 18, 17, 10, 9, 13, 34, 17, 25, 27, 33, 38, 24, 0, 15, 22, 14, 14, 29, 19, 22, 11, 29, 41, 2
            |42, 46, 9, 35, 43, 22, 25, 20, 43, 19, 50, 23, 33, 18, 26, 4, 14, 21, 24, 37, 37, 17, 20, 31, 40, 18, 44, 14, 14, 25, 44, 29, 22, 24, 5, 37, 32, 9, 26, 44, 15, 42, 26, 42, 50, 26, 42, 24, 31, 42, 27, 47, 40, 34, 14, 19, 15, 18, 10, 25, 24, 17, 48, 25, 39, 41, 47, 52, 15, 15, 0, 31, 24, 6, 43, 26, 25, 7, 43, 55, 16
            |20, 38, 32, 16, 45, 35, 17, 20, 46, 12, 29, 35, 8, 40, 28, 32, 42, 10, 30, 28, 11, 14, 21, 2, 13, 12, 25, 17, 40, 8, 40, 39, 9, 13, 25, 29, 20, 24, 19, 16, 42, 22, 20, 30, 25, 35, 24, 32, 38, 24, 43, 49, 26, 35, 17, 23, 22, 40, 24, 18, 20, 14, 32, 5, 21, 20, 34, 29, 44, 22, 31, 0, 8, 26, 26, 39, 10, 32, 28, 31, 22
            |20, 34, 25, 14, 39, 27, 18, 12, 40, 6, 29, 27, 9, 32, 21, 25, 35, 4, 22, 23, 13, 7, 13, 7, 16, 7, 24, 11, 33, 9, 34, 31, 5, 14, 19, 24, 15, 17, 12, 20, 34, 21, 13, 26, 27, 28, 22, 24, 30, 22, 35, 42, 23, 28, 11, 15, 14, 32, 20, 11, 13, 9, 30, 4, 19, 19, 31, 30, 37, 14, 24, 8, 0, 20, 24, 32, 12, 24, 25, 33, 14
            |39, 46, 13, 32, 45, 25, 19, 19, 45, 14, 48, 26, 29, 23, 27, 9, 20, 16, 26, 36, 33, 13, 19, 26, 36, 13, 42, 9, 20, 19, 45, 32, 17, 18, 2, 37, 31, 9, 24, 40, 20, 39, 25, 41, 47, 29, 40, 25, 34, 40, 31, 49, 39, 35, 9, 19, 14, 23, 4, 23, 23, 12, 47, 21, 37, 38, 46, 49, 21, 14, 6, 26, 20, 0, 41, 29, 19, 12, 42, 52, 16
            |7, 15, 39, 10, 28, 32, 42, 23, 29, 30, 8, 31, 18, 42, 21, 42, 48, 28, 25, 10, 16, 29, 24, 24, 16, 31, 3, 33, 45, 32, 18, 30, 29, 38, 40, 10, 11, 35, 17, 17, 47, 4, 17, 6, 12, 28, 2, 27, 27, 2, 38, 29, 4, 21, 32, 25, 29, 42, 42, 18, 19, 32, 6, 26, 5, 7, 8, 11, 51, 29, 43, 26, 24, 41, 0, 34, 35, 39, 2, 14, 27
            |38, 28, 17, 32, 19, 4, 44, 19, 19, 31, 42, 4, 36, 11, 14, 21, 20, 32, 10, 24, 38, 28, 18, 38, 42, 32, 37, 29, 16, 38, 25, 5, 34, 42, 27, 24, 26, 21, 22, 45, 18, 35, 21, 30, 45, 6, 34, 8, 9, 34, 4, 23, 31, 15, 28, 16, 19, 11, 33, 22, 20, 31, 36, 35, 34, 36, 34, 45, 23, 19, 26, 39, 32, 29, 34, 0, 40, 18, 33, 48, 18
            |30, 46, 29, 25, 50, 36, 7, 22, 51, 9, 39, 36, 17, 38, 31, 27, 38, 9, 32, 34, 21, 12, 23, 12, 23, 9, 34, 12, 37, 3, 46, 41, 7, 3, 19, 36, 27, 21, 23, 26, 38, 31, 25, 38, 35, 37, 33, 34, 41, 33, 44, 54, 34, 40, 13, 25, 22, 38, 16, 23, 24, 9, 41, 9, 30, 29, 42, 39, 40, 22, 25, 10, 12, 19, 35, 40, 0, 28, 36, 41, 22
            |40, 40, 1, 33, 36, 15, 30, 16, 36, 20, 47, 16, 32, 11, 20, 3, 11, 22, 18, 32, 36, 18, 16, 31, 39, 20, 41, 16, 9, 27, 38, 22, 24, 28, 10, 33, 29, 7, 22, 43, 10, 39, 22, 38, 47, 19, 38, 17, 25, 38, 20, 40, 36, 28, 15, 15, 11, 11, 16, 21, 20, 19, 44, 26, 36, 38, 43, 49, 13, 11, 7, 32, 24, 12, 39, 18, 28, 0, 39, 52, 13
            |9, 13, 39, 12, 26, 31, 43, 23, 27, 31, 9, 30, 20, 41, 21, 42, 48, 29, 24, 9, 18, 30, 24, 25, 18, 32, 5, 34, 44, 33, 16, 29, 30, 39, 40, 9, 11, 35, 18, 20, 46, 6, 17, 4, 14, 27, 4, 26, 25, 4, 37, 27, 3, 19, 33, 25, 29, 41, 43, 19, 19, 33, 5, 28, 7, 9, 6, 13, 51, 29, 43, 28, 25, 42, 2, 33, 36, 39, 0, 15, 27
            |13, 26, 52, 20, 40, 46, 48, 36, 41, 39, 6, 45, 25, 55, 35, 54, 62, 37, 39, 24, 20, 39, 36, 29, 18, 40, 11, 43, 58, 38, 30, 44, 37, 44, 51, 24, 23, 46, 30, 16, 60, 13, 30, 19, 6, 42, 14, 41, 41, 14, 52, 41, 17, 35, 43, 38, 41, 55, 52, 31, 32, 41, 14, 34, 16, 14, 17, 3, 64, 41, 55, 31, 33, 52, 14, 48, 41, 52, 15, 0, 39
            |27, 30, 13, 20, 30, 14, 27, 4, 30, 13, 34, 14, 20, 19, 11, 15, 23, 14, 11, 20, 24, 10, 3, 21, 27, 14, 28, 12, 20, 20, 29, 19, 16, 24, 14, 21, 16, 8, 9, 31, 22, 26, 10, 26, 35, 15, 26, 11, 19, 26, 22, 34, 24, 20, 11, 3, 2, 19, 19, 9, 8, 14, 32, 17, 24, 25, 31, 36, 25, 2, 16, 22, 14, 16, 27, 18, 22, 13, 27, 39, 0|];
early = [0, 541, 401, 0, 182, 162, 304, 242, 203, 27, 87, 127, 22, 575, 117, 384, 418, 17, 247, 0, 0, 277, 250, 32, 55, 25, 0, 22, 396, 279, 207, 139, 49, 307, 310, 121, 0, 375, 385, 508, 446, 0, 238, 0, 84, 151, 495, 138, 188, 0, 130, 171, 0, 135, 357, 247, 241, 416, 322, 261, 273, 36, 75, 1, 0, 0, 0, 642, 425, 285, 314, 0, 33, 342, 0, 157, 347, 463, 0, 95, 576];
late = [767, 657, 527, 115, 336, 311, 421, 373, 347, 157, 243, 295, 162, 718, 265, 560, 550, 161, 381, 104, 156, 424, 366, 208, 183, 174, 142, 181, 543, 414, 335, 291, 168, 454, 457, 262, 115, 519, 522, 635, 587, 79, 389, 83, 219, 273, 645, 278, 323, 80, 303, 327, 106, 274, 482, 377, 387, 588, 443, 375, 392, 151, 252, 156, 131, 133, 92, 757, 560, 399, 463, 147, 183, 451, 70, 279, 504, 571, 83, 210, 735];