% n80w140.003	   38.46 739
n = 81;
duration = [|0, 19, 35, 21, 24, 29, 15, 30, 31, 41, 17, 34, 30, 17, 27, 8, 7, 16, 46, 4, 27, 32, 6, 1, 40, 34, 6, 16, 25, 16, 23, 29, 40, 26, 28, 13, 38, 17, 14, 29, 21, 11, 7, 29, 39, 7, 34, 16, 25, 19, 13, 21, 3, 25, 11, 22, 20, 8, 39, 8, 38, 34, 18, 36, 22, 19, 17, 24, 10, 23, 20, 17, 25, 26, 6, 28, 39, 27, 6, 25, 40
            |19, 0, 39, 11, 40, 29, 4, 30, 33, 43, 36, 49, 47, 23, 16, 21, 18, 26, 59, 23, 22, 29, 16, 20, 51, 40, 18, 33, 44, 19, 35, 20, 52, 19, 29, 32, 36, 34, 21, 40, 40, 12, 26, 18, 54, 26, 25, 9, 33, 32, 32, 25, 22, 44, 29, 5, 38, 27, 50, 16, 40, 47, 12, 45, 41, 8, 35, 43, 19, 42, 39, 35, 23, 39, 14, 32, 32, 43, 13, 44, 33
            |35, 39, 0, 29, 28, 11, 40, 10, 6, 6, 38, 26, 31, 18, 27, 27, 42, 20, 29, 38, 19, 14, 40, 34, 19, 5, 41, 30, 47, 21, 17, 24, 22, 23, 10, 39, 12, 48, 22, 15, 44, 29, 37, 28, 28, 37, 24, 30, 12, 22, 39, 15, 35, 36, 34, 37, 32, 37, 18, 42, 4, 22, 27, 12, 38, 46, 46, 46, 25, 44, 42, 34, 17, 20, 38, 7, 20, 29, 33, 40, 21
            |21, 11, 29, 0, 37, 19, 14, 20, 23, 32, 37, 43, 43, 17, 6, 19, 24, 21, 53, 26, 11, 18, 21, 22, 43, 31, 23, 31, 46, 13, 29, 9, 45, 8, 19, 34, 25, 38, 15, 33, 41, 11, 28, 8, 48, 28, 14, 6, 26, 28, 34, 16, 24, 42, 30, 8, 36, 29, 42, 23, 29, 41, 4, 37, 40, 19, 38, 45, 16, 43, 40, 34, 13, 34, 19, 23, 22, 40, 15, 43, 22
            |24, 40, 28, 37, 0, 30, 38, 30, 27, 33, 14, 11, 7, 21, 39, 19, 31, 16, 23, 23, 34, 35, 30, 23, 20, 23, 30, 9, 21, 24, 11, 39, 19, 36, 28, 17, 38, 26, 21, 14, 18, 28, 20, 41, 16, 20, 42, 33, 17, 9, 17, 23, 21, 8, 15, 41, 6, 19, 19, 32, 32, 12, 33, 20, 11, 43, 24, 20, 21, 18, 16, 10, 30, 8, 30, 25, 43, 3, 27, 12, 44
            |29, 29, 11, 19, 30, 0, 30, 1, 5, 14, 37, 32, 35, 12, 16, 22, 35, 16, 38, 33, 8, 5, 33, 29, 28, 14, 34, 29, 46, 14, 19, 14, 30, 12, 2, 36, 9, 44, 16, 20, 43, 21, 32, 17, 35, 32, 15, 20, 13, 21, 36, 9, 30, 38, 31, 26, 32, 33, 27, 35, 10, 28, 17, 21, 38, 36, 43, 45, 19, 43, 40, 33, 6, 23, 31, 6, 14, 32, 25, 40, 15
            |15, 4, 40, 14, 38, 30, 0, 31, 34, 44, 33, 47, 44, 23, 19, 19, 14, 25, 58, 19, 24, 31, 11, 16, 50, 40, 13, 30, 40, 19, 33, 23, 51, 21, 30, 28, 38, 30, 19, 39, 36, 11, 22, 21, 52, 22, 28, 10, 33, 30, 28, 25, 18, 40, 26, 9, 35, 23, 49, 12, 41, 45, 13, 44, 37, 6, 30, 39, 18, 38, 35, 32, 24, 37, 10, 33, 35, 41, 10, 40, 35
            |30, 30, 10, 20, 30, 1, 31, 0, 4, 13, 38, 32, 35, 13, 17, 23, 36, 17, 38, 34, 9, 5, 34, 30, 28, 13, 35, 29, 47, 15, 19, 14, 30, 13, 3, 37, 9, 45, 17, 20, 43, 22, 33, 18, 35, 33, 15, 21, 13, 22, 37, 9, 30, 38, 32, 27, 33, 34, 26, 36, 9, 28, 18, 20, 38, 37, 44, 46, 20, 44, 41, 33, 7, 24, 32, 6, 13, 33, 26, 41, 14
            |31, 33, 6, 23, 27, 5, 34, 4, 0, 10, 36, 28, 32, 13, 21, 23, 37, 16, 33, 34, 13, 9, 35, 30, 23, 9, 36, 28, 45, 16, 16, 19, 26, 17, 4, 36, 10, 44, 17, 16, 42, 24, 33, 22, 31, 33, 19, 24, 10, 20, 36, 10, 31, 36, 31, 31, 31, 34, 22, 37, 7, 24, 22, 16, 36, 40, 43, 45, 20, 42, 40, 32, 11, 20, 33, 3, 17, 30, 28, 39, 18
            |41, 43, 6, 32, 33, 14, 44, 13, 10, 0, 44, 31, 36, 23, 29, 33, 47, 25, 32, 43, 21, 15, 45, 40, 22, 10, 46, 36, 53, 26, 23, 26, 25, 25, 14, 45, 10, 53, 27, 20, 50, 34, 42, 29, 32, 42, 25, 34, 17, 27, 45, 20, 40, 42, 40, 40, 38, 43, 21, 47, 3, 26, 31, 16, 43, 50, 52, 52, 30, 50, 47, 40, 20, 25, 43, 12, 19, 35, 38, 45, 20
            |17, 36, 38, 37, 14, 37, 33, 38, 36, 44, 0, 24, 18, 25, 41, 18, 21, 21, 37, 14, 38, 41, 22, 16, 34, 35, 21, 9, 9, 26, 21, 42, 33, 39, 35, 5, 46, 12, 23, 26, 6, 26, 10, 43, 29, 10, 47, 31, 27, 17, 5, 29, 14, 10, 7, 39, 8, 9, 33, 23, 42, 26, 33, 33, 6, 36, 10, 9, 21, 7, 4, 4, 35, 21, 23, 33, 50, 15, 23, 8, 50
            |34, 49, 26, 43, 11, 32, 47, 32, 28, 31, 24, 0, 7, 27, 45, 28, 41, 23, 13, 34, 38, 37, 41, 33, 12, 21, 40, 19, 29, 31, 15, 44, 9, 41, 30, 28, 38, 37, 29, 12, 28, 37, 30, 46, 5, 30, 46, 40, 19, 16, 28, 28, 32, 16, 25, 49, 16, 30, 11, 42, 31, 4, 40, 15, 20, 52, 35, 29, 29, 27, 26, 21, 35, 10, 40, 26, 45, 9, 37, 20, 46
            |30, 47, 31, 43, 7, 35, 44, 35, 32, 36, 18, 7, 0, 27, 45, 26, 37, 22, 19, 29, 40, 40, 37, 29, 19, 26, 36, 15, 22, 31, 16, 45, 17, 42, 33, 22, 42, 30, 28, 16, 21, 35, 26, 47, 11, 26, 48, 39, 22, 15, 22, 29, 28, 9, 21, 48, 11, 25, 18, 38, 35, 11, 39, 21, 13, 49, 28, 22, 28, 20, 19, 15, 36, 11, 36, 29, 48, 4, 34, 13, 49
            |17, 23, 18, 17, 21, 12, 23, 13, 13, 23, 25, 27, 27, 0, 18, 10, 24, 5, 36, 21, 14, 16, 22, 17, 28, 18, 23, 17, 35, 4, 12, 18, 29, 15, 10, 24, 22, 32, 4, 17, 31, 12, 20, 20, 31, 20, 22, 14, 10, 12, 24, 4, 17, 28, 19, 23, 22, 21, 26, 24, 20, 24, 13, 22, 27, 29, 31, 34, 7, 32, 29, 21, 10, 17, 20, 11, 24, 24, 15, 30, 25
            |27, 16, 27, 6, 39, 16, 19, 17, 21, 29, 41, 45, 45, 18, 0, 23, 30, 23, 53, 31, 8, 14, 27, 27, 43, 30, 29, 34, 50, 15, 30, 4, 45, 4, 17, 38, 21, 43, 18, 34, 46, 16, 33, 2, 49, 33, 9, 11, 26, 30, 38, 17, 29, 45, 34, 12, 39, 34, 42, 28, 26, 41, 9, 36, 44, 25, 43, 49, 20, 47, 44, 38, 11, 35, 25, 21, 16, 42, 21, 47, 16
            |8, 21, 27, 19, 19, 22, 19, 23, 23, 33, 18, 28, 26, 10, 23, 0, 15, 8, 40, 11, 21, 26, 14, 7, 33, 26, 14, 12, 27, 9, 16, 25, 33, 21, 20, 15, 31, 22, 6, 22, 23, 9, 11, 25, 33, 11, 29, 14, 17, 12, 15, 13, 8, 23, 11, 23, 17, 11, 31, 16, 30, 27, 15, 28, 21, 24, 21, 26, 4, 24, 21, 15, 18, 19, 12, 21, 33, 22, 8, 24, 34
            |7, 18, 42, 24, 31, 35, 14, 36, 37, 47, 21, 41, 37, 24, 30, 15, 0, 23, 53, 8, 32, 38, 3, 9, 47, 41, 1, 22, 27, 22, 30, 33, 47, 30, 34, 17, 44, 16, 20, 37, 24, 15, 11, 32, 46, 11, 38, 18, 32, 26, 17, 27, 9, 31, 16, 22, 26, 12, 46, 2, 44, 41, 21, 43, 27, 15, 17, 26, 17, 26, 23, 22, 30, 33, 5, 35, 44, 33, 10, 30, 44
            |16, 26, 20, 21, 16, 16, 25, 17, 16, 25, 21, 23, 22, 5, 23, 8, 23, 0, 33, 18, 19, 21, 22, 15, 25, 18, 22, 13, 30, 8, 8, 23, 26, 20, 14, 20, 25, 28, 6, 14, 26, 14, 17, 25, 27, 17, 27, 17, 9, 7, 20, 8, 15, 23, 15, 26, 17, 17, 24, 24, 23, 21, 17, 20, 22, 31, 27, 29, 7, 27, 24, 17, 15, 13, 20, 13, 29, 19, 16, 25, 30
            |46, 59, 29, 53, 23, 38, 58, 38, 33, 32, 37, 13, 19, 36, 53, 40, 53, 33, 0, 46, 46, 42, 53, 45, 10, 25, 52, 32, 41, 41, 25, 51, 8, 49, 36, 41, 41, 49, 39, 19, 40, 47, 43, 54, 8, 43, 52, 50, 27, 28, 41, 36, 44, 28, 38, 59, 29, 43, 11, 54, 33, 13, 49, 17, 32, 64, 47, 41, 40, 39, 38, 34, 42, 21, 52, 32, 50, 22, 48, 32, 51
            |4, 23, 38, 26, 23, 33, 19, 34, 34, 43, 14, 34, 29, 21, 31, 11, 8, 18, 46, 0, 31, 36, 9, 4, 41, 36, 7, 14, 21, 19, 24, 33, 40, 30, 31, 9, 42, 12, 17, 30, 17, 15, 4, 33, 39, 4, 38, 20, 27, 19, 9, 24, 3, 23, 8, 26, 18, 4, 39, 9, 41, 34, 22, 37, 19, 22, 12, 20, 14, 19, 16, 14, 29, 26, 9, 31, 43, 26, 11, 22, 44
            |27, 22, 19, 11, 34, 8, 24, 9, 13, 21, 38, 38, 40, 14, 8, 21, 32, 19, 46, 31, 0, 7, 29, 27, 36, 22, 31, 31, 48, 12, 24, 5, 38, 4, 9, 37, 14, 43, 15, 27, 44, 17, 32, 9, 42, 32, 8, 14, 19, 25, 37, 11, 28, 41, 32, 19, 35, 33, 34, 31, 18, 35, 11, 29, 40, 30, 43, 47, 18, 45, 42, 35, 4, 29, 27, 14, 12, 37, 22, 43, 13
            |32, 29, 14, 18, 35, 5, 31, 5, 9, 15, 41, 37, 40, 16, 14, 26, 38, 21, 42, 36, 7, 0, 35, 32, 32, 18, 37, 33, 51, 17, 24, 11, 35, 10, 7, 40, 7, 48, 19, 25, 47, 23, 36, 14, 40, 36, 10, 21, 18, 26, 40, 13, 33, 43, 35, 26, 37, 37, 31, 37, 12, 33, 18, 25, 43, 37, 47, 50, 22, 48, 45, 37, 8, 28, 33, 11, 9, 37, 28, 45, 9
            |6, 16, 40, 21, 30, 33, 11, 34, 35, 45, 22, 41, 37, 22, 27, 14, 3, 22, 53, 9, 29, 35, 0, 8, 46, 39, 2, 22, 29, 19, 29, 30, 47, 27, 31, 18, 42, 18, 18, 35, 25, 12, 12, 29, 46, 12, 35, 16, 31, 25, 18, 25, 9, 31, 17, 20, 26, 13, 45, 2, 42, 40, 19, 42, 28, 14, 19, 28, 15, 27, 25, 22, 28, 32, 2, 33, 41, 33, 7, 30, 42
            |1, 20, 34, 22, 23, 29, 16, 30, 30, 40, 16, 33, 29, 17, 27, 7, 9, 15, 45, 4, 27, 32, 8, 0, 39, 33, 8, 14, 24, 15, 22, 29, 39, 26, 27, 12, 38, 16, 13, 28, 20, 11, 6, 29, 38, 6, 34, 16, 24, 17, 12, 20, 2, 24, 9, 23, 19, 7, 37, 9, 37, 32, 18, 35, 21, 21, 16, 23, 10, 22, 19, 15, 24, 25, 7, 28, 39, 25, 7, 24, 40
            |40, 51, 19, 43, 20, 28, 50, 28, 23, 22, 34, 12, 19, 28, 43, 33, 47, 25, 10, 41, 36, 32, 46, 39, 0, 14, 46, 27, 40, 32, 17, 41, 3, 39, 26, 37, 31, 46, 31, 11, 38, 39, 38, 44, 11, 38, 42, 42, 18, 21, 37, 27, 38, 27, 33, 50, 26, 38, 1, 48, 23, 8, 40, 7, 31, 56, 44, 40, 32, 38, 36, 30, 32, 14, 45, 22, 39, 20, 41, 31, 40
            |34, 40, 5, 31, 23, 14, 40, 13, 9, 10, 35, 21, 26, 18, 30, 26, 41, 18, 25, 36, 22, 18, 39, 33, 14, 0, 40, 26, 43, 22, 13, 27, 17, 26, 13, 36, 17, 45, 22, 10, 40, 30, 35, 31, 23, 35, 28, 31, 9, 18, 36, 16, 33, 32, 31, 39, 28, 35, 13, 41, 9, 17, 29, 7, 34, 47, 43, 43, 24, 40, 38, 30, 19, 16, 37, 8, 25, 25, 33, 35, 26
            |6, 18, 41, 23, 30, 34, 13, 35, 36, 46, 21, 40, 36, 23, 29, 14, 1, 22, 52, 7, 31, 37, 2, 8, 46, 40, 0, 21, 27, 21, 29, 32, 47, 29, 33, 16, 43, 16, 19, 36, 24, 14, 11, 31, 45, 11, 37, 18, 31, 25, 16, 26, 9, 30, 16, 22, 25, 12, 45, 2, 43, 40, 21, 42, 26, 15, 17, 26, 16, 26, 23, 21, 29, 32, 4, 34, 43, 33, 9, 29, 44
            |16, 33, 30, 31, 9, 29, 30, 29, 28, 36, 9, 19, 15, 17, 34, 12, 22, 13, 32, 14, 31, 33, 22, 14, 27, 26, 21, 0, 18, 19, 13, 35, 27, 32, 26, 10, 38, 19, 16, 18, 14, 21, 11, 36, 24, 11, 39, 26, 18, 8, 10, 21, 13, 11, 6, 35, 5, 11, 26, 23, 34, 20, 27, 25, 9, 35, 17, 17, 15, 15, 12, 4, 27, 13, 21, 25, 42, 11, 20, 12, 43
            |25, 44, 47, 46, 21, 46, 40, 47, 45, 53, 9, 29, 22, 35, 50, 27, 27, 30, 41, 21, 48, 51, 29, 24, 40, 43, 27, 18, 0, 36, 30, 51, 39, 48, 44, 12, 55, 13, 33, 34, 4, 35, 18, 52, 33, 18, 56, 40, 35, 25, 12, 38, 22, 13, 16, 47, 15, 17, 40, 29, 51, 32, 42, 41, 10, 43, 11, 1, 30, 3, 6, 13, 44, 28, 30, 42, 59, 21, 31, 9, 60
            |16, 19, 21, 13, 24, 14, 19, 15, 16, 26, 26, 31, 31, 4, 15, 9, 22, 8, 41, 19, 12, 17, 19, 15, 32, 22, 21, 19, 36, 0, 16, 16, 33, 13, 12, 24, 23, 31, 3, 21, 32, 8, 20, 17, 35, 20, 20, 10, 14, 15, 24, 6, 16, 30, 20, 19, 24, 21, 30, 21, 23, 28, 9, 26, 29, 25, 30, 35, 6, 33, 30, 23, 9, 21, 17, 14, 24, 27, 12, 32, 25
            |23, 35, 17, 29, 11, 19, 33, 19, 16, 23, 21, 15, 16, 12, 30, 16, 30, 8, 25, 24, 24, 24, 29, 22, 17, 13, 29, 13, 30, 16, 0, 29, 18, 26, 16, 23, 26, 32, 14, 6, 27, 23, 22, 32, 19, 22, 32, 26, 6, 5, 23, 13, 21, 19, 18, 35, 15, 22, 16, 31, 21, 12, 25, 13, 21, 39, 30, 29, 16, 27, 25, 17, 20, 5, 28, 13, 32, 14, 24, 23, 33
            |29, 20, 24, 9, 39, 14, 23, 14, 19, 26, 42, 44, 45, 18, 4, 25, 33, 23, 51, 33, 5, 11, 30, 29, 41, 27, 32, 35, 51, 16, 29, 0, 43, 3, 15, 40, 17, 46, 19, 32, 47, 18, 35, 4, 48, 35, 5, 14, 25, 30, 40, 16, 31, 46, 35, 16, 40, 36, 40, 32, 23, 40, 11, 34, 45, 28, 45, 51, 21, 49, 46, 39, 9, 34, 28, 19, 12, 42, 23, 48, 12
            |40, 52, 22, 45, 19, 30, 51, 30, 26, 25, 33, 9, 17, 29, 45, 33, 47, 26, 8, 40, 38, 35, 47, 39, 3, 17, 47, 27, 39, 33, 18, 43, 0, 41, 29, 36, 34, 45, 32, 12, 37, 40, 38, 47, 8, 38, 45, 43, 19, 21, 36, 29, 38, 25, 33, 52, 25, 37, 4, 48, 26, 7, 42, 10, 29, 57, 43, 38, 33, 36, 35, 29, 34, 14, 45, 24, 42, 18, 42, 30, 43
            |26, 19, 23, 8, 36, 12, 21, 13, 17, 25, 39, 41, 42, 15, 4, 21, 30, 20, 49, 30, 4, 10, 27, 26, 39, 26, 29, 32, 48, 13, 26, 3, 41, 0, 13, 37, 17, 43, 16, 30, 44, 16, 32, 5, 45, 32, 8, 12, 22, 27, 37, 13, 28, 43, 32, 15, 37, 32, 38, 29, 22, 38, 9, 32, 41, 27, 42, 47, 18, 46, 43, 36, 7, 31, 25, 17, 14, 39, 21, 44, 14
            |28, 29, 10, 19, 28, 2, 30, 3, 4, 14, 35, 30, 33, 10, 17, 20, 34, 14, 36, 31, 9, 7, 31, 27, 26, 13, 33, 26, 44, 12, 16, 15, 29, 13, 0, 34, 11, 42, 14, 18, 40, 20, 31, 18, 33, 31, 16, 20, 11, 19, 34, 7, 28, 35, 29, 26, 30, 31, 25, 33, 11, 26, 17, 19, 36, 36, 41, 43, 17, 41, 38, 31, 6, 21, 29, 4, 16, 30, 24, 38, 17
            |13, 32, 39, 34, 17, 36, 28, 37, 36, 45, 5, 28, 22, 24, 38, 15, 17, 20, 41, 9, 37, 40, 18, 12, 37, 36, 16, 10, 12, 24, 23, 40, 36, 37, 34, 0, 45, 9, 21, 28, 8, 23, 6, 40, 33, 6, 44, 28, 27, 18, 0, 28, 10, 15, 5, 35, 12, 5, 36, 18, 43, 29, 30, 35, 11, 31, 7, 11, 19, 10, 7, 7, 33, 23, 18, 33, 48, 19, 19, 13, 49
            |38, 36, 12, 25, 38, 9, 38, 9, 10, 10, 46, 38, 42, 22, 21, 31, 44, 25, 41, 42, 14, 7, 42, 38, 31, 17, 43, 38, 55, 23, 26, 17, 34, 17, 11, 45, 0, 53, 25, 26, 52, 30, 42, 21, 40, 42, 15, 28, 21, 30, 45, 18, 39, 46, 40, 33, 41, 42, 30, 44, 8, 34, 25, 24, 46, 44, 52, 54, 28, 52, 50, 42, 14, 30, 40, 13, 9, 40, 34, 49, 10
            |17, 34, 48, 38, 26, 44, 30, 45, 44, 53, 12, 37, 30, 32, 43, 22, 16, 28, 49, 12, 43, 48, 18, 16, 46, 45, 16, 19, 13, 31, 32, 46, 45, 43, 42, 9, 53, 0, 28, 37, 11, 27, 11, 45, 41, 11, 50, 32, 36, 27, 9, 35, 15, 22, 14, 38, 20, 11, 45, 18, 51, 38, 35, 44, 17, 31, 2, 12, 25, 13, 12, 16, 40, 32, 20, 42, 55, 28, 23, 19, 56
            |14, 21, 22, 15, 21, 16, 19, 17, 17, 27, 23, 29, 28, 4, 18, 6, 20, 6, 39, 17, 15, 19, 18, 13, 31, 22, 19, 16, 33, 3, 14, 19, 32, 16, 14, 21, 25, 28, 0, 20, 29, 9, 17, 20, 33, 17, 23, 12, 13, 13, 21, 7, 14, 27, 17, 21, 21, 18, 29, 20, 24, 26, 11, 25, 26, 26, 28, 32, 3, 30, 27, 20, 12, 19, 16, 15, 27, 25, 11, 29, 28
            |29, 40, 15, 33, 14, 20, 39, 20, 16, 20, 26, 12, 16, 17, 34, 22, 37, 14, 19, 30, 27, 25, 35, 28, 11, 10, 36, 18, 34, 21, 6, 32, 12, 30, 18, 28, 26, 37, 20, 0, 31, 28, 28, 35, 15, 28, 34, 31, 8, 11, 28, 17, 28, 22, 24, 40, 19, 28, 9, 37, 19, 8, 30, 7, 24, 45, 36, 34, 22, 31, 29, 22, 23, 6, 34, 14, 33, 15, 30, 26, 34
            |21, 40, 44, 41, 18, 43, 36, 43, 42, 50, 6, 28, 21, 31, 46, 23, 24, 26, 40, 17, 44, 47, 25, 20, 38, 40, 24, 14, 4, 32, 27, 47, 37, 44, 40, 8, 52, 11, 29, 31, 0, 31, 14, 48, 32, 14, 52, 36, 32, 22, 8, 34, 18, 12, 12, 43, 13, 13, 38, 26, 48, 30, 38, 38, 8, 39, 8, 3, 26, 2, 2, 10, 40, 26, 26, 39, 55, 19, 27, 9, 56
            |11, 12, 29, 11, 28, 21, 11, 22, 24, 34, 26, 37, 35, 12, 16, 9, 15, 14, 47, 15, 17, 23, 12, 11, 39, 30, 14, 21, 35, 8, 23, 18, 40, 16, 20, 23, 30, 27, 9, 28, 31, 0, 17, 18, 41, 17, 23, 5, 22, 20, 23, 14, 13, 32, 19, 13, 26, 18, 38, 14, 31, 35, 7, 34, 30, 17, 27, 34, 7, 33, 29, 24, 16, 27, 10, 22, 29, 31, 5, 33, 30
            |7, 26, 37, 28, 20, 32, 22, 33, 33, 42, 10, 30, 26, 20, 33, 11, 11, 17, 43, 4, 32, 36, 12, 6, 38, 35, 11, 11, 18, 20, 22, 35, 38, 32, 31, 6, 42, 11, 17, 28, 14, 17, 0, 35, 35, 0, 39, 22, 25, 17, 6, 24, 4, 19, 5, 29, 15, 1, 37, 13, 40, 31, 24, 35, 16, 26, 11, 17, 14, 16, 13, 11, 29, 24, 12, 30, 44, 22, 13, 18, 45
            |29, 18, 28, 8, 41, 17, 21, 18, 22, 29, 43, 46, 47, 20, 2, 25, 32, 25, 54, 33, 9, 14, 29, 29, 44, 31, 31, 36, 52, 17, 32, 4, 47, 5, 18, 40, 21, 45, 20, 35, 48, 18, 35, 0, 50, 35, 7, 13, 28, 32, 40, 18, 31, 47, 36, 13, 41, 36, 43, 30, 26, 43, 11, 37, 46, 26, 45, 51, 22, 50, 46, 40, 12, 37, 27, 22, 15, 44, 23, 49, 15
            |39, 54, 28, 48, 16, 35, 52, 35, 31, 32, 29, 5, 11, 31, 49, 33, 46, 27, 8, 39, 42, 40, 46, 38, 11, 23, 45, 24, 33, 35, 19, 48, 8, 45, 33, 33, 40, 41, 33, 15, 32, 41, 35, 50, 0, 35, 50, 45, 23, 21, 33, 32, 37, 20, 30, 54, 21, 35, 11, 47, 33, 7, 44, 16, 24, 57, 39, 33, 34, 31, 30, 26, 38, 14, 45, 29, 48, 14, 42, 24, 49
            |7, 26, 37, 28, 20, 32, 22, 33, 33, 42, 10, 30, 26, 20, 33, 11, 11, 17, 43, 4, 32, 36, 12, 6, 38, 35, 11, 11, 18, 20, 22, 35, 38, 32, 31, 6, 42, 11, 17, 28, 14, 17, 0, 35, 35, 0, 39, 22, 25, 17, 6, 24, 4, 19, 5, 29, 15, 1, 37, 13, 40, 31, 24, 35, 16, 26, 11, 17, 14, 16, 13, 11, 29, 24, 12, 30, 44, 22, 13, 18, 45
            |34, 25, 24, 14, 42, 15, 28, 15, 19, 25, 47, 46, 48, 22, 9, 29, 38, 27, 52, 38, 8, 10, 35, 34, 42, 28, 37, 39, 56, 20, 32, 5, 45, 8, 16, 44, 15, 50, 23, 34, 52, 23, 39, 7, 50, 39, 0, 19, 27, 34, 44, 19, 36, 49, 40, 20, 44, 40, 41, 37, 22, 42, 16, 35, 49, 33, 50, 55, 26, 53, 50, 43, 12, 37, 33, 21, 8, 45, 28, 52, 8
            |16, 9, 30, 6, 33, 20, 10, 21, 24, 34, 31, 40, 39, 14, 11, 14, 18, 17, 50, 20, 14, 21, 16, 16, 42, 31, 18, 26, 40, 10, 26, 14, 43, 12, 20, 28, 28, 32, 12, 31, 36, 5, 22, 13, 45, 22, 19, 0, 24, 24, 28, 15, 18, 37, 24, 9, 31, 23, 40, 17, 31, 38, 3, 36, 35, 16, 32, 39, 11, 38, 35, 29, 14, 31, 13, 23, 26, 36, 9, 38, 26
            |25, 33, 12, 26, 17, 13, 33, 13, 10, 17, 27, 19, 22, 10, 26, 17, 32, 9, 27, 27, 19, 18, 31, 24, 18, 9, 31, 18, 35, 14, 6, 25, 19, 22, 11, 27, 21, 36, 13, 8, 32, 22, 25, 28, 23, 25, 27, 24, 0, 10, 27, 9, 24, 25, 22, 33, 21, 26, 16, 33, 16, 16, 23, 12, 26, 39, 35, 35, 16, 33, 30, 22, 16, 10, 29, 8, 27, 19, 24, 28, 28
            |19, 32, 22, 28, 9, 21, 30, 22, 20, 27, 17, 16, 15, 12, 30, 12, 26, 7, 28, 19, 25, 26, 25, 17, 21, 18, 25, 8, 25, 15, 5, 30, 21, 27, 19, 18, 30, 27, 13, 11, 22, 20, 17, 32, 21, 17, 34, 24, 10, 0, 18, 14, 17, 16, 13, 33, 11, 17, 20, 27, 26, 15, 24, 18, 16, 36, 25, 25, 13, 23, 20, 12, 21, 7, 24, 17, 35, 12, 21, 19, 36
            |13, 32, 39, 34, 17, 36, 28, 37, 36, 45, 5, 28, 22, 24, 38, 15, 17, 20, 41, 9, 37, 40, 18, 12, 37, 36, 16, 10, 12, 24, 23, 40, 36, 37, 34, 0, 45, 9, 21, 28, 8, 23, 6, 40, 33, 6, 44, 28, 27, 18, 0, 28, 10, 15, 5, 35, 12, 5, 36, 18, 43, 29, 30, 35, 11, 31, 7, 11, 19, 10, 7, 7, 33, 23, 18, 33, 48, 19, 19, 13, 49
            |21, 25, 15, 16, 23, 9, 25, 9, 10, 20, 29, 28, 29, 4, 17, 13, 27, 8, 36, 24, 11, 13, 25, 20, 27, 16, 26, 21, 38, 6, 13, 16, 29, 13, 7, 28, 18, 35, 7, 17, 34, 14, 24, 18, 32, 24, 19, 15, 9, 14, 28, 0, 21, 30, 23, 23, 25, 24, 26, 27, 17, 25, 13, 21, 30, 31, 34, 37, 10, 35, 32, 25, 7, 18, 23, 8, 21, 26, 18, 33, 22
            |3, 22, 35, 24, 21, 30, 18, 30, 31, 40, 14, 32, 28, 17, 29, 8, 9, 15, 44, 3, 28, 33, 9, 2, 38, 33, 9, 13, 22, 16, 21, 31, 38, 28, 28, 10, 39, 15, 14, 28, 18, 13, 4, 31, 37, 4, 36, 18, 24, 17, 10, 21, 0, 22, 8, 25, 17, 5, 37, 11, 38, 31, 20, 34, 19, 22, 14, 21, 11, 20, 17, 13, 26, 24, 9, 28, 40, 24, 9, 22, 41
            |25, 44, 36, 42, 8, 38, 40, 38, 36, 42, 10, 16, 9, 28, 45, 23, 31, 23, 28, 23, 41, 43, 31, 24, 27, 32, 30, 11, 13, 30, 19, 46, 25, 43, 35, 15, 46, 22, 27, 22, 12, 32, 19, 47, 20, 19, 49, 37, 25, 16, 15, 30, 22, 0, 15, 46, 6, 19, 27, 32, 40, 19, 38, 28, 4, 45, 20, 13, 26, 11, 10, 9, 37, 16, 31, 33, 51, 8, 30, 4, 52
            |11, 29, 34, 30, 15, 31, 26, 32, 31, 40, 7, 25, 21, 19, 34, 11, 16, 15, 38, 8, 32, 35, 17, 9, 33, 31, 16, 6, 16, 20, 18, 35, 33, 32, 29, 5, 40, 14, 17, 24, 12, 19, 5, 36, 30, 5, 40, 24, 22, 13, 5, 23, 8, 15, 0, 32, 10, 4, 32, 18, 38, 26, 26, 31, 11, 30, 12, 15, 14, 14, 10, 6, 29, 19, 17, 28, 43, 17, 16, 14, 44
            |22, 5, 37, 8, 41, 26, 9, 27, 31, 40, 39, 49, 48, 23, 12, 23, 22, 26, 59, 26, 19, 26, 20, 23, 50, 39, 22, 35, 47, 19, 35, 16, 52, 15, 26, 35, 33, 38, 21, 40, 43, 13, 29, 13, 54, 29, 20, 9, 33, 33, 35, 23, 25, 46, 32, 0, 40, 30, 49, 21, 37, 47, 10, 44, 43, 13, 38, 46, 20, 45, 42, 37, 20, 39, 18, 30, 28, 45, 16, 46, 28
            |20, 38, 32, 36, 6, 32, 35, 33, 31, 38, 8, 16, 11, 22, 39, 17, 26, 17, 29, 18, 35, 37, 26, 19, 26, 28, 25, 5, 15, 24, 15, 40, 25, 37, 30, 12, 41, 20, 21, 19, 13, 26, 15, 41, 21, 15, 44, 31, 21, 11, 12, 25, 17, 6, 10, 40, 0, 14, 25, 28, 36, 18, 32, 26, 6, 39, 18, 15, 20, 13, 10, 4, 32, 13, 26, 28, 46, 8, 25, 8, 47
            |8, 27, 37, 29, 19, 33, 23, 34, 34, 43, 9, 30, 25, 21, 34, 11, 12, 17, 43, 4, 33, 37, 13, 7, 38, 35, 12, 11, 17, 21, 22, 36, 37, 32, 31, 5, 42, 11, 18, 28, 13, 18, 1, 36, 35, 1, 40, 23, 26, 17, 5, 24, 5, 19, 4, 30, 14, 0, 36, 14, 40, 30, 25, 35, 15, 27, 10, 16, 15, 15, 12, 10, 30, 23, 13, 31, 45, 22, 14, 17, 45
            |39, 50, 18, 42, 19, 27, 49, 26, 22, 21, 33, 11, 18, 26, 42, 31, 46, 24, 11, 39, 34, 31, 45, 37, 1, 13, 45, 26, 40, 30, 16, 40, 4, 38, 25, 36, 30, 45, 29, 9, 38, 38, 37, 43, 11, 37, 41, 40, 16, 20, 36, 26, 37, 27, 32, 49, 25, 36, 0, 47, 22, 8, 39, 6, 30, 55, 43, 39, 31, 37, 36, 29, 31, 13, 43, 21, 38, 19, 39, 31, 39
            |8, 16, 42, 23, 32, 35, 12, 36, 37, 47, 23, 42, 38, 24, 28, 16, 2, 24, 54, 9, 31, 37, 2, 9, 48, 41, 2, 23, 29, 21, 31, 32, 48, 29, 33, 18, 44, 18, 20, 37, 26, 14, 13, 30, 47, 13, 37, 17, 33, 27, 18, 27, 11, 32, 18, 21, 28, 14, 47, 0, 44, 42, 20, 44, 29, 13, 19, 28, 17, 28, 25, 24, 29, 34, 4, 35, 43, 35, 9, 31, 43
            |38, 40, 4, 29, 32, 10, 41, 9, 7, 3, 42, 31, 35, 20, 26, 30, 44, 23, 33, 41, 18, 12, 42, 37, 23, 9, 43, 34, 51, 23, 21, 23, 26, 22, 11, 43, 8, 51, 24, 19, 48, 31, 40, 26, 33, 40, 22, 31, 16, 26, 43, 17, 38, 40, 38, 37, 36, 40, 22, 44, 0, 26, 28, 16, 42, 47, 50, 50, 27, 48, 46, 38, 17, 24, 40, 9, 17, 34, 35, 44, 18
            |34, 47, 22, 41, 12, 28, 45, 28, 24, 26, 26, 4, 11, 24, 41, 27, 41, 21, 13, 34, 35, 33, 40, 32, 8, 17, 40, 20, 32, 28, 12, 40, 7, 38, 26, 29, 34, 38, 26, 8, 30, 35, 31, 43, 7, 31, 42, 38, 16, 15, 29, 25, 31, 19, 26, 47, 18, 30, 8, 42, 26, 0, 37, 11, 22, 51, 36, 32, 28, 30, 28, 22, 31, 8, 39, 22, 41, 11, 35, 23, 42
            |18, 12, 27, 4, 33, 17, 13, 18, 22, 31, 33, 40, 39, 13, 9, 15, 21, 17, 49, 22, 11, 18, 19, 18, 40, 29, 21, 27, 42, 9, 25, 11, 42, 9, 17, 30, 25, 35, 11, 30, 38, 7, 24, 11, 44, 24, 16, 3, 23, 24, 30, 13, 20, 38, 26, 10, 32, 25, 39, 20, 28, 37, 0, 34, 36, 19, 34, 41, 12, 39, 36, 30, 11, 30, 16, 21, 23, 36, 12, 39, 23
            |36, 45, 12, 37, 20, 21, 44, 20, 16, 16, 33, 15, 21, 22, 36, 28, 43, 20, 17, 37, 29, 25, 42, 35, 7, 7, 42, 25, 41, 26, 13, 34, 10, 32, 19, 35, 24, 44, 25, 7, 38, 34, 35, 37, 16, 35, 35, 36, 12, 18, 35, 21, 34, 28, 31, 44, 26, 35, 6, 44, 16, 11, 34, 0, 31, 51, 43, 40, 27, 38, 36, 29, 25, 13, 40, 15, 32, 21, 36, 32, 33
            |22, 41, 38, 40, 11, 38, 37, 38, 36, 43, 6, 20, 13, 27, 44, 21, 27, 22, 32, 19, 40, 43, 28, 21, 31, 34, 26, 9, 10, 29, 21, 45, 29, 41, 36, 11, 46, 17, 26, 24, 8, 30, 16, 46, 24, 16, 49, 35, 26, 16, 11, 30, 19, 4, 11, 43, 6, 15, 30, 29, 42, 22, 36, 31, 0, 41, 15, 9, 24, 7, 6, 6, 37, 18, 28, 33, 51, 11, 27, 3, 52
            |19, 8, 46, 19, 43, 36, 6, 37, 40, 50, 36, 52, 49, 29, 25, 24, 15, 31, 64, 22, 30, 37, 14, 21, 56, 47, 15, 35, 43, 25, 39, 28, 57, 27, 36, 31, 44, 31, 26, 45, 39, 17, 26, 26, 57, 26, 33, 16, 39, 36, 31, 31, 22, 45, 30, 13, 39, 27, 55, 13, 47, 51, 19, 51, 41, 0, 32, 42, 24, 41, 38, 36, 30, 43, 13, 39, 41, 46, 16, 44, 41
            |17, 35, 46, 38, 24, 43, 30, 44, 43, 52, 10, 35, 28, 31, 43, 21, 17, 27, 47, 12, 43, 47, 19, 16, 44, 43, 17, 17, 11, 30, 30, 45, 43, 42, 41, 7, 52, 2, 28, 36, 8, 27, 11, 45, 39, 11, 50, 32, 35, 25, 7, 34, 14, 20, 12, 38, 18, 10, 43, 19, 50, 36, 34, 43, 15, 32, 0, 10, 25, 11, 9, 14, 40, 30, 20, 40, 54, 25, 23, 17, 55
            |24, 43, 46, 45, 20, 45, 39, 46, 45, 52, 9, 29, 22, 34, 49, 26, 26, 29, 41, 20, 47, 50, 28, 23, 40, 43, 26, 17, 1, 35, 29, 51, 38, 47, 43, 11, 54, 12, 32, 34, 3, 34, 17, 51, 33, 17, 55, 39, 35, 25, 11, 37, 21, 13, 15, 46, 15, 16, 39, 28, 50, 32, 41, 40, 9, 42, 10, 0, 30, 2, 5, 13, 44, 28, 29, 42, 58, 20, 30, 9, 59
            |10, 19, 25, 16, 21, 19, 18, 20, 20, 30, 21, 29, 28, 7, 20, 4, 17, 7, 40, 14, 18, 22, 15, 10, 32, 24, 16, 15, 30, 6, 16, 21, 33, 18, 17, 19, 28, 25, 3, 22, 26, 7, 14, 22, 34, 14, 26, 11, 16, 13, 19, 10, 11, 26, 14, 20, 20, 15, 31, 17, 27, 28, 12, 27, 24, 24, 25, 30, 0, 28, 25, 18, 15, 20, 13, 18, 30, 24, 9, 27, 30
            |23, 42, 44, 43, 18, 43, 38, 44, 42, 50, 7, 27, 20, 32, 47, 24, 26, 27, 39, 19, 45, 48, 27, 22, 38, 40, 26, 15, 3, 33, 27, 49, 36, 46, 41, 10, 52, 13, 30, 31, 2, 33, 16, 50, 31, 16, 53, 38, 33, 23, 10, 35, 20, 11, 14, 45, 13, 15, 37, 28, 48, 30, 39, 38, 7, 41, 11, 2, 28, 0, 3, 11, 42, 25, 28, 40, 56, 18, 29, 7, 57
            |20, 39, 42, 40, 16, 40, 35, 41, 40, 47, 4, 26, 19, 29, 44, 21, 23, 24, 38, 16, 42, 45, 25, 19, 36, 38, 23, 12, 6, 30, 25, 46, 35, 43, 38, 7, 50, 12, 27, 29, 2, 29, 13, 46, 30, 13, 50, 35, 30, 20, 7, 32, 17, 10, 10, 42, 10, 12, 36, 25, 46, 28, 36, 36, 6, 38, 9, 5, 25, 3, 0, 8, 39, 23, 25, 37, 53, 17, 26, 7, 54
            |17, 35, 34, 34, 10, 33, 32, 33, 32, 40, 4, 21, 15, 21, 38, 15, 22, 17, 34, 14, 35, 37, 22, 15, 30, 30, 21, 4, 13, 23, 17, 39, 29, 36, 31, 7, 42, 16, 20, 22, 10, 24, 11, 40, 26, 11, 43, 29, 22, 12, 7, 25, 13, 9, 6, 37, 4, 10, 29, 24, 38, 22, 30, 29, 6, 36, 14, 13, 18, 11, 8, 0, 31, 16, 22, 29, 46, 12, 22, 9, 47
            |25, 23, 17, 13, 30, 6, 24, 7, 11, 20, 35, 35, 36, 10, 11, 18, 30, 15, 42, 29, 4, 8, 28, 24, 32, 19, 29, 27, 44, 9, 20, 9, 34, 7, 6, 33, 14, 40, 12, 23, 40, 16, 29, 12, 38, 29, 12, 14, 16, 21, 33, 7, 26, 37, 29, 20, 32, 30, 31, 29, 17, 31, 11, 25, 37, 30, 40, 44, 15, 42, 39, 31, 0, 25, 25, 11, 15, 33, 20, 40, 16
            |26, 39, 20, 34, 8, 23, 37, 24, 20, 25, 21, 10, 11, 17, 35, 19, 33, 13, 21, 26, 29, 28, 32, 25, 14, 16, 32, 13, 28, 21, 5, 34, 14, 31, 21, 23, 30, 32, 19, 6, 26, 27, 24, 37, 14, 24, 37, 31, 10, 7, 23, 18, 24, 16, 19, 39, 13, 23, 13, 34, 24, 8, 30, 13, 18, 43, 30, 28, 20, 25, 23, 16, 25, 0, 31, 18, 37, 9, 28, 20, 38
            |6, 14, 38, 19, 30, 31, 10, 32, 33, 43, 23, 40, 36, 20, 25, 12, 5, 20, 52, 9, 27, 33, 2, 7, 45, 37, 4, 21, 30, 17, 28, 28, 45, 25, 29, 18, 40, 20, 16, 34, 26, 10, 12, 27, 45, 12, 33, 13, 29, 24, 18, 23, 9, 31, 17, 18, 26, 13, 43, 4, 40, 39, 16, 40, 28, 13, 20, 29, 13, 28, 25, 22, 25, 31, 0, 31, 39, 33, 5, 31, 39
            |28, 32, 7, 23, 25, 6, 33, 6, 3, 12, 33, 26, 29, 11, 21, 21, 35, 13, 32, 31, 14, 11, 33, 28, 22, 8, 34, 25, 42, 14, 13, 19, 24, 17, 4, 33, 13, 42, 15, 14, 39, 22, 30, 22, 29, 30, 21, 23, 8, 17, 33, 8, 28, 33, 28, 30, 28, 31, 21, 35, 9, 22, 21, 15, 33, 39, 40, 42, 18, 40, 37, 29, 11, 18, 31, 0, 19, 27, 26, 36, 20
            |39, 32, 20, 22, 43, 14, 35, 13, 17, 19, 50, 45, 48, 24, 16, 33, 44, 29, 50, 43, 12, 9, 41, 39, 39, 25, 43, 42, 59, 24, 32, 12, 42, 14, 16, 48, 9, 55, 27, 33, 55, 29, 44, 15, 48, 44, 8, 26, 27, 35, 48, 21, 40, 51, 43, 28, 46, 45, 38, 43, 17, 41, 23, 32, 51, 41, 54, 58, 30, 56, 53, 46, 15, 37, 39, 19, 0, 46, 34, 54, 1
            |27, 43, 29, 40, 3, 32, 41, 33, 30, 35, 15, 9, 4, 24, 42, 22, 33, 19, 22, 26, 37, 37, 33, 25, 20, 25, 33, 11, 21, 27, 14, 42, 18, 39, 30, 19, 40, 28, 25, 15, 19, 31, 22, 44, 14, 22, 45, 36, 19, 12, 19, 26, 24, 8, 17, 45, 8, 22, 19, 35, 34, 11, 36, 21, 11, 46, 25, 20, 24, 18, 17, 12, 33, 9, 33, 27, 46, 0, 31, 12, 47
            |6, 13, 33, 15, 27, 25, 10, 26, 28, 38, 23, 37, 34, 15, 21, 8, 10, 16, 48, 11, 22, 28, 7, 7, 41, 33, 9, 20, 31, 12, 24, 23, 42, 21, 24, 19, 34, 23, 11, 30, 27, 5, 13, 23, 42, 13, 28, 9, 24, 21, 19, 18, 9, 30, 16, 16, 25, 14, 39, 9, 35, 35, 12, 36, 27, 16, 23, 30, 9, 29, 26, 22, 20, 28, 5, 26, 34, 31, 0, 30, 35
            |25, 44, 40, 43, 12, 40, 40, 41, 39, 45, 8, 20, 13, 30, 47, 24, 30, 25, 32, 22, 43, 45, 30, 24, 31, 35, 29, 12, 9, 32, 23, 48, 30, 44, 38, 13, 49, 19, 29, 26, 9, 33, 18, 49, 24, 18, 52, 38, 28, 19, 13, 33, 22, 4, 14, 46, 8, 17, 31, 31, 44, 23, 39, 32, 3, 44, 17, 9, 27, 7, 7, 9, 40, 20, 31, 36, 54, 12, 30, 0, 55
            |40, 33, 21, 22, 44, 15, 35, 14, 18, 20, 50, 46, 49, 25, 16, 34, 44, 30, 51, 44, 13, 9, 42, 40, 40, 26, 44, 43, 60, 25, 33, 12, 43, 14, 17, 49, 10, 56, 28, 34, 56, 30, 45, 15, 49, 45, 8, 26, 28, 36, 49, 22, 41, 52, 44, 28, 47, 45, 39, 43, 18, 42, 23, 33, 52, 41, 55, 59, 30, 57, 54, 47, 16, 38, 39, 20, 1, 47, 35, 55, 0|];