h = 16;
w = 16;
Patterns = 0..22;
Cor = [|(u: 1, r:17, d: 0, l: 0), (u: 0, r: 1, d:17, l: 0), (u: 0, r: 0, d: 1, l:17), (u:17, r: 0, d: 0, l: 1)
       |(u: 1, r: 5, d: 0, l: 0), (u: 0, r: 1, d: 5, l: 0), (u: 0, r: 0, d: 1, l: 5), (u: 5, r: 0, d: 0, l: 1)
       |(u: 9, r:17, d: 0, l: 0), (u: 0, r: 9, d:17, l: 0), (u: 0, r: 0, d: 9, l:17), (u:17, r: 0, d: 0, l: 9)
       |(u:17, r: 9, d: 0, l: 0), (u: 0, r:17, d: 9, l: 0), (u: 0, r: 0, d:17, l: 9), (u: 9, r: 0, d: 0, l:17)|];
Bor = [|(u: 2, r: 1, d: 0, l: 1), (u: 1, r: 2, d: 1, l: 0), (u: 0, r: 1, d: 2, l: 1), (u: 1, r: 0, d: 1, l: 2)
       |(u:10, r: 9, d: 0, l: 1), (u: 1, r:10, d: 9, l: 0), (u: 0, r: 1, d:10, l: 9), (u: 9, r: 0, d: 1, l:10)
       |(u: 6, r: 1, d: 0, l: 1), (u: 1, r: 6, d: 1, l: 0), (u: 0, r: 1, d: 6, l: 1), (u: 1, r: 0, d: 1, l: 6)
       |(u: 6, r:13, d: 0, l: 1), (u: 1, r: 6, d:13, l: 0), (u: 0, r: 1, d: 6, l:13), (u:13, r: 0, d: 1, l: 6)
       |(u:11, r:17, d: 0, l: 1), (u: 1, r:11, d:17, l: 0), (u: 0, r: 1, d:11, l:17), (u:17, r: 0, d: 1, l:11)
       |(u: 7, r: 5, d: 0, l: 1), (u: 1, r: 7, d: 5, l: 0), (u: 0, r: 1, d: 7, l: 5), (u: 5, r: 0, d: 1, l: 7)
       |(u:15, r: 9, d: 0, l: 1), (u: 1, r:15, d: 9, l: 0), (u: 0, r: 1, d:15, l: 9), (u: 9, r: 0, d: 1, l:15)
       |(u: 8, r: 5, d: 0, l: 1), (u: 1, r: 8, d: 5, l: 0), (u: 0, r: 1, d: 8, l: 5), (u: 5, r: 0, d: 1, l: 8)
       |(u: 8, r:13, d: 0, l: 1), (u: 1, r: 8, d:13, l: 0), (u: 0, r: 1, d: 8, l:13), (u:13, r: 0, d: 1, l: 8)
       |(u:21, r: 5, d: 0, l: 1), (u: 1, r:21, d: 5, l: 0), (u: 0, r: 1, d:21, l: 5), (u: 5, r: 0, d: 1, l:21)
       |(u:10, r: 1, d: 0, l: 9), (u: 9, r:10, d: 1, l: 0), (u: 0, r: 9, d:10, l: 1), (u: 1, r: 0, d: 9, l:10)
       |(u:18, r:17, d: 0, l: 9), (u: 9, r:18, d:17, l: 0), (u: 0, r: 9, d:18, l:17), (u:17, r: 0, d: 9, l:18)
       |(u:14, r:13, d: 0, l: 9), (u: 9, r:14, d:13, l: 0), (u: 0, r: 9, d:14, l:13), (u:13, r: 0, d: 9, l:14)
       |(u:19, r:13, d: 0, l: 9), (u: 9, r:19, d:13, l: 0), (u: 0, r: 9, d:19, l:13), (u:13, r: 0, d: 9, l:19)
       |(u: 7, r: 9, d: 0, l: 9), (u: 9, r: 7, d: 9, l: 0), (u: 0, r: 9, d: 7, l: 9), (u: 9, r: 0, d: 9, l: 7)
       |(u:15, r: 9, d: 0, l: 9), (u: 9, r:15, d: 9, l: 0), (u: 0, r: 9, d:15, l: 9), (u: 9, r: 0, d: 9, l:15)
       |(u: 4, r: 5, d: 0, l: 9), (u: 9, r: 4, d: 5, l: 0), (u: 0, r: 9, d: 4, l: 5), (u: 5, r: 0, d: 9, l: 4)
       |(u:12, r: 1, d: 0, l: 9), (u: 9, r:12, d: 1, l: 0), (u: 0, r: 9, d:12, l: 1), (u: 1, r: 0, d: 9, l:12)
       |(u:12, r:13, d: 0, l: 9), (u: 9, r:12, d:13, l: 0), (u: 0, r: 9, d:12, l:13), (u:13, r: 0, d: 9, l:12)
       |(u:20, r: 1, d: 0, l: 9), (u: 9, r:20, d: 1, l: 0), (u: 0, r: 9, d:20, l: 1), (u: 1, r: 0, d: 9, l:20)
       |(u:21, r: 1, d: 0, l: 9), (u: 9, r:21, d: 1, l: 0), (u: 0, r: 9, d:21, l: 1), (u: 1, r: 0, d: 9, l:21)
       |(u: 2, r: 9, d: 0, l:17), (u:17, r: 2, d: 9, l: 0), (u: 0, r:17, d: 2, l: 9), (u: 9, r: 0, d:17, l: 2)
       |(u: 2, r:17, d: 0, l:17), (u:17, r: 2, d:17, l: 0), (u: 0, r:17, d: 2, l:17), (u:17, r: 0, d:17, l: 2)
       |(u:10, r:17, d: 0, l:17), (u:17, r:10, d:17, l: 0), (u: 0, r:17, d:10, l:17), (u:17, r: 0, d:17, l:10)
       |(u:18, r:17, d: 0, l:17), (u:17, r:18, d:17, l: 0), (u: 0, r:17, d:18, l:17), (u:17, r: 0, d:17, l:18)
       |(u: 7, r:13, d: 0, l:17), (u:17, r: 7, d:13, l: 0), (u: 0, r:17, d: 7, l:13), (u:13, r: 0, d:17, l: 7)
       |(u:15, r: 9, d: 0, l:17), (u:17, r:15, d: 9, l: 0), (u: 0, r:17, d:15, l: 9), (u: 9, r: 0, d:17, l:15)
       |(u:20, r:17, d: 0, l:17), (u:17, r:20, d:17, l: 0), (u: 0, r:17, d:20, l:17), (u:17, r: 0, d:17, l:20)
       |(u: 8, r: 9, d: 0, l:17), (u:17, r: 8, d: 9, l: 0), (u: 0, r:17, d: 8, l: 9), (u: 9, r: 0, d:17, l: 8)
       |(u: 8, r: 5, d: 0, l:17), (u:17, r: 8, d: 5, l: 0), (u: 0, r:17, d: 8, l: 5), (u: 5, r: 0, d:17, l: 8)
       |(u:16, r:13, d: 0, l:17), (u:17, r:16, d:13, l: 0), (u: 0, r:17, d:16, l:13), (u:13, r: 0, d:17, l:16)
       |(u:22, r: 5, d: 0, l:17), (u:17, r:22, d: 5, l: 0), (u: 0, r:17, d:22, l: 5), (u: 5, r: 0, d:17, l:22)
       |(u:18, r: 1, d: 0, l: 5), (u: 5, r:18, d: 1, l: 0), (u: 0, r: 5, d:18, l: 1), (u: 1, r: 0, d: 5, l:18)
       |(u: 3, r:13, d: 0, l: 5), (u: 5, r: 3, d:13, l: 0), (u: 0, r: 5, d: 3, l:13), (u:13, r: 0, d: 5, l: 3)
       |(u:11, r:13, d: 0, l: 5), (u: 5, r:11, d:13, l: 0), (u: 0, r: 5, d:11, l:13), (u:13, r: 0, d: 5, l:11)
       |(u:19, r: 9, d: 0, l: 5), (u: 5, r:19, d: 9, l: 0), (u: 0, r: 5, d:19, l: 9), (u: 9, r: 0, d: 5, l:19)
       |(u:19, r:17, d: 0, l: 5), (u: 5, r:19, d:17, l: 0), (u: 0, r: 5, d:19, l:17), (u:17, r: 0, d: 5, l:19)
       |(u:15, r: 1, d: 0, l: 5), (u: 5, r:15, d: 1, l: 0), (u: 0, r: 5, d:15, l: 1), (u: 1, r: 0, d: 5, l:15)
       |(u:15, r: 9, d: 0, l: 5), (u: 5, r:15, d: 9, l: 0), (u: 0, r: 5, d:15, l: 9), (u: 9, r: 0, d: 5, l:15)
       |(u:15, r:17, d: 0, l: 5), (u: 5, r:15, d:17, l: 0), (u: 0, r: 5, d:15, l:17), (u:17, r: 0, d: 5, l:15)
       |(u: 4, r: 1, d: 0, l: 5), (u: 5, r: 4, d: 1, l: 0), (u: 0, r: 5, d: 4, l: 1), (u: 1, r: 0, d: 5, l: 4)
       |(u:20, r: 5, d: 0, l: 5), (u: 5, r:20, d: 5, l: 0), (u: 0, r: 5, d:20, l: 5), (u: 5, r: 0, d: 5, l:20)
       |(u: 8, r: 5, d: 0, l: 5), (u: 5, r: 8, d: 5, l: 0), (u: 0, r: 5, d: 8, l: 5), (u: 5, r: 0, d: 5, l: 8)
       |(u:16, r: 5, d: 0, l: 5), (u: 5, r:16, d: 5, l: 0), (u: 0, r: 5, d:16, l: 5), (u: 5, r: 0, d: 5, l:16)
       |(u: 2, r:13, d: 0, l:13), (u:13, r: 2, d:13, l: 0), (u: 0, r:13, d: 2, l:13), (u:13, r: 0, d:13, l: 2)
       |(u:10, r: 1, d: 0, l:13), (u:13, r:10, d: 1, l: 0), (u: 0, r:13, d:10, l: 1), (u: 1, r: 0, d:13, l:10)
       |(u:10, r: 9, d: 0, l:13), (u:13, r:10, d: 9, l: 0), (u: 0, r:13, d:10, l: 9), (u: 9, r: 0, d:13, l:10)
       |(u: 6, r: 1, d: 0, l:13), (u:13, r: 6, d: 1, l: 0), (u: 0, r:13, d: 6, l: 1), (u: 1, r: 0, d:13, l: 6)
       |(u: 7, r: 5, d: 0, l:13), (u:13, r: 7, d: 5, l: 0), (u: 0, r:13, d: 7, l: 5), (u: 5, r: 0, d:13, l: 7)
       |(u: 4, r: 5, d: 0, l:13), (u:13, r: 4, d: 5, l: 0), (u: 0, r:13, d: 4, l: 5), (u: 5, r: 0, d:13, l: 4)
       |(u: 4, r:13, d: 0, l:13), (u:13, r: 4, d:13, l: 0), (u: 0, r:13, d: 4, l:13), (u:13, r: 0, d:13, l: 4)
       |(u: 8, r:17, d: 0, l:13), (u:13, r: 8, d:17, l: 0), (u: 0, r:13, d: 8, l:17), (u:17, r: 0, d:13, l: 8)
       |(u:16, r: 1, d: 0, l:13), (u:13, r:16, d: 1, l: 0), (u: 0, r:13, d:16, l: 1), (u: 1, r: 0, d:13, l:16)
       |(u:16, r:13, d: 0, l:13), (u:13, r:16, d:13, l: 0), (u: 0, r:13, d:16, l:13), (u:13, r: 0, d:13, l:16)
       |(u:21, r: 9, d: 0, l:13), (u:13, r:21, d: 9, l: 0), (u: 0, r:13, d:21, l: 9), (u: 9, r: 0, d:13, l:21)
       |(u:22, r:17, d: 0, l:13), (u:13, r:22, d:17, l: 0), (u: 0, r:13, d:22, l:17), (u:17, r: 0, d:13, l:22)|];
Cen = [|(u: 6, r:18, d: 2, l: 2), (u: 2, r: 6, d:18, l: 2), (u: 2, r: 2, d: 6, l:18), (u:18, r: 2, d: 2, l: 6)
       |(u:14, r: 7, d: 2, l: 2), (u: 2, r:14, d: 7, l: 2), (u: 2, r: 2, d:14, l: 7), (u: 7, r: 2, d: 2, l:14)
       |(u:10, r: 3, d: 2, l:10), (u:10, r:10, d: 3, l: 2), (u: 2, r:10, d:10, l: 3), (u: 3, r: 2, d:10, l:10)
       |(u: 2, r: 8, d: 2, l:18), (u:18, r: 2, d: 8, l: 2), (u: 2, r:18, d: 2, l: 8), (u: 8, r: 2, d:18, l: 2)
       |(u:18, r:22, d: 2, l:18), (u:18, r:18, d:22, l: 2), (u: 2, r:18, d:18, l:22), (u:22, r: 2, d:18, l:18)
       |(u:14, r:14, d: 2, l:18), (u:18, r:14, d:14, l: 2), (u: 2, r:18, d:14, l:14), (u:14, r: 2, d:18, l:14)
       |(u:11, r:10, d: 2, l:18), (u:18, r:11, d:10, l: 2), (u: 2, r:18, d:11, l:10), (u:10, r: 2, d:18, l:11)
       |(u:20, r: 6, d: 2, l:18), (u:18, r:20, d: 6, l: 2), (u: 2, r:18, d:20, l: 6), (u: 6, r: 2, d:18, l:20)
       |(u:22, r: 8, d: 2, l:18), (u:18, r:22, d: 8, l: 2), (u: 2, r:18, d:22, l: 8), (u: 8, r: 2, d:18, l:22)
       |(u: 3, r: 7, d: 2, l: 3), (u: 3, r: 3, d: 7, l: 2), (u: 2, r: 3, d: 3, l: 7), (u: 7, r: 2, d: 3, l: 3)
       |(u: 7, r:12, d: 2, l: 3), (u: 3, r: 7, d:12, l: 2), (u: 2, r: 3, d: 7, l:12), (u:12, r: 2, d: 3, l: 7)
       |(u:14, r:18, d: 2, l:11), (u:11, r:14, d:18, l: 2), (u: 2, r:11, d:14, l:18), (u:18, r: 2, d:11, l:14)
       |(u:15, r: 4, d: 2, l:11), (u:11, r:15, d: 4, l: 2), (u: 2, r:11, d:15, l: 4), (u: 4, r: 2, d:11, l:15)
       |(u:20, r:15, d: 2, l:11), (u:11, r:20, d:15, l: 2), (u: 2, r:11, d:20, l:15), (u:15, r: 2, d:11, l:20)
       |(u: 8, r: 3, d: 2, l:11), (u:11, r: 8, d: 3, l: 2), (u: 2, r:11, d: 8, l: 3), (u: 3, r: 2, d:11, l: 8)
       |(u:14, r:15, d: 2, l:19), (u:19, r:14, d:15, l: 2), (u: 2, r:19, d:14, l:15), (u:15, r: 2, d:19, l:14)
       |(u:19, r:15, d: 2, l:19), (u:19, r:19, d:15, l: 2), (u: 2, r:19, d:19, l:15), (u:15, r: 2, d:19, l:19)
       |(u: 3, r:16, d: 2, l: 7), (u: 7, r: 3, d:16, l: 2), (u: 2, r: 7, d: 3, l:16), (u:16, r: 2, d: 7, l: 3)
       |(u:20, r: 3, d: 2, l: 7), (u: 7, r:20, d: 3, l: 2), (u: 2, r: 7, d:20, l: 3), (u: 3, r: 2, d: 7, l:20)
       |(u:16, r:21, d: 2, l: 7), (u: 7, r:16, d:21, l: 2), (u: 2, r: 7, d:16, l:21), (u:21, r: 2, d: 7, l:16)
       |(u:19, r:18, d: 2, l:15), (u:15, r:19, d:18, l: 2), (u: 2, r:15, d:19, l:18), (u:18, r: 2, d:15, l:19)
       |(u:18, r:18, d: 2, l: 4), (u: 4, r:18, d:18, l: 2), (u: 2, r: 4, d:18, l:18), (u:18, r: 2, d: 4, l:18)
       |(u:11, r: 4, d: 2, l: 4), (u: 4, r:11, d: 4, l: 2), (u: 2, r: 4, d:11, l: 4), (u: 4, r: 2, d: 4, l:11)
       |(u:18, r:19, d: 2, l:12), (u:12, r:18, d:19, l: 2), (u: 2, r:12, d:18, l:19), (u:19, r: 2, d:12, l:18)
       |(u: 6, r:14, d: 2, l:12), (u:12, r: 6, d:14, l: 2), (u: 2, r:12, d: 6, l:14), (u:14, r: 2, d:12, l: 6)
       |(u: 8, r:12, d: 2, l:12), (u:12, r: 8, d:12, l: 2), (u: 2, r:12, d: 8, l:12), (u:12, r: 2, d:12, l: 8)
       |(u:16, r:20, d: 2, l:12), (u:12, r:16, d:20, l: 2), (u: 2, r:12, d:16, l:20), (u:20, r: 2, d:12, l:16)
       |(u: 2, r:21, d: 2, l:20), (u:20, r: 2, d:21, l: 2), (u: 2, r:20, d: 2, l:21), (u:21, r: 2, d:20, l: 2)
       |(u: 6, r:22, d: 2, l:20), (u:20, r: 6, d:22, l: 2), (u: 2, r:20, d: 6, l:22), (u:22, r: 2, d:20, l: 6)
       |(u: 4, r:16, d: 2, l:20), (u:20, r: 4, d:16, l: 2), (u: 2, r:20, d: 4, l:16), (u:16, r: 2, d:20, l: 4)
       |(u:11, r:12, d: 2, l: 8), (u: 8, r:11, d:12, l: 2), (u: 2, r: 8, d:11, l:12), (u:12, r: 2, d: 8, l:11)
       |(u:19, r:15, d: 2, l: 8), (u: 8, r:19, d:15, l: 2), (u: 2, r: 8, d:19, l:15), (u:15, r: 2, d: 8, l:19)
       |(u:19, r: 4, d: 2, l: 8), (u: 8, r:19, d: 4, l: 2), (u: 2, r: 8, d:19, l: 4), (u: 4, r: 2, d: 8, l:19)
       |(u: 4, r:21, d: 2, l: 8), (u: 8, r: 4, d:21, l: 2), (u: 2, r: 8, d: 4, l:21), (u:21, r: 2, d: 8, l: 4)
       |(u:12, r:14, d: 2, l: 8), (u: 8, r:12, d:14, l: 2), (u: 2, r: 8, d:12, l:14), (u:14, r: 2, d: 8, l:12)
       |(u:21, r: 3, d: 2, l:21), (u:21, r:21, d: 3, l: 2), (u: 2, r:21, d:21, l: 3), (u: 3, r: 2, d:21, l:21)
       |(u: 4, r:19, d: 2, l:22), (u:22, r: 4, d:19, l: 2), (u: 2, r:22, d: 4, l:19), (u:19, r: 2, d:22, l: 4)
       |(u:20, r: 8, d: 2, l:22), (u:22, r:20, d: 8, l: 2), (u: 2, r:22, d:20, l: 8), (u: 8, r: 2, d:22, l:20)
       |(u:21, r: 6, d: 2, l:22), (u:22, r:21, d: 6, l: 2), (u: 2, r:22, d:21, l: 6), (u: 6, r: 2, d:22, l:21)
       |(u:22, r:21, d: 2, l:22), (u:22, r:22, d:21, l: 2), (u: 2, r:22, d:22, l:21), (u:21, r: 2, d:22, l:22)
       |(u:12, r:15, d:10, l:10), (u:10, r:12, d:15, l:10), (u:10, r:10, d:12, l:15), (u:15, r:10, d:10, l:12)
       |(u:12, r:16, d:10, l:10), (u:10, r:12, d:16, l:10), (u:10, r:10, d:12, l:16), (u:16, r:10, d:10, l:12)
       |(u:16, r:19, d:10, l:10), (u:10, r:16, d:19, l:10), (u:10, r:10, d:16, l:19), (u:19, r:10, d:10, l:16)
       |(u:22, r: 6, d:10, l:10), (u:10, r:22, d: 6, l:10), (u:10, r:10, d:22, l: 6), (u: 6, r:10, d:10, l:22)
       |(u: 4, r:15, d:10, l:18), (u:18, r: 4, d:15, l:10), (u:10, r:18, d: 4, l:15), (u:15, r:10, d:18, l: 4)
       |(u: 3, r: 8, d:10, l: 6), (u: 6, r: 3, d: 8, l:10), (u:10, r: 6, d: 3, l: 8), (u: 8, r:10, d: 6, l: 3)
       |(u:19, r: 8, d:10, l: 6), (u: 6, r:19, d: 8, l:10), (u:10, r: 6, d:19, l: 8), (u: 8, r:10, d: 6, l:19)
       |(u: 4, r:15, d:10, l: 6), (u: 6, r: 4, d:15, l:10), (u:10, r: 6, d: 4, l:15), (u:15, r:10, d: 6, l: 4)
       |(u:16, r:11, d:10, l: 6), (u: 6, r:16, d:11, l:10), (u:10, r: 6, d:16, l:11), (u:11, r:10, d: 6, l:16)
       |(u:15, r:12, d:10, l:14), (u:14, r:15, d:12, l:10), (u:10, r:14, d:15, l:12), (u:12, r:10, d:14, l:15)
       |(u:12, r:15, d:10, l:14), (u:14, r:12, d:15, l:10), (u:10, r:14, d:12, l:15), (u:15, r:10, d:14, l:12)
       |(u:20, r:19, d:10, l: 3), (u: 3, r:20, d:19, l:10), (u:10, r: 3, d:20, l:19), (u:19, r:10, d: 3, l:20)
       |(u:20, r:16, d:10, l: 3), (u: 3, r:20, d:16, l:10), (u:10, r: 3, d:20, l:16), (u:16, r:10, d: 3, l:20)
       |(u:14, r: 4, d:10, l:11), (u:11, r:14, d: 4, l:10), (u:10, r:11, d:14, l: 4), (u: 4, r:10, d:11, l:14)
       |(u: 7, r:12, d:10, l:11), (u:11, r: 7, d:12, l:10), (u:10, r:11, d: 7, l:12), (u:12, r:10, d:11, l: 7)
       |(u:12, r:11, d:10, l:11), (u:11, r:12, d:11, l:10), (u:10, r:11, d:12, l:11), (u:11, r:10, d:11, l:12)
       |(u:22, r:16, d:10, l:11), (u:11, r:22, d:16, l:10), (u:10, r:11, d:22, l:16), (u:16, r:10, d:11, l:22)
       |(u: 3, r:21, d:10, l:19), (u:19, r: 3, d:21, l:10), (u:10, r:19, d: 3, l:21), (u:21, r:10, d:19, l: 3)
       |(u:16, r:12, d:10, l: 7), (u: 7, r:16, d:12, l:10), (u:10, r: 7, d:16, l:12), (u:12, r:10, d: 7, l:16)
       |(u: 8, r:22, d:10, l:15), (u:15, r: 8, d:22, l:10), (u:10, r:15, d: 8, l:22), (u:22, r:10, d:15, l: 8)
       |(u:14, r:22, d:10, l: 4), (u: 4, r:14, d:22, l:10), (u:10, r: 4, d:14, l:22), (u:22, r:10, d: 4, l:14)
       |(u: 6, r:16, d:10, l:20), (u:20, r: 6, d:16, l:10), (u:10, r:20, d: 6, l:16), (u:16, r:10, d:20, l: 6)
       |(u:14, r:19, d:10, l:20), (u:20, r:14, d:19, l:10), (u:10, r:20, d:14, l:19), (u:19, r:10, d:20, l:14)
       |(u:20, r:15, d:10, l:20), (u:20, r:20, d:15, l:10), (u:10, r:20, d:20, l:15), (u:15, r:10, d:20, l:20)
       |(u:12, r:22, d:10, l: 8), (u: 8, r:12, d:22, l:10), (u:10, r: 8, d:12, l:22), (u:22, r:10, d: 8, l:12)
       |(u:21, r:15, d:10, l: 8), (u: 8, r:21, d:15, l:10), (u:10, r: 8, d:21, l:15), (u:15, r:10, d: 8, l:21)
       |(u:14, r: 6, d:10, l:16), (u:16, r:14, d: 6, l:10), (u:10, r:16, d:14, l: 6), (u: 6, r:10, d:16, l:14)
       |(u:19, r:21, d:10, l:16), (u:16, r:19, d:21, l:10), (u:10, r:16, d:19, l:21), (u:21, r:10, d:16, l:19)
       |(u: 4, r: 3, d:10, l:16), (u:16, r: 4, d: 3, l:10), (u:10, r:16, d: 4, l: 3), (u: 3, r:10, d:16, l: 4)
       |(u:20, r: 8, d:10, l:16), (u:16, r:20, d: 8, l:10), (u:10, r:16, d:20, l: 8), (u: 8, r:10, d:16, l:20)
       |(u: 6, r:20, d:10, l:21), (u:21, r: 6, d:20, l:10), (u:10, r:21, d: 6, l:20), (u:20, r:10, d:21, l: 6)
       |(u:12, r:14, d:10, l:21), (u:21, r:12, d:14, l:10), (u:10, r:21, d:12, l:14), (u:14, r:10, d:21, l:12)
       |(u:14, r:16, d:10, l:22), (u:22, r:14, d:16, l:10), (u:10, r:22, d:14, l:16), (u:16, r:10, d:22, l:14)
       |(u:11, r: 4, d:10, l:22), (u:22, r:11, d: 4, l:10), (u:10, r:22, d:11, l: 4), (u: 4, r:10, d:22, l:11)
       |(u: 4, r: 3, d:10, l:22), (u:22, r: 4, d: 3, l:10), (u:10, r:22, d: 4, l: 3), (u: 3, r:10, d:22, l: 4)
       |(u:16, r:20, d:10, l:22), (u:22, r:16, d:20, l:10), (u:10, r:22, d:16, l:20), (u:20, r:10, d:22, l:16)
       |(u:20, r: 7, d:18, l:18), (u:18, r:20, d: 7, l:18), (u:18, r:18, d:20, l: 7), (u: 7, r:18, d:18, l:20)
       |(u: 6, r: 3, d:18, l: 6), (u: 6, r: 6, d: 3, l:18), (u:18, r: 6, d: 6, l: 3), (u: 3, r:18, d: 6, l: 6)
       |(u: 6, r:11, d:18, l: 6), (u: 6, r: 6, d:11, l:18), (u:18, r: 6, d: 6, l:11), (u:11, r:18, d: 6, l: 6)
       |(u: 6, r:12, d:18, l: 6), (u: 6, r: 6, d:12, l:18), (u:18, r: 6, d: 6, l:12), (u:12, r:18, d: 6, l: 6)
       |(u:19, r:21, d:18, l: 6), (u: 6, r:19, d:21, l:18), (u:18, r: 6, d:19, l:21), (u:21, r:18, d: 6, l:19)
       |(u:15, r: 6, d:18, l: 6), (u: 6, r:15, d: 6, l:18), (u:18, r: 6, d:15, l: 6), (u: 6, r:18, d: 6, l:15)
       |(u:16, r:12, d:18, l: 6), (u: 6, r:16, d:12, l:18), (u:18, r: 6, d:16, l:12), (u:12, r:18, d: 6, l:16)
       |(u:21, r:21, d:18, l: 6), (u: 6, r:21, d:21, l:18), (u:18, r: 6, d:21, l:21), (u:21, r:18, d: 6, l:21)
       |(u: 3, r: 4, d:18, l:14), (u:14, r: 3, d: 4, l:18), (u:18, r:14, d: 3, l: 4), (u: 4, r:18, d:14, l: 3)
       |(u:18, r:12, d:18, l: 3), (u: 3, r:18, d:12, l:18), (u:18, r: 3, d:18, l:12), (u:12, r:18, d: 3, l:18)
       |(u:18, r:22, d:18, l: 3), (u: 3, r:18, d:22, l:18), (u:18, r: 3, d:18, l:22), (u:22, r:18, d: 3, l:18)
       |(u: 3, r:14, d:18, l: 3), (u: 3, r: 3, d:14, l:18), (u:18, r: 3, d: 3, l:14), (u:14, r:18, d: 3, l: 3)
       |(u:15, r:12, d:18, l: 3), (u: 3, r:15, d:12, l:18), (u:18, r: 3, d:15, l:12), (u:12, r:18, d: 3, l:15)
       |(u: 6, r:11, d:18, l:19), (u:19, r: 6, d:11, l:18), (u:18, r:19, d: 6, l:11), (u:11, r:18, d:19, l: 6)
       |(u: 4, r:22, d:18, l:19), (u:19, r: 4, d:22, l:18), (u:18, r:19, d: 4, l:22), (u:22, r:18, d:19, l: 4)
       |(u:11, r:11, d:18, l: 7), (u: 7, r:11, d:11, l:18), (u:18, r: 7, d:11, l:11), (u:11, r:18, d: 7, l:11)
       |(u:11, r:19, d:18, l: 7), (u: 7, r:11, d:19, l:18), (u:18, r: 7, d:11, l:19), (u:19, r:18, d: 7, l:11)
       |(u:22, r:16, d:18, l: 7), (u: 7, r:22, d:16, l:18), (u:18, r: 7, d:22, l:16), (u:16, r:18, d: 7, l:22)
       |(u: 7, r: 7, d:18, l: 4), (u: 4, r: 7, d: 7, l:18), (u:18, r: 4, d: 7, l: 7), (u: 7, r:18, d: 4, l: 7)
       |(u: 7, r:12, d:18, l: 4), (u: 4, r: 7, d:12, l:18), (u:18, r: 4, d: 7, l:12), (u:12, r:18, d: 4, l: 7)
       |(u:22, r: 7, d:18, l: 4), (u: 4, r:22, d: 7, l:18), (u:18, r: 4, d:22, l: 7), (u: 7, r:18, d: 4, l:22)
       |(u: 7, r:16, d:18, l:20), (u:20, r: 7, d:16, l:18), (u:18, r:20, d: 7, l:16), (u:16, r:18, d:20, l: 7)
       |(u: 8, r: 6, d:18, l:20), (u:20, r: 8, d: 6, l:18), (u:18, r:20, d: 8, l: 6), (u: 6, r:18, d:20, l: 8)
       |(u:21, r:21, d:18, l: 8), (u: 8, r:21, d:21, l:18), (u:18, r: 8, d:21, l:21), (u:21, r:18, d: 8, l:21)
       |(u: 6, r:20, d:18, l:16), (u:16, r: 6, d:20, l:18), (u:18, r:16, d: 6, l:20), (u:20, r:18, d:16, l: 6)
       |(u:14, r:20, d:18, l:16), (u:16, r:14, d:20, l:18), (u:18, r:16, d:14, l:20), (u:20, r:18, d:16, l:14)
       |(u:15, r:11, d:18, l:22), (u:22, r:15, d:11, l:18), (u:18, r:22, d:15, l:11), (u:11, r:18, d:22, l:15)
       |(u: 4, r:16, d:18, l:22), (u:22, r: 4, d:16, l:18), (u:18, r:22, d: 4, l:16), (u:16, r:18, d:22, l: 4)
       |(u: 3, r: 4, d: 6, l:14), (u:14, r: 3, d: 4, l: 6), (u: 6, r:14, d: 3, l: 4), (u: 4, r: 6, d:14, l: 3)
       |(u: 4, r: 8, d: 6, l:14), (u:14, r: 4, d: 8, l: 6), (u: 6, r:14, d: 4, l: 8), (u: 8, r: 6, d:14, l: 4)
       |(u: 3, r: 3, d: 6, l:11), (u:11, r: 3, d: 3, l: 6), (u: 6, r:11, d: 3, l: 3), (u: 3, r: 6, d:11, l: 3)
       |(u:11, r:15, d: 6, l:19), (u:19, r:11, d:15, l: 6), (u: 6, r:19, d:11, l:15), (u:15, r: 6, d:19, l:11)
       |(u:19, r:21, d: 6, l:19), (u:19, r:19, d:21, l: 6), (u: 6, r:19, d:19, l:21), (u:21, r: 6, d:19, l:19)
       |(u: 4, r: 8, d: 6, l: 7), (u: 7, r: 4, d: 8, l: 6), (u: 6, r: 7, d: 4, l: 8), (u: 8, r: 6, d: 7, l: 4)
       |(u:20, r:16, d: 6, l: 7), (u: 7, r:20, d:16, l: 6), (u: 6, r: 7, d:20, l:16), (u:16, r: 6, d: 7, l:20)
       |(u:21, r:11, d: 6, l: 7), (u: 7, r:21, d:11, l: 6), (u: 6, r: 7, d:21, l:11), (u:11, r: 6, d: 7, l:21)
       |(u:15, r:15, d: 6, l:15), (u:15, r:15, d:15, l: 6), (u: 6, r:15, d:15, l:15), (u:15, r: 6, d:15, l:15)
       |(u:12, r:20, d: 6, l:15), (u:15, r:12, d:20, l: 6), (u: 6, r:15, d:12, l:20), (u:20, r: 6, d:15, l:12)
       |(u: 7, r:21, d: 6, l: 4), (u: 4, r: 7, d:21, l: 6), (u: 6, r: 4, d: 7, l:21), (u:21, r: 6, d: 4, l: 7)
       |(u: 7, r:19, d: 6, l:12), (u:12, r: 7, d:19, l: 6), (u: 6, r:12, d: 7, l:19), (u:19, r: 6, d:12, l: 7)
       |(u:14, r: 4, d: 6, l:20), (u:20, r:14, d: 4, l: 6), (u: 6, r:20, d:14, l: 4), (u: 4, r: 6, d:20, l:14)
       |(u:12, r:16, d: 6, l: 8), (u: 8, r:12, d:16, l: 6), (u: 6, r: 8, d:12, l:16), (u:16, r: 6, d: 8, l:12)
       |(u: 8, r:15, d: 6, l: 8), (u: 8, r: 8, d:15, l: 6), (u: 6, r: 8, d: 8, l:15), (u:15, r: 6, d: 8, l: 8)
       |(u: 7, r:16, d: 6, l:16), (u:16, r: 7, d:16, l: 6), (u: 6, r:16, d: 7, l:16), (u:16, r: 6, d:16, l: 7)
       |(u:11, r:16, d: 6, l:21), (u:21, r:11, d:16, l: 6), (u: 6, r:21, d:11, l:16), (u:16, r: 6, d:21, l:11)
       |(u: 7, r:11, d: 6, l:21), (u:21, r: 7, d:11, l: 6), (u: 6, r:21, d: 7, l:11), (u:11, r: 6, d:21, l: 7)
       |(u:19, r: 8, d:14, l:14), (u:14, r:19, d: 8, l:14), (u:14, r:14, d:19, l: 8), (u: 8, r:14, d:14, l:19)
       |(u:22, r: 7, d:14, l: 3), (u: 3, r:22, d: 7, l:14), (u:14, r: 3, d:22, l: 7), (u: 7, r:14, d: 3, l:22)
       |(u:19, r:12, d:14, l:11), (u:11, r:19, d:12, l:14), (u:14, r:11, d:19, l:12), (u:12, r:14, d:11, l:19)
       |(u: 8, r: 8, d:14, l:11), (u:11, r: 8, d: 8, l:14), (u:14, r:11, d: 8, l: 8), (u: 8, r:14, d:11, l: 8)
       |(u:21, r: 7, d:14, l:19), (u:19, r:21, d: 7, l:14), (u:14, r:19, d:21, l: 7), (u: 7, r:14, d:19, l:21)
       |(u:14, r:21, d:14, l: 7), (u: 7, r:14, d:21, l:14), (u:14, r: 7, d:14, l:21), (u:21, r:14, d: 7, l:14)
       |(u: 3, r:19, d:14, l: 7), (u: 7, r: 3, d:19, l:14), (u:14, r: 7, d: 3, l:19), (u:19, r:14, d: 7, l: 3)
       |(u:16, r:19, d:14, l: 7), (u: 7, r:16, d:19, l:14), (u:14, r: 7, d:16, l:19), (u:19, r:14, d: 7, l:16)
       |(u: 3, r: 3, d:14, l:15), (u:15, r: 3, d: 3, l:14), (u:14, r:15, d: 3, l: 3), (u: 3, r:14, d:15, l: 3)
       |(u:15, r:20, d:14, l:15), (u:15, r:15, d:20, l:14), (u:14, r:15, d:15, l:20), (u:20, r:14, d:15, l:15)
       |(u:11, r: 7, d:14, l: 4), (u: 4, r:11, d: 7, l:14), (u:14, r: 4, d:11, l: 7), (u: 7, r:14, d: 4, l:11)
       |(u:21, r:11, d:14, l:12), (u:12, r:21, d:11, l:14), (u:14, r:12, d:21, l:11), (u:11, r:14, d:12, l:21)
       |(u:21, r:22, d:14, l:12), (u:12, r:21, d:22, l:14), (u:14, r:12, d:21, l:22), (u:22, r:14, d:12, l:21)
       |(u:22, r:15, d:14, l:12), (u:12, r:22, d:15, l:14), (u:14, r:12, d:22, l:15), (u:15, r:14, d:12, l:22)
       |(u:11, r:22, d:14, l:20), (u:20, r:11, d:22, l:14), (u:14, r:20, d:11, l:22), (u:22, r:14, d:20, l:11)
       |(u:19, r: 8, d:14, l:20), (u:20, r:19, d: 8, l:14), (u:14, r:20, d:19, l: 8), (u: 8, r:14, d:20, l:19)
       |(u:20, r:20, d:14, l:20), (u:20, r:20, d:20, l:14), (u:14, r:20, d:20, l:20), (u:20, r:14, d:20, l:20)
       |(u:19, r: 3, d:14, l: 8), (u: 8, r:19, d: 3, l:14), (u:14, r: 8, d:19, l: 3), (u: 3, r:14, d: 8, l:19)
       |(u:21, r: 8, d:14, l:16), (u:16, r:21, d: 8, l:14), (u:14, r:16, d:21, l: 8), (u: 8, r:14, d:16, l:21)
       |(u:22, r: 7, d:14, l:16), (u:16, r:22, d: 7, l:14), (u:14, r:16, d:22, l: 7), (u: 7, r:14, d:16, l:22)
       |(u:12, r:19, d:14, l:21), (u:21, r:12, d:19, l:14), (u:14, r:21, d:12, l:19), (u:19, r:14, d:21, l:12)
       |(u:12, r: 8, d:14, l:21), (u:21, r:12, d: 8, l:14), (u:14, r:21, d:12, l: 8), (u: 8, r:14, d:21, l:12)
       |(u:16, r: 3, d:14, l:21), (u:21, r:16, d: 3, l:14), (u:14, r:21, d:16, l: 3), (u: 3, r:14, d:21, l:16)
       |(u:22, r:21, d:14, l:21), (u:21, r:22, d:21, l:14), (u:14, r:21, d:22, l:21), (u:21, r:14, d:21, l:22)
       |(u:22, r: 7, d: 3, l: 3), (u: 3, r:22, d: 7, l: 3), (u: 3, r: 3, d:22, l: 7), (u: 7, r: 3, d: 3, l:22)
       |(u:19, r:22, d: 3, l:11), (u:11, r:19, d:22, l: 3), (u: 3, r:11, d:19, l:22), (u:22, r: 3, d:11, l:19)
       |(u: 8, r:15, d: 3, l:11), (u:11, r: 8, d:15, l: 3), (u: 3, r:11, d: 8, l:15), (u:15, r: 3, d:11, l: 8)
       |(u:11, r:19, d: 3, l: 7), (u: 7, r:11, d:19, l: 3), (u: 3, r: 7, d:11, l:19), (u:19, r: 3, d: 7, l:11)
       |(u:16, r:15, d: 3, l: 7), (u: 7, r:16, d:15, l: 3), (u: 3, r: 7, d:16, l:15), (u:15, r: 3, d: 7, l:16)
       |(u: 3, r:16, d: 3, l:15), (u:15, r: 3, d:16, l: 3), (u: 3, r:15, d: 3, l:16), (u:16, r: 3, d:15, l: 3)
       |(u: 8, r: 8, d: 3, l: 4), (u: 4, r: 8, d: 8, l: 3), (u: 3, r: 4, d: 8, l: 8), (u: 8, r: 3, d: 4, l: 8)
       |(u: 3, r:20, d: 3, l:12), (u:12, r: 3, d:20, l: 3), (u: 3, r:12, d: 3, l:20), (u:20, r: 3, d:12, l: 3)
       |(u: 4, r:22, d: 3, l:12), (u:12, r: 4, d:22, l: 3), (u: 3, r:12, d: 4, l:22), (u:22, r: 3, d:12, l: 4)
       |(u:22, r:21, d: 3, l:12), (u:12, r:22, d:21, l: 3), (u: 3, r:12, d:22, l:21), (u:21, r: 3, d:12, l:22)
       |(u:19, r:15, d: 3, l:20), (u:20, r:19, d:15, l: 3), (u: 3, r:20, d:19, l:15), (u:15, r: 3, d:20, l:19)
       |(u: 4, r:12, d: 3, l:16), (u:16, r: 4, d:12, l: 3), (u: 3, r:16, d: 4, l:12), (u:12, r: 3, d:16, l: 4)
       |(u:11, r: 4, d: 3, l:21), (u:21, r:11, d: 4, l: 3), (u: 3, r:21, d:11, l: 4), (u: 4, r: 3, d:21, l:11)
       |(u:11, r:16, d: 3, l:22), (u:22, r:11, d:16, l: 3), (u: 3, r:22, d:11, l:16), (u:16, r: 3, d:22, l:11)
       |(u:21, r:21, d: 3, l:22), (u:22, r:21, d:21, l: 3), (u: 3, r:22, d:21, l:21), (u:21, r: 3, d:22, l:21)
       |(u:21, r:22, d: 3, l:22), (u:22, r:21, d:22, l: 3), (u: 3, r:22, d:21, l:22), (u:22, r: 3, d:22, l:21)
       |(u:12, r:22, d:11, l:11), (u:11, r:12, d:22, l:11), (u:11, r:11, d:12, l:22), (u:22, r:11, d:11, l:12)
       |(u:20, r: 7, d:11, l:11), (u:11, r:20, d: 7, l:11), (u:11, r:11, d:20, l: 7), (u: 7, r:11, d:11, l:20)
       |(u:16, r:15, d:11, l:11), (u:11, r:16, d:15, l:11), (u:11, r:11, d:16, l:15), (u:15, r:11, d:11, l:16)
       |(u:19, r:15, d:11, l: 7), (u: 7, r:19, d:15, l:11), (u:11, r: 7, d:19, l:15), (u:15, r:11, d: 7, l:19)
       |(u:12, r:12, d:11, l: 7), (u: 7, r:12, d:12, l:11), (u:11, r: 7, d:12, l:12), (u:12, r:11, d: 7, l:12)
       |(u:19, r: 8, d:11, l: 4), (u: 4, r:19, d: 8, l:11), (u:11, r: 4, d:19, l: 8), (u: 8, r:11, d: 4, l:19)
       |(u: 7, r:22, d:11, l:20), (u:20, r: 7, d:22, l:11), (u:11, r:20, d: 7, l:22), (u:22, r:11, d:20, l: 7)
       |(u:16, r: 8, d:11, l:20), (u:20, r:16, d: 8, l:11), (u:11, r:20, d:16, l: 8), (u: 8, r:11, d:20, l:16)
       |(u:12, r:20, d:11, l: 8), (u: 8, r:12, d:20, l:11), (u:11, r: 8, d:12, l:20), (u:20, r:11, d: 8, l:12)
       |(u:12, r:21, d:11, l: 8), (u: 8, r:12, d:21, l:11), (u:11, r: 8, d:12, l:21), (u:21, r:11, d: 8, l:12)
       |(u:19, r:20, d:19, l:19), (u:19, r:19, d:20, l:19), (u:19, r:19, d:19, l:20), (u:20, r:19, d:19, l:19)
       |(u:16, r: 4, d:19, l: 7), (u: 7, r:16, d: 4, l:19), (u:19, r: 7, d:16, l: 4), (u: 4, r:19, d: 7, l:16)
       |(u: 7, r: 4, d:19, l: 4), (u: 4, r: 7, d: 4, l:19), (u:19, r: 4, d: 7, l: 4), (u: 4, r:19, d: 4, l: 7)
       |(u: 7, r:20, d:19, l: 4), (u: 4, r: 7, d:20, l:19), (u:19, r: 4, d: 7, l:20), (u:20, r:19, d: 4, l: 7)
       |(u:12, r:15, d:19, l: 4), (u: 4, r:12, d:15, l:19), (u:19, r: 4, d:12, l:15), (u:15, r:19, d: 4, l:12)
       |(u: 4, r:16, d:19, l:12), (u:12, r: 4, d:16, l:19), (u:19, r:12, d: 4, l:16), (u:16, r:19, d:12, l: 4)
       |(u:15, r:22, d:19, l:20), (u:20, r:15, d:22, l:19), (u:19, r:20, d:15, l:22), (u:22, r:19, d:20, l:15)
       |(u:21, r:15, d:19, l:20), (u:20, r:21, d:15, l:19), (u:19, r:20, d:21, l:15), (u:15, r:19, d:20, l:21)
       |(u: 7, r:21, d:19, l: 8), (u: 8, r: 7, d:21, l:19), (u:19, r: 8, d: 7, l:21), (u:21, r:19, d: 8, l: 7)
       |(u: 4, r:21, d:19, l: 8), (u: 8, r: 4, d:21, l:19), (u:19, r: 8, d: 4, l:21), (u:21, r:19, d: 8, l: 4)
       |(u:15, r:12, d: 7, l:15), (u:15, r:15, d:12, l: 7), (u: 7, r:15, d:15, l:12), (u:12, r: 7, d:15, l:15)
       |(u:20, r: 8, d: 7, l:15), (u:15, r:20, d: 8, l: 7), (u: 7, r:15, d:20, l: 8), (u: 8, r: 7, d:15, l:20)
       |(u:22, r:20, d: 7, l: 4), (u: 4, r:22, d:20, l: 7), (u: 7, r: 4, d:22, l:20), (u:20, r: 7, d: 4, l:22)
       |(u:16, r:22, d: 7, l:21), (u:21, r:16, d:22, l: 7), (u: 7, r:21, d:16, l:22), (u:22, r: 7, d:21, l:16)
       |(u:21, r:22, d:15, l:15), (u:15, r:21, d:22, l:15), (u:15, r:15, d:21, l:22), (u:22, r:15, d:15, l:21)
       |(u:12, r: 4, d:15, l: 4), (u: 4, r:12, d: 4, l:15), (u:15, r: 4, d:12, l: 4), (u: 4, r:15, d: 4, l:12)
       |(u: 4, r:21, d:15, l:12), (u:12, r: 4, d:21, l:15), (u:15, r:12, d: 4, l:21), (u:21, r:15, d:12, l: 4)
       |(u:16, r:21, d:15, l:20), (u:20, r:16, d:21, l:15), (u:15, r:20, d:16, l:21), (u:21, r:15, d:20, l:16)
       |(u:22, r: 8, d: 4, l: 4), (u: 4, r:22, d: 8, l: 4), (u: 4, r: 4, d:22, l: 8), (u: 8, r: 4, d: 4, l:22)
       |(u: 8, r:12, d: 4, l:12), (u:12, r: 8, d:12, l: 4), (u: 4, r:12, d: 8, l:12), (u:12, r: 4, d:12, l: 8)
       |(u:16, r:20, d:12, l: 8), (u: 8, r:16, d:20, l:12), (u:12, r: 8, d:16, l:20), (u:20, r:12, d: 8, l:16)
       |(u:21, r:16, d:20, l:16), (u:16, r:21, d:16, l:20), (u:20, r:16, d:21, l:16), (u:16, r:20, d:16, l:21)
       |(u:16, r:22, d:20, l:22), (u:22, r:16, d:22, l:20), (u:20, r:22, d:16, l:22), (u:22, r:20, d:22, l:16)
       |(u:21, r:22, d: 8, l:22), (u:22, r:21, d:22, l: 8), (u: 8, r:22, d:21, l:22), (u:22, r: 8, d:22, l:21)|];